##TITLE=Ethanamine, 2,2-diethoxy-
##JCAMP-DX=4.24
##DATA TYPE=INFRARED SPECTRUM
##ORIGIN=Sadtler Research Labs Under US-EPA Contract
##OWNER=NIST Standard Reference Data Program
##CAS REGISTRY NO=645-36-3
##MOLFORM=C 6 H 15 N O 2
##XUNITS=1/CM
##YUNITS=ABSORBANCE
##XFACTOR=1.0
##YFACTOR=0.000119733
##DELTAX=4.0
##FIRSTX=450.0
##LASTX=3966.0
##FIRSTY=0.000000
##MAXX=3966
##MINX=450
##MAXY=1.19733
##MINY=0
##NPOINTS=880
##XYDATA=(X++(Y..Y))
450.0 0 346 498 564 528 481 521 486 445 363
490.0 519 561 528 501 530 559 597 594 479 528
530.0 616 609 579 551 583 601 581 597 590 566
570.0 586 505 555 511 519 527 536 508 467 471
610.0 525 521 472 521 470 488 498 483 522 541
650.0 512 476 554 541 582 569 603 574 572 615
690.0 571 541 526 506 543 521 601 609 544 665
730.0 729 731 774 912 979 1006 1208 1412 1542 1771
770.0 2019 2180 2336 2395 2492 2497 2394 2385 2216 2005
810.0 1821 1734 1653 1551 1538 1473 1505 1414 1414 1448
850.0 1474 1502 1384 1275 1189 1012 897 873 894 903
890.0 923 907 928 938 937 920 924 929 922 927
930.0 912 862 780 771 732 710 724 746 802 878
970.0 915 940 1065 1229 1423 1699 2054 2357 2660 2892
1010.0 3054 3133 3136 3097 3057 3085 3229 3538 3973 4645
1050.0 5598 6822 7952 9082 9874 10000 9678 9048 8332 7598
1090.0 7006 6731 6512 6194 5792 5502 5257 5228 5310 5613
1130.0 5810 5969 5997 5684 5295 4785 4247 3748 3297 2939
1170.0 2633 2405 2244 2135 2026 1960 1913 1854 1701 1580
1210.0 1396 1247 1111 1011 933 868 831 785 765 752
1250.0 756 772 776 796 843 882 900 904 893 903
1290.0 903 932 965 1009 1049 1099 1135 1159 1182 1238
1330.0 1328 1470 1631 1770 1810 1759 1624 1479 1367 1471
1370.0 1702 1955 2066 2043 1864 1575 1437 1336 1225 1168
1410.0 1061 1006 926 856 796 765 785 855 942 996
1450.0 1064 1094 1057 994 933 893 851 829 810 789
1490.0 748 694 639 610 590 585 534 534 520 518
1530.0 483 494 479 496 489 473 483 487 507 479
1570.0 492 499 498 534 533 556 599 623 698 744
1610.0 814 893 940 979 958 940 866 796 744 642
1650.0 635 571 536 495 492 485 491 481 482 480
1690.0 455 451 445 468 442 449 454 461 460 433
1730.0 434 415 400 391 371 357 324 320 330 349
1770.0 378 382 386 394 396 399 396 401 395 400
1810.0 393 397 400 394 408 405 401 401 400 417
1850.0 400 403 409 404 415 410 420 411 416 416
1890.0 423 421 423 425 424 429 431 435 433 433
1930.0 433 434 435 439 442 438 443 442 438 443
1970.0 442 437 437 434 430 426 423 416 412 411
2010.0 407 406 403 402 397 396 392 390 389 388
2050.0 386 382 383 383 382 379 381 381 383 385
2090.0 382 386 384 383 386 385 385 388 389 388
2130.0 390 390 393 394 397 398 397 398 400 398
2170.0 398 399 397 396 396 392 392 392 386 386
2210.0 382 378 378 376 378 373 373 375 372 374
2250.0 374 377 376 377 377 380 378 374 372 368
2290.0 364 363 361 359 357 354 356 354 353 349
2330.0 349 361 358 364 357 368 349 355 357 368
2370.0 367 363 370 369 367 374 373 375 380 380
2410.0 381 383 382 380 383 385 386 384 385 386
2450.0 383 381 380 381 377 381 380 381 381 382
2490.0 383 384 384 381 383 387 384 386 387 385
2530.0 389 389 389 390 392 396 396 398 398 402
2570.0 402 407 409 414 426 426 426 434 445 453
2610.0 461 469 478 490 501 503 508 514 514 511
2650.0 507 506 511 511 511 516 517 516 518 519
2690.0 518 523 532 533 537 547 556 566 577 586
2730.0 603 616 634 651 669 681 703 723 740 761
2770.0 782 804 822 840 867 893 917 942 965 979
2810.0 1003 1028 1058 1112 1173 1250 1344 1453 1574 1710
2850.0 1871 2061 2305 2617 2991 3402 3826 4204 4458 4522
2890.0 4411 4184 3928 3756 3689 3715 3777 3828 3900 3964
2930.0 4108 4355 4556 4645 4619 4443 4167 3888 3720 3707
2970.0 3930 4429 5116 5827 5967 5295 4240 3139 2268 1762
3010.0 1487 1312 1188 1082 990 907 843 776 726 677
3050.0 646 611 588 571 561 555 544 535 525 513
3090.0 503 499 493 481 479 476 466 467 462 457
3130.0 457 458 454 452 448 453 450 447 444 451
3170.0 447 447 447 447 449 443 441 447 442 440
3210.0 433 436 436 426 422 419 414 410 402 402
3250.0 400 390 390 388 388 383 383 382 380 380
3290.0 374 376 373 378 378 382 379 375 372 372
3330.0 378 382 385 391 405 414 420 414 406 404
3370.0 393 381 374 375 366 372 379 387 396 418
3410.0 431 447 453 456 448 433 423 398 384 384
3450.0 370 372 367 374 371 369 365 363 364 359
3490.0 367 371 363 360 363 362 368 361 363 363
3530.0 368 364 365 358 363 359 369 354 371 371
3570.0 384 356 363 363 372 366 383 359 371 372
3610.0 379 382 374 382 366 395 395 404 403 428
3650.0 414 450 416 432 423 427 451 430 435 408
3690.0 432 426 415 408 402 391 387 369 379 360
3730.0 398 398 388 384 369 396 345 381 367 352
3770.0 354 360 357 352 359 358 350 375 361 380
3810.0 349 372 349 365 354 353 358 372 364 378
3850.0 363 382 366 351 385 378 367 364 375 371
3890.0 379 356 363 372 371 366 362 380 373 367
3930.0 368 367 363 364 393 357 376 360 381 388
##END=
