##TITLE=Butanedioic acid, dipentyl ester
##JCAMP-DX=4.24
##DATA TYPE=INFRARED SPECTRUM
##ORIGIN=Sadtler Research Labs Under US-EPA Contract
##OWNER=NIST Standard Reference Data Program
##CAS REGISTRY NO=645-69-2
##MOLFORM=C 14 H 26 O 4
##XUNITS=1/CM
##YUNITS=ABSORBANCE
##XFACTOR=1.0
##YFACTOR=0.000059033
##DELTAX=4.0
##FIRSTX=450.0
##LASTX=3966.0
##FIRSTY=0.001830
##MAXX=3966
##MINX=450
##MAXY=0.59033
##MINY=0
##NPOINTS=880
##XYDATA=(X++(Y..Y))
450.0 31 73 22 7 1 11 10 27 9 16
490.0 32 62 59 33 24 14 19 65 67 98
530.0 57 48 27 64 87 60 117 124 92 112
570.0 160 150 95 128 155 155 105 121 139 64
610.0 139 81 90 164 184 147 226 243 217 189
650.0 198 156 79 114 74 118 99 74 86 111
690.0 143 88 116 103 129 53 113 114 157 157
730.0 157 178 170 196 133 123 132 164 165 180
770.0 130 156 148 163 157 162 152 165 184 169
810.0 203 187 222 247 231 240 233 264 285 301
850.0 295 258 289 303 342 349 366 338 307 264
890.0 273 309 291 282 242 252 255 256 267 268
930.0 268 290 289 333 343 376 431 444 548 638
970.0 835 1084 1328 1541 1617 1565 1495 1357 1312 1240
1010.0 1166 1138 1131 1186 1255 1323 1424 1487 1563 1572
1050.0 1501 1364 1204 1133 1103 1082 1041 947 861 730
1090.0 679 683 736 780 902 1018 1235 1412 1711 2017
1130.0 2356 2826 3373 4067 5195 6410 7784 8544 8461 7864
1170.0 6771 5872 5129 4434 3974 3630 3437 3347 3318 3402
1210.0 3414 3400 3418 3363 3375 3396 3461 3522 3519 3497
1250.0 3448 3335 3268 3136 2960 2827 2624 2486 2355 2213
1290.0 2098 1947 1822 1720 1667 1612 1578 1525 1446 1377
1330.0 1354 1380 1517 1702 1871 1970 1909 1755 1568 1341
1370.0 1155 1020 971 1021 1164 1189 1124 959 790 673
1410.0 625 676 747 848 893 929 947 993 938 892
1450.0 883 918 1040 1029 1076 1039 946 770 585 470
1490.0 370 308 291 238 242 218 186 187 188 161
1530.0 128 135 128 184 113 100 112 157 138 93
1570.0 106 85 105 67 65 73 74 73 66 68
1610.0 73 75 112 85 95 82 94 128 91 124
1650.0 122 196 119 139 139 179 183 201 208 273
1690.0 249 273 361 439 488 586 710 882 1000 1202
1730.0 1521 2005 2701 3877 5712 8194 10000 9831 8071 5774
1770.0 3883 2678 1965 1525 1230 981 810 635 517 420
1810.0 350 289 246 202 194 173 146 125 111 116
1850.0 98 88 78 70 69 78 61 61 52 52
1890.0 52 52 47 45 45 45 45 52 44 42
1930.0 43 39 33 44 43 37 45 41 36 43
1970.0 43 35 35 34 34 43 39 35 39 41
2010.0 45 42 43 43 42 41 51 51 51 52
2050.0 46 40 41 42 42 42 32 32 33 24
2090.0 32 32 33 33 21 27 27 23 22 22
2130.0 15 14 14 22 15 13 14 9 4 5
2170.0 4 7 5 6 5 5 4 4 4 4
2210.0 4 14 4 5 10 5 13 12 5 5
2250.0 4 4 4 4 4 4 4 4 4 4
2290.0 11 11 12 12 13 19 23 18 28 38
2330.0 31 38 44 53 61 46 54 79 81 71
2370.0 77 52 50 37 28 18 11 11 10 9
2410.0 9 9 9 9 9 9 4 10 4 1
2450.0 1 1 1 0 0 0 0 0 0 0
2490.0 0 0 0 0 0 0 0 0 0 0
2530.0 0 2 4 0 6 4 8 8 8 10
2570.0 17 10 19 19 19 20 20 20 14 22
2610.0 22 21 23 23 23 26 33 34 28 28
2650.0 34 34 35 35 44 45 53 54 62 62
2690.0 64 63 60 66 66 61 66 73 73 74
2730.0 75 84 94 103 109 110 103 108 110 113
2770.0 103 114 114 122 123 133 141 151 162 170
2810.0 189 202 226 240 268 312 356 400 471 563
2850.0 689 862 1070 1313 1570 1791 1913 1980 2018 2007
2890.0 1905 1765 1723 1784 1895 2057 2270 2559 2905 3332
2930.0 3832 4363 4774 4942 4834 4518 4310 4427 4859 5318
2970.0 5392 4855 3936 2993 2307 1816 1431 1127 899 723
3010.0 595 499 423 377 329 289 264 229 210 191
3050.0 165 149 148 131 124 121 120 109 97 100
3090.0 99 92 93 85 86 78 77 69 69 68
3130.0 55 61 63 52 57 48 56 56 55 56
3170.0 56 49 50 40 42 47 42 43 34 34
3210.0 36 35 35 28 28 26 27 20 31 24
3250.0 24 22 30 15 23 22 23 16 17 18
3290.0 26 17 14 14 20 16 26 19 20 3
3330.0 13 19 21 15 8 18 13 9 14 26
3370.0 8 17 9 8 18 26 9 10 4 10
3410.0 16 5 9 12 12 12 5 6 12 17
3450.0 20 15 19 19 31 33 43 50 59 69
3490.0 79 78 61 62 42 38 29 11 20 12
3530.0 7 15 14 6 15 15 14 8 20 31
3570.0 51 66 73 70 62 54 37 29 29 19
3610.0 47 30 26 35 33 63 38 44 39 55
3650.0 75 66 68 59 61 81 93 100 82 89
3690.0 105 90 88 98 97 115 122 117 134 134
3730.0 136 175 167 172 206 194 197 179 188 190
3770.0 198 188 201 203 194 200 206 225 242 226
3810.0 236 235 260 246 244 247 253 265 245 247
3850.0 256 300 265 256 266 274 265 258 274 269
3890.0 258 251 256 259 260 254 246 245 237 238
3930.0 255 255 244 242 249 268 15 35 36 36
##END=
