##TITLE=Tetracosane
##JCAMP-DX=4.24
##DATA TYPE=INFRARED SPECTRUM
##ORIGIN=Sadtler Research Labs Under US-EPA Contract
##OWNER=NIST Standard Reference Data Program
##CAS REGISTRY NO=646-31-1
##MOLFORM=C 24 H 50
##XUNITS=1/CM
##YUNITS=ABSORBANCE
##XFACTOR=1.0
##YFACTOR=0.000109088
##DELTAX=4.0
##FIRSTX=450.0
##LASTX=3966.0
##FIRSTY=0.003164
##MAXX=3966
##MINX=450
##MAXY=1.09088
##MINY=0
##NPOINTS=880
##XYDATA=(X++(Y..Y))
450.0 29 102 77 132 128 187 144 140 128 118
490.0 101 127 142 131 119 101 97 88 92 106
530.0 109 120 102 104 94 78 79 96 71 73
570.0 65 65 47 36 15 36 60 64 37 53
610.0 43 44 30 36 34 29 32 33 43 31
650.0 36 43 41 44 44 50 35 48 43 48
690.0 55 65 76 91 106 130 164 172 167 164
730.0 145 136 124 110 102 94 86 96 89 83
770.0 79 83 76 75 68 69 64 65 66 63
810.0 62 63 73 66 71 70 66 62 72 63
850.0 64 68 70 68 63 60 67 64 66 64
890.0 65 74 71 69 67 65 62 62 63 60
930.0 62 57 62 57 59 56 60 59 58 58
970.0 60 56 54 55 55 57 61 58 54 58
1010.0 56 58 58 55 55 52 54 59 58 60
1050.0 64 64 66 65 62 63 67 67 68 63
1090.0 61 63 60 60 57 57 55 57 56 58
1130.0 58 56 53 53 53 50 50 54 54 54
1170.0 52 53 53 55 56 54 56 53 54 55
1210.0 58 56 60 59 66 72 80 87 87 88
1250.0 81 83 82 82 89 90 98 101 112 118
1290.0 126 132 147 159 165 166 158 146 137 134
1330.0 138 153 179 206 234 260 275 257 244 228
1370.0 211 187 174 174 162 138 117 105 93 97
1410.0 93 96 96 107 115 128 164 197 276 348
1450.0 451 515 607 664 637 556 414 284 212 155
1490.0 129 100 92 75 69 63 58 49 45 47
1530.0 44 41 39 38 37 36 37 30 28 29
1570.0 32 23 28 26 26 24 27 25 21 25
1610.0 23 24 24 21 22 21 25 22 23 19
1650.0 26 16 27 19 21 20 23 21 23 20
1690.0 22 25 17 23 24 27 26 29 29 34
1730.0 37 31 34 38 44 40 35 28 25 21
1770.0 19 17 17 18 18 15 14 15 14 15
1810.0 16 13 13 13 11 9 9 10 10 9
1850.0 6 8 8 10 6 8 6 5 8 6
1890.0 7 4 6 5 5 5 6 4 2 5
1930.0 4 7 5 4 3 5 4 3 3 4
1970.0 3 2 3 1 3 4 5 5 4 4
2010.0 4 9 9 10 11 14 9 12 10 12
2050.0 9 9 9 8 8 8 4 5 7 7
2090.0 5 7 8 6 4 6 4 5 8 9
2130.0 7 10 8 9 7 6 7 7 6 8
2170.0 7 8 8 9 6 7 5 4 3 3
2210.0 5 5 5 5 3 3 1 2 4 3
2250.0 2 1 1 0 0 1 1 3 2 4
2290.0 1 5 8 6 8 8 5 5 5 2
2330.0 0 1 4 9 0 7 1 4 0 0
2370.0 0 0 2 6 3 5 4 4 4 3
2410.0 5 3 5 4 1 2 4 3 1 4
2450.0 5 2 5 5 6 6 8 7 7 6
2490.0 6 8 8 7 9 8 9 12 12 15
2530.0 19 20 17 19 20 17 21 20 21 19
2570.0 20 25 27 27 31 31 32 35 34 36
2610.0 39 41 43 46 49 50 52 53 54 58
2650.0 60 59 63 66 70 71 76 81 81 83
2690.0 83 79 74 72 74 71 67 66 69 70
2730.0 67 71 75 80 79 84 84 87 89 93
2770.0 95 102 109 119 131 145 157 173 193 208
2810.0 229 254 281 318 354 401 463 549 684 905
2850.0 1295 1965 2926 3690 3644 3023 2406 1971 1750 1634
2890.0 1552 1559 1697 1982 2377 2868 3430 4259 5534 7421
2930.0 9380 10000 8842 6907 5162 3751 2854 2384 2241 2214
2970.0 2103 1738 1285 938 720 575 473 399 346 302
3010.0 267 235 214 191 174 156 148 133 122 110
3050.0 101 92 88 82 78 71 67 65 64 61
3090.0 54 55 55 47 46 45 42 40 38 35
3130.0 36 34 35 31 28 32 29 27 25 22
3170.0 22 22 22 21 22 21 23 17 19 12
3210.0 13 12 9 10 12 14 7 5 3 10
3250.0 4 5 5 4 3 6 2 2 5 4
3290.0 4 6 3 2 4 7 6 5 7 7
3330.0 4 6 6 10 9 2 5 1 4 9
3370.0 10 7 8 9 12 11 5 8 6 12
3410.0 11 8 8 3 5 3 4 4 4 12
3450.0 6 4 7 5 3 7 6 6 6 4
3490.0 4 8 5 3 5 6 0 2 5 0
3530.0 6 2 1 5 8 5 7 5 4 14
3570.0 5 16 17 13 13 12 15 20 14 21
3610.0 19 23 21 21 19 32 17 26 27 29
3650.0 28 23 23 22 18 13 22 25 23 29
3690.0 17 18 28 28 25 25 21 19 13 15
3730.0 21 15 18 22 14 32 23 18 16 10
3770.0 23 23 12 15 13 16 15 14 20 7
3810.0 23 5 10 9 12 17 24 12 9 11
3850.0 11 14 7 12 19 16 13 12 10 10
3890.0 14 8 17 10 24 21 27 20 25 11
3930.0 15 22 21 15 32 42 20 16 23 17
##END=
