##TITLE=Pentanoic acid, 4-methyl-
##JCAMP-DX=4.24
##DATA TYPE=INFRARED SPECTRUM
##ORIGIN=Sadtler Research Labs Under US-EPA Contract
##OWNER=NIST Standard Reference Data Program
##CAS REGISTRY NO=646-07-1
##MOLFORM=C 6 H 12 O 2
##XUNITS=1/CM
##YUNITS=ABSORBANCE
##XFACTOR=1.0
##YFACTOR=0.000093640
##DELTAX=4.0
##FIRSTX=450.0
##LASTX=3966.0
##FIRSTY=0.020788
##MAXX=3966
##MINX=450
##MAXY=0.9364
##MINY=0
##NPOINTS=880
##XYDATA=(X++(Y..Y))
450.0 222 381 419 382 419 373 363 469 433 328
490.0 572 569 578 698 731 761 776 801 820 792
530.0 894 863 979 959 1134 1283 1410 1542 1637 1686
570.0 1710 1729 1659 1638 1615 1709 1857 1850 1838 1883
610.0 1886 1867 1897 1821 1831 1565 1587 1416 1265 1085
650.0 865 677 635 547 562 480 456 399 430 371
690.0 378 375 368 344 332 312 296 258 256 259
730.0 224 228 156 108 126 113 132 144 174 203
770.0 229 260 255 260 248 182 102 166 113 94
810.0 57 55 32 24 18 6 14 4 4 3
850.0 14 19 21 42 46 58 81 98 106 136
890.0 145 171 180 196 211 213 212 206 203 201
930.0 218 210 203 196 185 177 170 187 206 230
970.0 228 236 223 201 184 179 147 155 164 162
1010.0 166 174 198 209 230 254 274 312 355 415
1050.0 494 605 737 915 1171 1532 1995 2581 3218 3889
1090.0 4538 5002 5220 5235 5043 4570 4026 3479 3109 3028
1130.0 3173 3487 3821 4052 4070 3926 3649 3320 3000 2720
1170.0 2479 2210 1961 1697 1458 1252 1107 1022 982 984
1210.0 1012 1024 1001 959 885 818 761 736 743 754
1250.0 772 781 797 795 805 808 809 802 782 755
1290.0 714 676 629 601 568 558 555 566 601 638
1330.0 695 773 875 993 1105 1177 1211 1259 1327 1433
1370.0 1567 1697 1805 1872 1849 1751 1564 1343 1090 839
1410.0 680 594 571 572 580 592 607 600 617 663
1450.0 738 824 920 989 1019 1024 973 833 665 505
1490.0 370 265 191 137 106 79 71 60 45 39
1530.0 32 33 24 29 19 19 19 21 20 19
1570.0 22 18 24 22 28 17 22 21 24 26
1610.0 25 28 22 31 28 30 32 37 41 41
1650.0 45 48 60 63 75 72 87 99 109 127
1690.0 147 175 193 236 273 334 400 514 654 814
1730.0 984 1135 1360 1612 2005 2462 3145 4014 5194 6596
1770.0 8037 9363 9901 10000 9118 7836 6166 4656 3406 2494
1810.0 1844 1375 1027 765 579 435 337 268 215 174
1850.0 148 129 118 106 101 91 84 81 77 76
1890.0 71 70 68 65 59 58 57 51 47 50
1930.0 47 49 49 52 51 46 47 42 41 41
1970.0 45 38 41 44 44 43 42 43 41 42
2010.0 41 38 35 33 29 27 21 19 19 18
2050.0 12 13 17 15 4 0 4 4 1 5
2090.0 17 15 20 20 21 20 25 23 24 24
2130.0 24 25 29 26 25 25 26 27 27 29
2170.0 32 37 32 35 37 37 37 41 39 37
2210.0 38 37 35 32 36 36 42 39 43 40
2250.0 39 39 38 35 28 30 33 29 27 32
2290.0 36 39 37 45 45 54 47 48 56 46
2330.0 39 30 27 19 17 32 62 50 14 0
2370.0 0 0 0 1 10 13 16 19 17 15
2410.0 11 15 13 16 15 10 11 13 8 11
2450.0 13 5 12 9 9 12 13 10 8 15
2490.0 12 8 7 10 9 6 11 1 3 8
2530.0 8 6 4 5 10 10 8 8 8 13
2570.0 15 14 17 14 18 25 25 28 33 40
2610.0 42 45 46 46 42 49 48 51 47 51
2650.0 61 63 62 58 47 36 34 30 33 26
2690.0 39 34 34 36 34 39 44 52 57 63
2730.0 73 81 86 81 86 77 73 74 71 70
2770.0 71 73 77 79 73 80 90 111 116 133
2810.0 147 163 172 183 200 212 223 244 285 325
2850.0 385 462 594 759 983 1311 1685 1941 2083 2150
2890.0 2067 1888 1756 1706 1734 1833 1969 2140 2349 2594
2930.0 2877 3142 3397 3575 3698 3867 4187 4777 5830 6793
2970.0 6661 5991 4925 3257 1991 1274 906 662 513 409
3010.0 332 279 224 197 178 155 133 117 124 127
3050.0 114 106 117 112 97 103 95 103 95 93
3090.0 100 91 82 95 95 80 89 66 91 77
3130.0 87 57 71 72 63 85 82 76 65 76
3170.0 91 97 100 91 85 101 97 96 76 74
3210.0 67 63 58 56 35 42 35 21 29 24
3250.0 26 15 20 29 14 28 32 22 20 20
3290.0 25 28 40 41 27 30 26 37 33 28
3330.0 20 13 24 26 29 25 43 24 30 23
3370.0 22 33 25 20 35 30 28 17 8 17
3410.0 6 14 5 19 11 0 12 15 9 12
3450.0 3 12 18 19 22 12 18 14 6 22
3490.0 31 42 55 59 61 60 65 71 96 111
3530.0 122 146 143 148 188 229 261 393 687 1494
3570.0 2789 3725 3637 3559 2844 1451 576 305 170 131
3610.0 121 106 79 65 85 76 41 41 31 57
3650.0 57 34 27 38 34 43 56 25 44 26
3690.0 57 26 38 43 56 42 57 35 25 22
3730.0 26 45 90 76 48 51 29 68 19 60
3770.0 43 35 35 49 42 1 37 50 56 52
3810.0 70 48 83 67 61 48 45 63 54 30
3850.0 28 82 12 56 62 64 50 65 54 10
3890.0 32 14 58 73 67 38 54 39 56 55
3930.0 67 80 12 64 57 74 24 15 38 67
##END=
