##TITLE=1,3-Dioxolane
##JCAMP-DX=4.24
##DATA TYPE=INFRARED SPECTRUM
##ORIGIN=Sadtler Research Labs Under US-EPA Contract
##OWNER=NIST Standard Reference Data Program
##CAS REGISTRY NO=646-06-0
##MOLFORM=C 3 H 6 O 2
##XUNITS=1/CM
##YUNITS=ABSORBANCE
##XFACTOR=1.0
##YFACTOR=0.000075128
##DELTAX=4.0
##FIRSTX=450.0
##LASTX=3966.0
##FIRSTY=0.002554
##MAXX=3966
##MINX=450
##MAXY=0.75128
##MINY=0
##NPOINTS=880
##XYDATA=(X++(Y..Y))
450.0 34 48 53 54 58 56 59 61 57 52
490.0 39 64 49 50 28 31 35 54 63 74
530.0 84 62 58 9 54 56 50 50 64 69
570.0 63 76 73 72 63 70 82 37 77 77
610.0 97 111 117 124 144 187 172 231 288 324
650.0 307 385 399 409 394 450 384 347 320 260
690.0 229 192 179 146 151 127 109 115 134 118
730.0 122 121 119 125 138 137 130 135 130 141
770.0 142 148 154 152 166 171 173 220 212 228
810.0 242 265 279 313 332 379 391 438 468 507
850.0 549 574 595 656 721 779 802 915 986 1170
890.0 1461 1808 2209 2699 3315 3939 4749 5512 6384 7169
930.0 7627 7457 7210 6846 6287 5292 4335 3549 2851 2297
970.0 2046 2065 2031 1928 1682 1356 1077 896 814 849
1010.0 949 1091 1347 1640 2033 2435 2858 3218 3549 3738
1050.0 3777 3894 4277 4602 4726 4739 4830 5188 5774 6393
1090.0 7040 7758 8598 9178 9490 9923 10000 9719 9262 8595
1130.0 7879 7398 6911 6465 5702 5019 4523 4076 3721 3442
1170.0 3232 3003 2795 2631 2448 2206 1944 1660 1439 1290
1210.0 1253 1203 1027 874 807 767 709 658 634 561
1250.0 520 493 452 417 384 357 329 300 269 254
1290.0 227 217 208 199 191 191 190 176 164 170
1330.0 169 162 156 158 157 160 172 192 227 263
1370.0 323 389 417 428 420 437 485 412 401 411
1410.0 374 302 218 146 111 105 88 102 87 101
1450.0 119 139 187 199 231 246 260 289 279 278
1490.0 316 346 338 299 251 227 215 185 174 156
1530.0 138 111 87 64 58 57 45 48 38 32
1570.0 36 31 30 24 32 24 31 25 26 19
1610.0 19 20 22 23 21 25 19 21 22 21
1650.0 17 31 18 33 32 38 26 29 30 37
1690.0 25 25 21 20 16 25 25 26 31 39
1730.0 34 58 56 80 88 92 95 96 95 80
1770.0 64 53 48 43 50 40 42 40 47 42
1810.0 48 55 54 54 63 65 66 74 82 99
1850.0 117 133 145 152 160 160 162 171 167 145
1890.0 135 132 132 125 131 125 118 111 104 98
1930.0 100 114 117 124 130 138 148 155 169 175
1970.0 176 175 175 168 155 146 132 120 110 98
2010.0 97 97 102 95 104 108 109 117 121 131
2050.0 135 135 134 140 142 142 127 135 120 114
2090.0 106 94 84 81 74 63 60 62 55 61
2130.0 60 55 61 53 53 51 54 55 51 43
2170.0 42 41 41 33 33 33 33 34 34 26
2210.0 31 33 34 34 34 31 39 39 39 46
2250.0 47 51 54 55 62 62 58 70 66 68
2290.0 74 60 68 62 63 57 50 46 41 25
2330.0 31 3 15 26 8 13 7 16 0 0
2370.0 0 0 0 2 8 14 13 18 18 19
2410.0 19 19 19 13 23 19 20 9 12 12
2450.0 14 5 5 5 5 6 5 4 11 10
2490.0 9 13 10 14 13 13 20 27 20 26
2530.0 33 40 40 42 53 57 59 60 72 72
2570.0 86 86 95 106 111 113 106 106 113 120
2610.0 120 126 132 132 140 148 152 167 168 174
2650.0 186 196 210 223 242 257 278 299 313 346
2690.0 366 394 421 438 448 460 475 464 463 476
2730.0 496 524 546 608 696 758 816 860 930 986
2770.0 1011 1024 1035 1034 1041 1035 1068 1149 1228 1382
2810.0 1547 1777 2078 2404 2814 3247 3620 3980 4533 5335
2850.0 5391 5416 5680 5946 6239 6393 6512 6410 6547 6461
2890.0 6301 6208 6338 6252 6069 5956 5970 5715 5467 5331
2930.0 5468 5161 4963 4882 5014 5157 5527 5810 5676 5183
2970.0 4923 4722 4639 4582 4759 4217 3656 3273 3028 2769
3010.0 2562 2371 2187 1959 1720 1530 1333 1152 996 846
3050.0 704 573 445 338 265 213 166 147 111 97
3090.0 93 67 56 56 50 43 50 30 30 28
3130.0 28 39 34 32 24 32 33 21 12 27
3170.0 32 8 22 20 23 22 7 9 9 14
3210.0 9 9 10 3 9 16 5 10 10 10
3250.0 10 23 5 4 18 12 6 0 13 13
3290.0 12 13 7 7 10 15 20 20 21 21
3330.0 15 9 27 20 25 12 18 20 24 16
3370.0 18 5 24 24 31 19 28 23 19 25
3410.0 7 31 20 27 20 21 21 21 29 21
3450.0 27 29 22 25 38 44 28 23 25 30
3490.0 25 25 31 46 46 41 31 34 20 40
3530.0 39 43 39 34 44 32 35 33 34 32
3570.0 38 44 30 43 37 36 44 30 45 36
3610.0 43 41 53 34 31 37 35 37 41 33
3650.0 48 30 31 33 36 28 36 37 22 25
3690.0 28 29 27 29 24 14 20 31 39 31
3730.0 34 25 28 29 32 32 35 34 27 28
3770.0 31 34 33 36 27 31 32 34 33 33
3810.0 31 45 39 46 52 44 42 44 49 47
3850.0 42 48 46 43 46 52 43 37 41 45
3890.0 42 52 52 55 54 53 58 68 72 79
3930.0 76 80 81 83 80 78 77 75 72 63
##END=
