##TITLE=2-Cyclohexen-1-one, 2-methyl-5-(1-methylethenyl)-, (R)-
##JCAMP-DX=4.24
##DATA TYPE=INFRARED SPECTRUM
##ORIGIN=Sadtler Research Labs Under US-EPA Contract
##OWNER=NIST Standard Reference Data Program
##CAS REGISTRY NO=6485-40-1
##MOLFORM=C 10 H 14 O
##XUNITS=1/CM
##YUNITS=ABSORBANCE
##XFACTOR=1.0
##YFACTOR=0.000055896
##DELTAX=4.0
##FIRSTX=450.0
##LASTX=3966.0
##FIRSTY=0.001677
##MAXX=3966
##MINX=450
##MAXY=0.55896
##MINY=0
##NPOINTS=880
##XYDATA=(X++(Y..Y))
450.0 30 51 57 70 113 112 149 174 145 127
490.0 112 103 109 95 113 131 120 102 100 55
530.0 47 34 36 0 66 52 118 158 163 191
570.0 150 128 73 42 23 19 18 17 55 45
610.0 55 65 61 52 55 59 74 49 46 42
650.0 19 18 52 30 56 75 108 138 143 196
690.0 184 218 197 188 193 165 157 137 126 93
730.0 67 65 75 43 50 42 31 33 44 57
770.0 53 41 77 69 99 124 161 203 241 227
810.0 186 143 118 92 95 85 78 96 95 81
850.0 114 126 119 149 164 175 239 382 613 948
890.0 1409 1757 1974 1769 1385 928 586 367 258 204
930.0 182 165 164 155 158 165 183 211 200 176
970.0 148 139 139 152 178 217 262 279 261 252
1010.0 239 245 247 271 299 314 340 347 373 391
1050.0 410 418 379 337 307 268 234 243 279 362
1090.0 482 640 874 1136 1385 1470 1397 1137 812 546
1130.0 386 341 342 332 316 280 226 190 153 127
1170.0 119 112 112 117 116 132 160 194 240 261
1210.0 269 252 233 247 297 396 540 684 754 748
1250.0 678 558 489 434 380 321 264 210 196 196
1290.0 199 214 226 215 225 228 241 261 290 338
1330.0 350 379 399 474 585 725 908 1121 1300 1422
1370.0 1476 1417 1335 1249 1064 891 721 550 480 437
1410.0 417 463 474 588 666 780 875 1007 1074 1094
1450.0 1093 1046 954 866 693 495 324 237 214 156
1490.0 117 126 95 93 61 44 67 58 46 72
1530.0 60 91 66 55 73 97 92 72 101 121
1570.0 118 110 116 116 140 140 165 164 182 184
1610.0 192 197 202 249 281 389 484 659 848 976
1650.0 1012 941 838 725 692 754 919 1369 2071 3558
1690.0 5858 8577 10000 9593 7649 4184 2105 1071 637 442
1730.0 339 243 225 181 150 112 123 125 117 121
1770.0 109 105 121 115 143 154 171 197 189 184
1810.0 152 114 97 67 49 44 41 44 23 28
1850.0 39 42 38 37 22 12 28 33 25 18
1890.0 26 28 28 30 30 37 34 34 29 38
1930.0 33 40 44 35 46 40 41 30 25 26
1970.0 29 24 23 32 28 20 21 20 28 24
2010.0 25 21 29 30 25 33 25 31 33 40
2050.0 37 33 34 39 27 42 32 32 32 32
2090.0 24 22 34 23 24 30 23 23 23 33
2130.0 32 23 32 23 34 23 23 24 25 19
2170.0 23 17 15 24 14 15 16 14 31 16
2210.0 21 33 37 31 31 31 40 32 31 30
2250.0 30 31 31 20 26 32 20 19 19 17
2290.0 7 13 9 9 6 9 3 3 10 10
2330.0 10 3 0 18 10 5 1 11 9 8
2370.0 19 6 14 8 24 29 21 21 21 21
2410.0 30 30 30 31 31 31 30 20 23 31
2450.0 28 29 22 29 31 31 31 31 31 36
2490.0 34 38 40 30 31 29 21 20 21 23
2530.0 22 29 26 26 29 31 27 29 29 29
2570.0 29 29 30 32 31 37 33 30 28 31
2610.0 31 38 38 37 37 39 28 28 28 28
2650.0 28 22 30 36 27 29 37 29 29 28
2690.0 31 27 31 33 34 27 38 34 38 45
2730.0 46 63 72 81 80 77 68 63 62 62
2770.0 55 53 63 63 62 72 71 82 88 98
2810.0 109 137 148 189 214 267 339 438 520 589
2850.0 626 662 708 760 815 839 849 860 916 1040
2890.0 1236 1444 1615 1676 1644 1501 1351 1311 1410 1698
2930.0 2158 2471 2465 2209 1751 1347 1183 1167 1257 1460
2970.0 1703 1965 2243 2315 2150 1847 1463 1177 985 842
3010.0 744 696 711 704 709 679 593 487 393 308
3050.0 262 244 235 235 262 306 410 559 666 767
3090.0 821 717 622 458 257 146 110 84 68 69
3130.0 56 57 45 41 32 35 25 34 15 25
3170.0 24 25 17 18 17 19 15 15 14 14
3210.0 14 7 25 16 17 24 22 16 16 20
3250.0 24 18 12 14 15 17 26 25 34 26
3290.0 16 9 18 17 14 7 17 17 16 9
3330.0 18 25 18 25 36 30 33 57 64 102
3370.0 122 155 156 148 130 92 66 30 24 13
3410.0 13 8 15 8 8 18 16 9 9 8
3450.0 8 11 13 18 20 13 8 23 15 7
3490.0 17 9 14 16 15 20 26 11 10 13
3530.0 14 18 14 15 22 16 17 4 24 12
3570.0 22 14 12 15 16 22 13 12 13 21
3610.0 22 6 21 28 16 34 14 3 11 11
3650.0 16 10 10 3 2 2 6 11 13 4
3690.0 8 2 1 8 1 0 0 0 0 0
3730.0 0 0 0 0 4 0 6 0 5 0
3770.0 0 3 14 2 1 5 2 0 0 3
3810.0 0 0 0 1 2 1 1 9 8 11
3850.0 4 14 17 8 6 7 15 8 14 12
3890.0 6 7 5 3 13 6 5 4 4 4
3930.0 12 12 12 12 11 11 10 10 10 11
##END=
