##TITLE=2-Norbornaneacetic acid
##JCAMP-DX=4.24
##DATA TYPE=INFRARED SPECTRUM
##ORIGIN=Sadtler Research Labs Under US-EPA Contract
##OWNER=NIST Standard Reference Data Program
##CAS REGISTRY NO=6485-19-4
##MOLFORM=C 9 H 14 O 2
##XUNITS=1/CM
##YUNITS=ABSORBANCE
##XFACTOR=1.0
##YFACTOR=0.000128958
##DELTAX=4.0
##FIRSTX=450.0
##LASTX=3966.0
##FIRSTY=0.001290
##MAXX=3966
##MINX=450
##MAXY=1.28958
##MINY=0
##NPOINTS=880
##XYDATA=(X++(Y..Y))
450.0 10 19 20 17 38 16 30 53 65 87
490.0 118 147 187 244 290 335 357 326 289 282
530.0 273 310 370 462 562 719 869 988 1044 1044
570.0 972 875 800 713 670 666 702 763 876 979
610.0 1047 1086 1100 1125 1180 1206 1180 1078 929 772
650.0 639 540 460 409 382 352 382 425 458 454
690.0 418 356 305 266 235 211 171 139 100 74
730.0 49 37 30 50 48 50 56 39 27 26
770.0 26 26 23 19 19 21 25 26 29 37
810.0 45 46 46 47 42 47 60 74 86 95
850.0 97 94 108 109 123 127 123 125 125 127
890.0 128 124 118 98 94 91 98 109 134 142
930.0 144 145 144 149 162 177 190 184 169 146
970.0 113 88 76 72 77 87 100 109 124 145
1010.0 161 180 203 220 235 250 266 287 312 343
1050.0 376 418 473 541 636 762 939 1163 1429 1731
1090.0 2067 2421 2825 3363 3962 4268 4404 4241 3594 2975
1130.0 2364 1864 1643 1597 1627 1711 1781 1810 1830 1783
1170.0 1660 1457 1192 950 787 709 689 708 739 762
1210.0 778 771 736 690 634 568 528 508 493 484
1250.0 483 494 515 543 568 574 558 523 500 495
1290.0 510 537 556 560 561 551 530 502 479 470
1330.0 488 536 613 701 758 771 742 694 664 673
1370.0 732 804 873 909 879 789 656 502 385 319
1410.0 295 299 316 339 359 368 360 350 358 398
1450.0 469 566 628 611 530 415 307 238 185 151
1490.0 116 79 57 45 38 31 27 22 18 15
1530.0 15 15 12 9 9 10 10 4 4 7
1570.0 2 4 5 6 9 9 12 16 17 21
1610.0 21 21 21 23 23 23 23 26 27 27
1650.0 31 33 37 39 44 51 62 75 88 106
1690.0 122 140 162 191 225 272 322 387 467 555
1730.0 648 762 929 1152 1424 1727 2085 2554 3257 4295
1770.0 5499 6412 6740 6310 5189 3990 3026 2349 1872 1496
1810.0 1164 876 624 432 314 242 194 158 131 106
1850.0 89 74 63 58 54 48 46 43 38 34
1890.0 32 30 27 27 25 26 24 26 27 28
1930.0 29 27 28 27 28 26 27 26 24 23
1970.0 22 21 19 19 18 18 18 17 14 14
2010.0 12 10 13 12 10 12 11 11 13 13
2050.0 13 12 14 13 13 15 15 14 10 7
2090.0 6 5 5 4 6 8 8 9 9 9
2130.0 8 10 8 10 10 11 12 15 18 17
2170.0 20 18 18 17 20 21 23 22 22 23
2210.0 23 25 25 23 25 24 21 22 21 22
2250.0 21 22 23 22 22 23 23 21 22 25
2290.0 22 24 26 25 29 36 33 32 31 31
2330.0 23 17 18 15 16 20 11 7 4 5
2370.0 3 5 8 10 6 1 0 1 2 0
2410.0 0 0 0 2 4 6 9 9 9 10
2450.0 12 11 13 11 12 10 10 12 12 10
2490.0 10 10 7 8 6 8 6 7 7 8
2530.0 7 4 7 6 6 9 9 10 11 13
2570.0 16 16 16 15 15 13 15 14 16 14
2610.0 17 16 15 17 16 13 12 12 11 10
2650.0 9 10 9 10 12 12 13 14 14 16
2690.0 17 19 20 21 23 21 20 22 20 18
2730.0 17 14 15 17 16 16 17 19 23 27
2770.0 30 34 35 37 38 38 38 38 38 39
2810.0 43 48 54 61 66 75 86 94 111 137
2850.0 177 241 354 540 836 1257 1799 2334 2581 2493
2890.0 2120 1572 1134 901 835 914 1112 1379 1635 1835
2930.0 2002 2194 2496 3021 3889 5255 7197 9157 10000 9372
2970.0 7383 4881 2948 1772 1083 696 470 337 248 194
3010.0 157 135 121 108 102 92 83 77 72 70
3050.0 68 64 63 60 51 47 45 42 39 39
3090.0 38 37 35 36 36 35 36 34 32 29
3130.0 28 23 23 21 21 18 15 16 16 17
3170.0 18 18 18 23 23 26 29 27 25 25
3210.0 25 23 22 20 19 18 14 13 12 12
3250.0 11 11 10 11 9 10 11 9 9 11
3290.0 9 12 11 9 12 13 12 10 13 11
3330.0 15 17 19 13 17 15 17 19 13 10
3370.0 12 8 7 4 6 7 8 8 8 9
3410.0 12 16 17 19 16 14 12 5 3 6
3450.0 6 3 2 5 2 0 2 4 4 6
3490.0 13 10 12 22 26 30 40 41 45 48
3530.0 46 47 53 60 80 97 127 237 517 1279
3570.0 2273 2688 2639 2078 1079 432 189 108 64 52
3610.0 46 37 34 21 22 31 29 24 22 26
3650.0 37 26 18 12 14 23 35 22 19 17
3690.0 24 16 16 19 18 32 41 32 40 43
3730.0 33 38 39 30 34 45 21 23 21 13
3770.0 20 14 13 17 17 17 13 22 25 13
3810.0 15 14 30 31 26 24 25 36 39 21
3850.0 19 32 24 20 32 34 28 30 45 34
3890.0 41 34 33 37 38 26 23 29 22 19
3930.0 20 23 16 22 24 28 10 23 20 12
##END=
