##TITLE=3-Cyclohexene-1-carboxylic acid, methyl ester
##JCAMP-DX=4.24
##DATA TYPE=INFRARED SPECTRUM
##ORIGIN=Sadtler Research Labs Under US-EPA Contract
##OWNER=NIST Standard Reference Data Program
##CAS REGISTRY NO=6493-77-2
##MOLFORM=C 8 H 12 O 2
##XUNITS=1/CM
##YUNITS=ABSORBANCE
##XFACTOR=1.0
##YFACTOR=0.000083691
##DELTAX=4.0
##FIRSTX=450.0
##LASTX=3966.0
##FIRSTY=0.004770
##MAXX=3966
##MINX=450
##MAXY=0.83691
##MINY=0
##NPOINTS=880
##XYDATA=(X++(Y..Y))
450.0 57 123 68 40 117 116 101 32 86 82
490.0 56 141 81 92 71 79 103 63 82 52
530.0 52 31 33 7 31 36 34 67 35 64
570.0 55 58 64 58 32 60 65 33 97 80
610.0 99 89 168 202 261 377 518 747 953 1160
650.0 1337 1362 1352 1269 1231 1055 973 870 726 591
690.0 482 415 321 319 274 254 222 228 246 246
730.0 236 200 193 164 170 165 162 180 211 235
770.0 252 261 237 218 178 180 153 154 145 168
810.0 178 211 224 200 195 167 158 165 178 214
850.0 239 246 271 277 260 280 267 283 286 304
890.0 335 388 435 482 518 529 525 526 509 439
930.0 389 343 337 337 334 327 294 273 243 217
970.0 206 200 189 202 206 234 286 346 415 513
1010.0 687 1005 1427 1789 2042 2121 1915 1679 1514 1367
1050.0 1260 1178 1167 1210 1190 1107 932 751 657 637
1090.0 636 637 609 570 538 524 544 584 661 769
1130.0 950 1204 1508 1840 2255 2873 3869 5406 7301 8775
1170.0 9357 8941 7511 5950 5141 4811 4597 4427 4221 4024
1210.0 3949 4262 4903 5356 5392 5183 4432 3645 3287 3109
1250.0 2984 2866 2789 2681 2527 2307 2029 1823 1750 1780
1290.0 1910 2112 2374 2630 2726 2658 2366 1966 1577 1302
1330.0 1147 1067 1006 904 809 717 652 685 792 931
1370.0 1086 1180 1148 1019 836 622 485 421 363 340
1410.0 311 314 345 409 584 1045 1715 2257 2531 2432
1450.0 1833 1500 1312 1165 1006 837 675 537 429 352
1490.0 309 250 235 204 205 202 179 174 182 171
1530.0 167 168 176 179 162 151 145 156 145 131
1570.0 136 129 130 129 125 130 133 145 149 164
1610.0 165 168 179 169 174 159 172 183 206 262
1650.0 373 417 410 364 282 202 191 183 199 228
1690.0 237 282 350 440 538 645 798 998 1246 1570
1730.0 2109 2764 3743 4980 6715 8150 9464 10000 9207 7624
1770.0 5806 4110 2796 1898 1264 842 563 389 273 207
1810.0 154 132 97 94 85 80 70 73 80 78
1850.0 77 65 67 60 70 71 71 72 77 74
1890.0 70 66 56 60 58 63 67 71 74 68
1930.0 69 62 57 53 55 48 51 48 47 48
1970.0 51 53 53 64 66 81 80 80 78 75
2010.0 70 67 71 71 73 75 80 80 83 87
2050.0 85 83 81 87 86 87 86 85 82 77
2090.0 71 71 68 68 64 60 63 59 54 55
2130.0 51 48 48 45 37 39 36 34 28 27
2170.0 25 22 19 19 17 16 18 17 19 17
2210.0 21 19 22 18 22 21 17 22 20 19
2250.0 17 18 16 14 14 14 9 10 8 10
2290.0 9 5 9 9 7 4 4 1 2 20
2330.0 7 14 23 22 34 22 24 26 16 19
2370.0 38 45 44 44 40 38 36 36 35 32
2410.0 26 20 15 11 11 9 11 9 8 6
2450.0 6 4 5 7 8 7 8 11 16 13
2490.0 17 13 17 16 11 14 15 15 18 23
2530.0 17 18 16 17 17 18 16 14 19 15
2570.0 17 20 19 21 23 25 27 32 35 34
2610.0 31 30 34 33 33 29 32 31 37 39
2650.0 51 52 59 69 74 72 69 63 54 49
2690.0 42 38 41 38 35 37 40 36 36 38
2730.0 40 38 36 36 36 41 45 44 54 60
2770.0 74 91 92 89 80 75 79 86 88 95
2810.0 105 120 143 169 216 289 416 633 993 1447
2850.0 1811 1994 1985 1727 1440 1234 1120 1080 1095 1178
2890.0 1320 1528 1743 1906 2063 2233 2446 2793 3278 3611
2930.0 3829 3930 3719 3512 3424 3536 4017 4385 4281 3880
2970.0 3124 2134 1522 1222 1071 972 934 922 894 854
3010.0 810 799 850 1033 1440 2457 3375 3452 3236 2510
3050.0 1233 622 461 389 374 358 340 314 266 224
3090.0 196 178 156 148 143 132 118 115 106 97
3130.0 90 77 72 62 54 48 50 48 39 41
3170.0 30 27 28 31 35 37 27 27 23 24
3210.0 22 23 25 24 15 17 20 16 17 17
3250.0 19 21 23 16 23 29 23 25 27 35
3290.0 33 40 38 43 41 44 36 33 32 28
3330.0 30 23 17 13 12 17 21 20 21 27
3370.0 15 21 22 15 14 18 16 22 30 26
3410.0 17 13 14 12 3 22 23 25 19 19
3450.0 18 23 18 17 36 46 51 49 70 77
3490.0 88 92 98 75 57 41 30 9 12 1
3530.0 8 1 4 8 6 7 9 5 15 20
3570.0 15 25 17 31 16 19 22 15 5 12
3610.0 12 14 12 22 24 15 12 5 20 8
3650.0 19 13 14 25 12 22 30 20 14 19
3690.0 22 19 18 16 12 21 25 23 12 15
3730.0 16 28 16 13 31 25 20 8 17 6
3770.0 21 21 18 14 13 3 4 6 2 8
3810.0 21 16 26 17 1 25 18 20 21 26
3850.0 14 17 5 22 21 9 1 20 0 7
3890.0 13 16 13 21 21 23 21 11 11 7
3930.0 32 24 19 27 22 30 18 26 23 21
##END=
