##TITLE=Benzoic Acid
##JCAMP-DX=4.24
##DATA TYPE=INFRARED SPECTRUM
##ORIGIN=Sadtler Research Labs Under US-EPA Contract
##OWNER=NIST Standard Reference Data Program
##CAS REGISTRY NO=65-85-0
##MOLFORM=C 7 H 6 O 2
##XUNITS=1/CM
##YUNITS=ABSORBANCE
##XFACTOR=1.0
##YFACTOR=0.000112549
##DELTAX=4.0
##FIRSTX=450.0
##LASTX=3966.0
##FIRSTY=0.013393
##MAXX=3966
##MINX=450
##MAXY=1.12549
##MINY=0
##NPOINTS=880
##XYDATA=(X++(Y..Y))
450.0 119 100 56 129 134 112 123 96 112 106
490.0 131 149 191 236 284 301 313 346 325 378
530.0 417 485 485 567 707 747 798 883 993 1092
570.0 1336 1389 1101 932 800 664 468 280 231 194
610.0 234 346 719 1607 1951 1843 1970 1786 1250 500
650.0 252 120 137 97 111 177 213 296 387 655
690.0 1041 1345 1818 2231 2694 3848 4335 3334 2709 2293
730.0 1696 1175 702 468 332 338 397 452 437 398
770.0 376 289 164 99 70 41 41 34 36 20
810.0 20 9 9 12 10 9 10 28 24 34
850.0 32 39 35 39 36 27 24 14 21 2
890.0 17 13 13 10 19 22 24 36 40 56
930.0 59 84 81 82 87 93 91 80 87 66
970.0 62 47 55 42 43 55 50 74 88 143
1010.0 217 422 690 790 746 757 724 567 483 673
1050.0 1080 1646 2065 2260 2502 2997 3327 3480 3379 3147
1090.0 3038 2767 2025 1321 1013 861 747 671 662 663
1130.0 657 631 628 631 668 743 891 1227 1960 3107
1170.0 3809 3933 4575 4874 4033 2801 2579 2019 1197 718
1210.0 505 390 344 342 366 399 440 494 552 634
1250.0 695 732 766 808 881 947 1010 1013 1023 979
1290.0 860 693 579 496 469 473 493 528 623 788
1330.0 1031 1435 1986 2444 2584 2420 2352 1838 1156 658
1370.0 565 563 589 573 505 442 369 266 172 132
1410.0 87 94 79 96 90 131 168 222 327 431
1450.0 491 438 437 430 303 170 115 86 93 97
1490.0 110 106 112 131 123 110 100 90 87 84
1530.0 79 73 83 90 108 102 110 117 124 144
1570.0 150 180 176 208 198 240 280 344 351 345
1610.0 354 296 220 117 92 75 75 86 87 85
1650.0 72 103 56 65 44 56 37 70 89 109
1690.0 163 176 259 289 400 391 414 432 451 520
1730.0 551 827 1203 2032 3269 5509 8551 9491 9071 9464
1770.0 10000 6170 3083 1817 948 615 386 364 337 337
1810.0 400 396 422 401 378 250 204 158 116 85
1850.0 55 64 28 48 32 43 25 35 35 34
1890.0 50 50 72 64 90 86 102 104 102 93
1930.0 81 87 73 86 90 111 110 117 118 113
1970.0 114 95 85 58 56 34 28 13 12 14
2010.0 8 17 7 13 3 12 6 7 9 8
2050.0 9 1 11 1 6 1 8 2 6 10
2090.0 7 11 8 16 9 18 16 20 21 22
2130.0 29 25 36 34 38 29 32 28 25 24
2170.0 21 22 14 19 12 10 5 11 9 8
2210.0 12 11 10 8 14 10 13 13 16 13
2250.0 13 17 12 17 15 15 12 15 17 15
2290.0 21 14 19 12 19 20 26 20 23 23
2330.0 18 25 21 31 29 46 31 37 27 27
2370.0 25 22 31 23 25 19 18 15 21 23
2410.0 21 24 20 25 19 22 17 18 18 16
2450.0 13 9 12 8 11 9 11 8 11 11
2490.0 10 9 11 15 10 14 15 17 14 14
2530.0 11 11 11 7 8 6 10 6 8 8
2570.0 7 5 6 9 8 9 7 15 12 15
2610.0 14 12 14 9 10 9 11 9 9 7
2650.0 8 4 2 1 3 8 7 11 11 9
2690.0 11 10 8 5 8 6 5 5 8 5
2730.0 5 4 6 10 9 12 11 14 8 17
2770.0 17 19 23 19 19 17 15 13 10 10
2810.0 8 9 10 13 11 19 20 25 23 25
2850.0 27 25 27 25 25 24 29 24 25 21
2890.0 22 22 20 22 19 23 18 21 18 24
2930.0 26 24 28 29 30 26 34 26 24 25
2970.0 24 25 25 27 25 26 30 39 45 54
3010.0 64 76 88 103 126 148 182 216 252 286
3050.0 326 355 393 450 500 573 652 662 619 573
3090.0 501 379 298 279 273 230 174 128 99 64
3130.0 48 32 27 26 24 24 25 29 24 25
3170.0 33 29 26 18 16 14 14 5 9 10
3210.0 9 6 12 6 7 9 9 3 4 5
3250.0 4 6 11 6 5 4 4 1 2 5
3290.0 6 1 6 3 3 4 5 4 3 4
3330.0 1 5 7 5 2 9 10 9 8 10
3370.0 15 7 3 9 1 7 3 2 2 3
3410.0 1 9 8 8 18 7 10 10 12 17
3450.0 15 9 10 0 14 15 6 11 6 22
3490.0 31 36 59 67 68 60 63 54 31 36
3530.0 12 8 13 12 26 28 44 89 190 383
3570.0 886 1618 2563 3008 2979 2875 2434 1471 534 150
3610.0 56 35 25 37 10 43 15 21 4 25
3650.0 32 33 30 14 18 16 37 1 18 8
3690.0 25 12 11 16 1 25 25 27 8 21
3730.0 9 31 25 31 13 26 17 1 26 9
3770.0 19 1 3 3 6 4 1 4 3 4
3810.0 4 6 4 18 25 4 16 17 25 3
3850.0 1 24 24 6 10 14 13 2 1 1
3890.0 4 15 8 18 24 8 15 12 7 9
3930.0 13 16 10 0 6 14 6 2 11 29
##END=
