##TITLE=Benzene, 1,2,4,5-tetrafluoro-3,6-bis(trifluoromethyl)-
##JCAMP-DX=4.24
##DATA TYPE=INFRARED SPECTRUM
##ORIGIN=Sadtler Research Labs Under US-EPA Contract
##OWNER=NIST Standard Reference Data Program
##CAS REGISTRY NO=651-89-8
##MOLFORM=C 8 F 10
##XUNITS=1/CM
##YUNITS=ABSORBANCE
##XFACTOR=1.0
##YFACTOR=0.000086832
##DELTAX=4.0
##FIRSTX=450.0
##LASTX=3966.0
##FIRSTY=0.012243
##MAXX=3966
##MINX=450
##MAXY=0.86832
##MINY=0
##NPOINTS=880
##XYDATA=(X++(Y..Y))
450.0 141 111 52 122 215 99 106 0 99 55
490.0 129 93 130 130 180 87 77 154 133 84
530.0 77 125 174 172 141 183 95 147 187 116
570.0 109 97 59 154 105 127 129 99 65 92
610.0 64 153 127 99 89 69 80 124 135 109
650.0 123 141 184 209 244 177 117 138 28 84
690.0 103 154 147 174 447 1665 2367 1709 408 151
730.0 188 114 159 104 22 127 117 124 104 109
770.0 68 55 148 110 107 76 77 135 91 90
810.0 89 113 116 118 131 176 205 316 698 998
850.0 789 361 185 149 107 131 171 84 93 81
890.0 96 107 107 125 126 120 133 130 127 180
930.0 224 289 277 221 175 139 134 126 129 144
970.0 130 135 168 186 320 562 1277 2460 3401 3222
1010.0 2074 854 379 234 141 156 145 132 139 124
1050.0 168 185 194 220 171 169 148 172 165 156
1090.0 163 166 159 148 177 200 198 235 248 289
1130.0 302 385 472 588 765 1066 1627 2664 4323 6454
1170.0 7461 7702 8485 8039 5483 3579 3350 3615 3132 2154
1210.0 1341 860 686 599 542 490 471 527 627 794
1250.0 962 1005 884 667 490 408 365 336 306 275
1290.0 242 232 238 227 247 255 269 284 246 256
1330.0 284 393 748 1551 3518 6921 10000 8436 4015 1228
1370.0 653 558 410 383 299 275 278 236 198 152
1410.0 135 121 124 135 155 223 320 379 355 267
1450.0 231 242 304 387 412 465 573 773 1151 1745
1490.0 2483 3127 3862 4816 5901 6546 5505 3623 1731 784
1530.0 421 273 210 184 173 145 161 166 144 134
1570.0 135 141 137 146 162 163 159 149 139 139
1610.0 126 135 143 150 178 178 182 164 144 156
1650.0 182 206 203 179 147 117 106 83 89 90
1690.0 76 78 91 96 90 77 93 101 84 79
1730.0 85 98 91 93 92 86 81 75 78 75
1770.0 84 79 61 67 62 65 69 64 65 57
1810.0 54 57 51 56 59 54 56 53 61 67
1850.0 66 70 72 73 65 64 60 55 54 57
1890.0 58 59 55 55 55 48 56 60 54 52
1930.0 48 47 46 52 52 48 49 46 45 48
1970.0 48 46 48 53 52 56 56 49 52 51
2010.0 50 57 57 49 47 45 47 42 41 43
2050.0 43 45 46 46 47 43 44 45 46 41
2090.0 40 42 44 47 51 51 58 64 63 60
2130.0 59 56 58 57 59 55 52 48 46 44
2170.0 40 35 37 38 39 39 39 39 41 39
2210.0 36 37 37 37 42 36 34 35 37 33
2250.0 31 28 36 34 34 38 35 35 37 40
2290.0 43 44 50 49 58 63 63 70 70 73
2330.0 76 70 95 81 68 75 70 63 88 83
2370.0 66 60 47 45 48 39 36 39 46 54
2410.0 62 63 63 59 55 44 38 35 30 36
2450.0 35 33 36 36 38 34 31 35 29 33
2490.0 37 40 32 35 36 37 32 32 26 25
2530.0 20 16 17 15 18 17 19 16 21 20
2570.0 20 21 21 16 18 21 17 19 13 19
2610.0 21 16 21 21 23 27 26 25 27 28
2650.0 26 23 32 26 27 19 12 12 12 5
2690.0 8 7 7 12 4 6 8 7 12 17
2730.0 13 8 12 11 14 15 13 20 23 23
2770.0 19 16 14 14 15 14 15 15 13 12
2810.0 13 8 12 14 14 11 14 16 13 12
2850.0 17 14 17 16 15 13 9 17 11 13
2890.0 17 15 16 20 19 25 19 27 29 30
2930.0 21 23 25 14 18 11 13 13 11 9
2970.0 7 6 8 7 12 7 6 9 8 10
3010.0 17 10 7 5 9 10 10 9 12 10
3050.0 13 10 14 11 14 13 14 10 21 19
3090.0 22 9 16 22 18 17 23 16 15 10
3130.0 18 14 15 18 16 9 11 19 16 16
3170.0 18 10 13 17 19 23 19 17 18 13
3210.0 13 13 15 18 13 17 11 10 11 18
3250.0 12 11 16 16 13 17 14 12 17 18
3290.0 28 22 18 23 21 17 10 16 20 15
3330.0 20 13 16 14 4 13 23 15 22 14
3370.0 20 12 25 14 7 16 11 17 13 15
3410.0 19 19 12 16 10 13 21 22 29 30
3450.0 16 15 13 15 16 18 16 20 19 13
3490.0 21 16 22 21 29 19 33 15 22 15
3530.0 12 19 12 22 25 27 21 10 16 28
3570.0 39 16 12 27 17 25 14 30 33 14
3610.0 17 27 25 26 26 25 30 8 15 4
3650.0 33 22 26 20 17 12 32 27 19 16
3690.0 31 43 28 19 14 28 25 16 34 33
3730.0 29 27 37 40 32 17 21 22 41 40
3770.0 18 28 22 30 44 31 41 16 15 37
3810.0 42 30 33 35 35 26 10 7 11 36
3850.0 22 52 48 19 4 25 29 49 22 27
3890.0 33 19 10 19 51 46 19 4 4 50
3930.0 32 29 44 21 30 22 34 12 41 22
##END=
