##TITLE=n-Amyl-4-hydroxybenzoate
##JCAMP-DX=4.24
##DATA TYPE=INFRARED SPECTRUM
##ORIGIN=Sadtler Research Labs Under US-EPA Contract
##OWNER=NIST Standard Reference Data Program
##CAS REGISTRY NO=6521-29-5
##MOLFORM=C 12 H 16 O 3
##XUNITS=1/CM
##YUNITS=ABSORBANCE
##XFACTOR=1.0
##YFACTOR=0.000056699
##DELTAX=4.0
##FIRSTX=450.0
##LASTX=3966.0
##FIRSTY=0.057266
##MAXX=3966
##MINX=450
##MAXY=0.56699
##MINY=0
##NPOINTS=880
##XYDATA=(X++(Y..Y))
450.0 1010 316 381 403 203 570 327 691 105 392
490.0 466 331 567 182 324 420 314 237 202 185
530.0 360 347 295 265 383 94 181 328 374 342
570.0 310 186 325 242 280 273 196 200 186 383
610.0 540 766 755 555 438 256 179 229 243 285
650.0 218 217 255 141 217 343 310 283 269 373
690.0 483 448 392 372 316 260 194 222 216 315
730.0 366 240 421 587 240 400 416 453 627 812
770.0 987 894 566 529 328 369 369 260 309 398
810.0 366 348 355 425 443 423 442 654 782 946
850.0 889 707 622 420 364 297 156 297 333 239
890.0 275 258 249 205 137 221 172 208 162 157
930.0 225 225 261 174 212 261 306 378 440 499
970.0 505 461 459 431 398 352 334 324 264 324
1010.0 467 604 541 412 368 384 366 368 389 375
1050.0 388 348 397 498 541 574 734 933 1279 1811
1090.0 2584 3297 3699 3939 4159 3789 3104 2458 1769 1323
1130.0 1048 872 859 824 1088 1239 1709 3108 5181 6018
1170.0 4050 2114 1363 1642 2279 2811 2711 1837 1063 774
1210.0 737 811 815 830 897 1006 1122 1194 1433 1838
1250.0 2524 3875 6028 8542 10000 9340 7585 5463 3389 2082
1290.0 1494 1238 1167 1119 1048 958 959 973 922 891
1330.0 798 638 493 428 371 389 368 357 380 359
1370.0 390 388 434 512 550 538 460 382 321 276
1410.0 310 320 382 435 542 661 725 670 560 498
1450.0 489 493 483 531 536 560 457 408 406 374
1490.0 338 316 448 585 878 1260 1260 903 473 297
1530.0 225 183 190 139 209 215 188 205 217 291
1570.0 318 373 472 581 774 1014 1318 1513 1825 2021
1610.0 2123 1996 1460 1054 678 447 373 266 227 211
1650.0 161 187 175 190 178 171 210 218 261 263
1690.0 348 365 383 434 524 663 830 1053 1380 1974
1730.0 2984 3907 4540 4185 2920 1841 983 609 419 308
1770.0 266 194 194 177 160 164 134 125 139 92
1810.0 105 88 73 84 67 69 67 62 67 49
1850.0 71 59 51 57 51 67 56 65 71 78
1890.0 80 86 73 81 80 83 82 80 73 59
1930.0 48 44 49 45 38 41 40 39 38 42
1970.0 37 41 38 38 30 37 32 34 34 32
2010.0 31 39 39 38 33 37 36 32 34 33
2050.0 39 44 47 44 51 53 45 43 47 36
2090.0 39 37 40 34 35 36 28 37 25 28
2130.0 26 18 16 18 10 11 6 8 19 8
2170.0 9 9 8 16 10 7 9 9 10 7
2210.0 6 13 10 10 11 12 14 19 13 22
2250.0 19 20 22 25 29 36 36 43 46 57
2290.0 60 72 80 92 93 114 102 83 73 73
2330.0 61 78 65 72 123 91 106 70 96 77
2370.0 73 77 79 96 80 53 38 40 37 42
2410.0 44 51 55 57 66 67 66 54 59 62
2450.0 71 67 60 56 51 39 43 44 45 49
2490.0 49 45 48 44 50 54 61 65 63 60
2530.0 52 56 49 49 45 47 47 47 52 51
2570.0 51 53 58 62 60 57 72 67 65 67
2610.0 64 66 66 61 69 63 64 62 62 70
2650.0 66 67 75 79 73 72 75 67 81 74
2690.0 78 81 81 78 79 72 68 72 71 81
2730.0 71 89 88 93 102 91 95 92 104 98
2770.0 103 113 106 109 113 114 110 110 114 114
2810.0 119 132 143 136 160 174 186 198 224 250
2850.0 306 361 450 532 623 703 749 764 759 752
2890.0 731 692 674 681 738 788 855 949 1072 1211
2930.0 1379 1552 1687 1767 1731 1627 1556 1597 1733 1869
2970.0 1890 1696 1350 1012 756 602 496 414 361 334
3010.0 305 296 281 264 246 249 257 275 305 284
3050.0 253 201 174 168 174 185 220 241 236 207
3090.0 166 156 123 119 121 118 120 107 105 104
3130.0 96 106 88 100 98 89 83 90 85 83
3170.0 86 105 97 76 89 94 98 91 92 87
3210.0 81 85 84 77 74 90 90 81 96 82
3250.0 87 79 91 86 94 91 84 80 86 82
3290.0 83 95 80 103 99 94 107 95 103 118
3330.0 111 99 91 94 111 119 112 108 102 92
3370.0 100 115 102 100 88 103 117 90 94 103
3410.0 113 100 102 100 102 111 97 97 104 84
3450.0 112 96 112 101 102 88 86 73 61 52
3490.0 69 65 65 63 54 56 64 78 73 57
3530.0 64 63 49 63 41 57 67 55 85 25
3570.0 38 51 58 77 31 28 66 64 57 44
3610.0 10 47 55 83 101 133 261 515 1003 1464
3650.0 1706 1318 739 246 204 62 30 44 69 63
3690.0 25 77 70 72 68 11 26 71 64 88
3730.0 45 6 17 49 10 0 43 35 46 49
3770.0 106 64 64 57 43 71 91 69 33 43
3810.0 105 37 53 16 94 86 43 6 33 95
3850.0 40 6 19 128 43 75 81 78 94 65
3890.0 48 41 55 83 53 72 36 79 49 26
3930.0 106 120 114 79 75 110 37 127 60 74
##END=
