##TITLE=2-(Pentafluorophenyl)ethanol
##JCAMP-DX=4.24
##DATA TYPE=INFRARED SPECTRUM
##ORIGIN=Sadtler Research Labs Under US-EPA Contract
##OWNER=NIST Standard Reference Data Program
##CAS REGISTRY NO=653-31-6
##MOLFORM=C 8 H 5 F 5 O
##XUNITS=1/CM
##YUNITS=ABSORBANCE
##XFACTOR=1.0
##YFACTOR=0.000087915
##DELTAX=4.0
##FIRSTX=450.0
##LASTX=3966.0
##FIRSTY=0.011605
##MAXX=3966
##MINX=450
##MAXY=0.87915
##MINY=0
##NPOINTS=880
##XYDATA=(X++(Y..Y))
450.0 132 236 142 271 149 164 263 184 232 115
490.0 187 218 243 258 146 101 147 107 199 140
530.0 180 127 82 151 105 160 258 192 209 186
570.0 127 203 174 184 114 158 169 190 221 180
610.0 209 212 220 318 223 142 181 163 148 152
650.0 152 180 218 250 239 337 247 155 207 149
690.0 159 149 80 77 157 165 148 135 148 128
730.0 188 210 111 211 42 72 188 214 120 176
770.0 148 122 130 151 132 137 169 152 152 157
810.0 126 186 154 170 134 162 144 172 178 185
850.0 227 301 393 423 390 347 317 336 418 529
890.0 676 725 649 472 338 278 247 235 247 254
930.0 291 312 396 549 881 1516 2400 3186 3411 2954
970.0 2134 1462 1109 1025 1107 1295 1436 1490 1372 1147
1010.0 1016 895 844 856 930 1111 1406 1803 2253 2666
1050.0 2788 2661 2546 2676 2824 2685 2198 1570 1148 945
1090.0 767 672 602 608 631 731 989 1476 2033 2390
1130.0 2213 1652 1104 719 484 384 369 366 391 383
1170.0 393 411 427 403 402 426 398 368 317 289
1210.0 274 282 284 308 269 267 280 248 261 258
1250.0 244 256 265 270 268 286 277 297 316 309
1290.0 345 392 476 534 526 461 430 382 371 351
1330.0 331 347 329 388 447 468 444 386 331 320
1370.0 330 359 448 513 516 465 395 328 322 304
1410.0 279 284 202 310 306 380 320 274 292 280
1450.0 279 241 201 269 272 375 424 612 887 1168
1490.0 2039 3427 6166 8727 10000 9297 7430 7019 6570 6205
1530.0 3981 1660 718 385 349 334 344 221 221 246
1570.0 172 225 194 185 247 182 194 150 157 158
1610.0 155 150 139 160 141 164 161 183 222 326
1650.0 405 532 539 417 204 112 49 80 15 17
1690.0 27 56 2 35 44 57 45 24 94 113
1730.0 92 50 107 106 72 44 67 74 62 84
1770.0 57 36 74 52 39 48 40 42 0 45
1810.0 41 23 59 47 44 10 25 44 39 6
1850.0 14 45 53 30 42 27 69 36 63 60
1890.0 40 49 43 33 38 41 41 52 2 60
1930.0 52 46 48 30 30 27 43 32 43 23
1970.0 23 31 42 45 32 30 33 38 35 30
2010.0 43 23 41 44 47 34 35 37 42 45
2050.0 46 53 58 63 51 71 69 74 72 73
2090.0 69 60 61 55 55 47 45 48 39 41
2130.0 38 40 38 28 34 30 27 35 38 38
2170.0 35 25 27 29 30 35 34 27 22 25
2210.0 29 24 21 29 28 26 21 29 35 31
2250.0 25 20 29 24 20 16 14 22 19 28
2290.0 24 36 40 39 52 53 45 45 32 52
2330.0 45 35 53 37 42 57 46 58 61 71
2370.0 70 72 68 65 75 66 60 59 56 68
2410.0 64 71 71 67 71 69 76 74 73 70
2450.0 67 60 54 56 51 47 51 52 50 43
2490.0 44 39 39 32 38 36 36 41 32 31
2530.0 32 30 28 34 28 27 27 35 30 34
2570.0 33 34 33 33 33 31 35 43 42 44
2610.0 45 42 48 49 58 71 83 88 93 97
2650.0 92 87 79 71 66 60 45 51 46 45
2690.0 49 45 55 45 51 48 46 52 54 52
2730.0 56 58 60 61 65 61 63 70 64 65
2770.0 66 65 71 75 72 77 79 80 77 73
2810.0 80 78 82 88 85 101 100 113 120 129
2850.0 140 142 165 165 170 192 219 263 334 455
2890.0 600 694 673 578 466 391 351 353 366 393
2930.0 427 463 505 540 576 605 587 533 485 447
2970.0 435 421 407 376 336 291 231 182 138 112
3010.0 98 89 72 62 67 61 66 59 50 54
3050.0 54 46 54 44 43 47 48 44 41 33
3090.0 43 32 36 46 38 39 48 40 38 33
3130.0 35 36 44 40 42 48 40 44 45 42
3170.0 45 39 41 41 50 43 40 40 40 40
3210.0 33 33 40 38 44 32 31 35 38 40
3250.0 29 35 40 37 44 39 47 42 37 36
3290.0 39 31 29 43 34 42 43 31 42 39
3330.0 34 28 34 38 38 39 33 42 38 45
3370.0 39 39 26 34 36 37 39 43 35 46
3410.0 43 40 33 39 45 47 47 45 40 32
3450.0 37 37 33 38 29 38 41 34 37 32
3490.0 35 39 47 44 43 36 29 32 23 20
3530.0 41 44 36 32 31 37 23 42 39 39
3570.0 46 39 36 44 34 37 46 29 55 43
3610.0 37 41 66 55 60 61 59 62 94 104
3650.0 185 254 326 396 424 456 405 398 275 196
3690.0 144 97 57 47 43 44 63 47 35 39
3730.0 17 49 52 40 74 28 58 26 37 23
3770.0 36 47 4 27 39 14 21 19 39 55
3810.0 12 23 28 38 15 36 65 50 57 34
3850.0 43 36 26 37 57 73 30 50 48 59
3890.0 19 52 51 33 40 43 37 55 72 41
3930.0 62 56 96 74 68 41 35 71 69 53
##END=
