##TITLE=2-Cyclohexylcyclohexanol
##JCAMP-DX=4.24
##DATA TYPE=INFRARED SPECTRUM
##ORIGIN=Sadtler Research Labs Under US-EPA Contract
##OWNER=NIST Standard Reference Data Program
##CAS REGISTRY NO=6531-86-8
##MOLFORM=C 12 H 22 O
##XUNITS=1/CM
##YUNITS=ABSORBANCE
##XFACTOR=1.0
##YFACTOR=0.000054053
##DELTAX=4.0
##FIRSTX=450.0
##LASTX=3966.0
##FIRSTY=0.007027
##MAXX=3966
##MINX=450
##MAXY=0.54053
##MINY=0
##NPOINTS=880
##XYDATA=(X++(Y..Y))
450.0 130 150 148 133 143 153 147 158 200 249
490.0 259 303 285 259 286 246 212 242 180 212
530.0 214 152 180 182 182 206 167 178 169 76
570.0 47 119 97 108 94 105 92 127 88 17
610.0 69 33 40 28 39 71 79 22 34 49
650.0 54 61 68 71 33 113 68 63 101 62
690.0 56 49 52 46 34 60 20 34 44 36
730.0 37 20 43 62 42 56 67 50 29 62
770.0 58 37 56 46 36 34 58 33 37 61
810.0 53 64 98 78 73 111 121 175 225 249
850.0 285 308 309 313 284 301 319 335 346 329
890.0 338 317 301 270 266 256 233 205 215 224
930.0 204 205 167 194 187 214 257 288 360 472
970.0 553 565 533 460 415 350 304 258 250 228
1010.0 239 254 291 319 368 423 515 586 706 820
1050.0 876 891 830 717 579 454 418 424 465 459
1090.0 437 381 361 316 297 291 270 285 283 275
1130.0 273 262 268 265 279 300 282 253 237 255
1170.0 266 286 281 282 293 303 308 320 310 310
1210.0 301 302 311 320 337 347 343 335 312 348
1250.0 353 372 432 465 501 520 481 450 426 397
1290.0 378 370 352 323 315 296 277 259 194 197
1330.0 203 198 210 241 259 265 241 249 226 232
1370.0 250 261 241 223 212 189 169 157 139 127
1410.0 100 89 89 90 107 117 156 257 396 625
1450.0 817 894 816 613 436 300 206 120 82 72
1490.0 65 54 63 46 65 50 28 29 36 39
1530.0 28 28 29 46 30 27 31 51 36 30
1570.0 37 29 31 21 21 21 39 30 41 30
1610.0 30 31 37 31 32 40 39 33 14 32
1650.0 12 45 10 15 11 25 27 26 22 41
1690.0 30 31 50 67 39 31 32 50 48 45
1730.0 30 54 38 40 48 47 38 29 29 39
1770.0 48 44 38 37 32 35 38 28 27 27
1810.0 28 27 27 27 27 26 33 27 26 26
1850.0 18 27 27 26 26 26 26 25 25 25
1890.0 25 26 21 24 24 24 25 24 22 23
1930.0 15 17 23 23 18 14 23 14 23 22
1970.0 13 23 23 22 22 12 2 13 13 13
2010.0 13 11 12 12 11 20 12 11 10 17
2050.0 12 1 7 11 7 12 10 9 10 9
2090.0 9 10 10 0 9 9 9 9 9 7
2130.0 9 7 7 16 16 7 18 7 8 13
2170.0 4 8 8 6 16 15 14 5 13 16
2210.0 14 9 16 15 15 15 16 16 17 17
2250.0 16 16 18 18 18 18 18 18 18 18
2290.0 19 29 29 30 38 48 57 71 76 81
2330.0 96 104 94 86 85 69 113 142 155 146
2370.0 119 83 71 52 37 35 34 36 36 45
2410.0 45 37 45 45 43 42 47 37 37 30
2450.0 40 29 38 39 30 40 40 40 46 45
2490.0 51 44 42 41 43 43 51 43 44 43
2530.0 46 52 53 54 43 54 55 45 54 54
2570.0 55 64 55 65 65 69 78 77 85 85
2610.0 84 84 85 94 86 85 97 85 100 104
2650.0 109 123 131 160 168 169 162 161 152 134
2690.0 125 115 118 118 108 109 110 100 92 92
2730.0 92 93 92 92 96 98 104 102 104 109
2770.0 121 131 140 149 159 178 179 197 197 200
2810.0 208 218 234 249 276 304 358 441 602 883
2850.0 1358 2099 3023 3701 3830 3350 2587 1932 1463 1205
2890.0 1096 1143 1296 1549 1884 2276 2784 3541 4686 6364
2930.0 8211 9565 10000 8993 7135 4907 3007 1854 1211 825
2970.0 567 409 312 259 213 181 156 145 137 127
3010.0 129 135 129 130 124 110 101 97 76 85
3050.0 77 68 68 67 79 70 74 69 68 70
3090.0 70 69 69 71 71 71 71 70 71 65
3130.0 69 68 61 73 72 65 66 65 64 66
3170.0 74 66 56 61 46 44 46 55 52 49
3210.0 42 42 41 42 49 43 43 43 47 48
3250.0 43 36 44 29 45 35 26 19 43 26
3290.0 22 24 31 19 20 27 22 21 21 30
3330.0 22 22 24 21 22 22 17 12 34 27
3370.0 25 32 33 25 14 25 25 22 26 37
3410.0 31 19 35 27 34 37 37 37 29 47
3450.0 33 23 34 27 39 40 29 32 30 40
3490.0 32 31 31 30 26 29 29 27 43 43
3530.0 43 34 43 52 43 27 44 36 39 34
3570.0 51 43 49 45 56 55 55 65 57 65
3610.0 74 72 83 91 89 109 135 153 190 228
3650.0 285 276 266 226 183 168 138 120 106 104
3690.0 127 109 115 116 117 118 125 117 138 137
3730.0 136 146 153 126 154 155 148 147 157 148
3770.0 167 164 170 157 158 169 174 176 180 178
3810.0 179 196 196 188 189 189 191 193 186 186
3850.0 188 200 182 181 191 190 192 182 181 174
3890.0 175 164 160 166 183 184 177 175 168 176
3930.0 177 175 169 161 179 196 29 42 43 43
##END=
