##TITLE=5-Decanone, 6-hydroxy-
##JCAMP-DX=4.24
##DATA TYPE=INFRARED SPECTRUM
##ORIGIN=Sadtler Research Labs Under US-EPA Contract
##OWNER=NIST Standard Reference Data Program
##CAS REGISTRY NO=6540-98-3
##MOLFORM=C 10 H 20 O 2
##XUNITS=1/CM
##YUNITS=ABSORBANCE
##XFACTOR=1.0
##YFACTOR=0.000076797
##DELTAX=4.0
##FIRSTX=450.0
##LASTX=3966.0
##FIRSTY=0.018892
##MAXX=3966
##MINX=450
##MAXY=0.76797
##MINY=0
##NPOINTS=880
##XYDATA=(X++(Y..Y))
450.0 246 182 110 110 71 89 79 70 15 25
490.0 59 57 40 57 48 36 50 15 21 13
530.0 11 32 43 36 61 61 94 90 73 63
570.0 42 80 83 58 95 86 82 71 78 67
610.0 63 56 69 58 40 55 69 56 32 30
650.0 27 30 43 49 55 79 54 50 68 75
690.0 72 75 91 87 102 104 115 124 153 191
730.0 229 258 251 268 264 293 287 276 253 211
770.0 214 194 180 161 159 149 118 82 66 56
810.0 33 34 23 27 28 24 30 32 41 20
850.0 22 17 33 38 58 80 106 109 126 127
890.0 135 123 128 139 148 152 155 159 147 159
930.0 167 165 173 184 197 222 258 298 325 357
970.0 390 432 477 545 610 667 675 675 682 709
1010.0 770 823 849 868 955 1182 1554 2016 2368 2508
1050.0 2373 2119 1894 1737 1638 1565 1547 1581 1664 1736
1090.0 1733 1642 1487 1338 1269 1344 1563 1850 2092 2158
1130.0 2000 1717 1438 1231 1098 1019 955 882 791 692
1170.0 607 538 479 446 437 444 466 492 516 541
1210.0 565 595 621 669 743 850 975 1065 1083 1072
1250.0 1087 1176 1318 1453 1516 1446 1288 1110 971 888
1290.0 845 825 822 841 854 871 886 900 934 977
1330.0 1034 1113 1221 1343 1446 1518 1555 1545 1493 1390
1370.0 1265 1203 1246 1400 1555 1630 1595 1555 1523 1448
1410.0 1349 1204 1100 950 843 778 798 839 892 938
1450.0 1036 1151 1307 1412 1439 1377 1187 894 611 425
1490.0 315 237 196 152 147 122 94 93 101 76
1530.0 65 54 62 60 47 38 33 49 42 17
1570.0 24 18 29 20 9 17 19 26 15 29
1610.0 26 33 54 43 60 38 70 58 56 54
1650.0 95 94 111 107 148 174 235 267 316 366
1690.0 387 486 646 977 1521 2508 3980 5647 6528 6103
1730.0 4558 2923 1726 1107 749 599 505 443 416 407
1770.0 437 440 441 421 407 357 296 234 182 136
1810.0 103 82 57 49 40 35 20 18 18 17
1850.0 10 3 7 4 12 8 6 5 6 3
1890.0 5 4 2 4 2 2 2 7 4 4
1930.0 3 5 8 6 6 3 6 3 7 6
1970.0 6 4 7 6 8 10 11 11 12 11
2010.0 12 11 12 15 15 17 18 16 22 20
2050.0 19 18 17 19 16 17 16 14 14 18
2090.0 15 14 15 15 18 17 16 18 19 18
2130.0 20 12 16 19 21 16 12 15 15 17
2170.0 18 18 16 17 17 19 19 17 18 18
2210.0 18 19 18 20 17 15 16 13 13 12
2250.0 11 11 11 8 6 9 12 12 12 15
2290.0 17 20 22 24 22 22 18 18 22 20
2330.0 9 17 15 3 26 29 31 31 18 15
2370.0 20 25 30 38 42 38 41 33 32 38
2410.0 36 39 40 34 34 30 28 26 24 27
2450.0 24 22 23 22 21 17 18 18 19 17
2490.0 20 17 22 24 19 21 19 23 24 27
2530.0 27 31 31 31 31 30 32 31 35 36
2570.0 38 43 37 44 44 47 48 48 51 49
2610.0 51 56 54 54 56 61 65 64 67 71
2650.0 77 81 85 88 94 96 102 107 110 109
2690.0 104 108 106 104 105 103 108 111 118 121
2730.0 135 146 159 179 194 201 199 199 197 206
2770.0 210 223 236 257 277 302 322 347 372 399
2810.0 428 461 499 544 595 654 739 842 976 1150
2850.0 1364 1652 2036 2563 3203 3831 4164 4279 4365 4324
2890.0 3992 3436 3025 2967 3129 3447 3864 4337 4830 5367
2930.0 6050 6839 7715 8307 8365 7882 7268 7133 7755 9076
2970.0 10000 9270 7095 4616 2903 2014 1509 1199 981 819
3010.0 702 614 544 486 443 399 366 337 308 278
3050.0 249 228 207 194 180 170 166 162 152 147
3090.0 144 139 130 126 124 116 106 108 101 101
3130.0 96 94 91 92 91 89 90 90 89 91
3170.0 89 86 88 89 91 86 89 84 81 72
3210.0 68 66 56 51 45 45 44 39 35 35
3250.0 31 29 31 25 21 26 20 19 20 27
3290.0 21 26 24 20 21 21 21 18 22 20
3330.0 25 21 22 19 17 24 25 31 27 26
3370.0 31 34 35 33 34 37 41 46 50 67
3410.0 78 89 103 103 115 104 96 85 77 72
3450.0 73 76 83 91 106 120 130 158 186 229
3490.0 292 377 510 730 1038 1431 1791 1963 1879 1609
3530.0 1303 1034 835 703 595 503 439 386 339 318
3570.0 304 287 267 240 207 156 114 81 68 63
3610.0 57 55 46 44 47 52 48 50 62 68
3650.0 97 113 125 129 86 72 44 31 14 15
3690.0 9 6 16 14 3 6 2 3 2 10
3730.0 6 10 2 2 28 0 10 8 2 2
3770.0 11 13 11 10 6 10 1 4 21 24
3810.0 7 13 4 8 20 20 25 21 23 11
3850.0 25 42 23 28 26 25 35 26 18 19
3890.0 18 21 17 9 25 13 14 16 18 12
3930.0 5 11 16 12 29 9 20 23 15 7
##END=
