##TITLE=Benzoic acid, 2-(methylamino)-, 2-methylpropyl ester
##JCAMP-DX=4.24
##DATA TYPE=INFRARED SPECTRUM
##ORIGIN=Sadtler Research Labs Under US-EPA Contract
##OWNER=NIST Standard Reference Data Program
##CAS REGISTRY NO=65505-24-0
##MOLFORM=C 12 H 17 N O 2
##XUNITS=1/CM
##YUNITS=ABSORBANCE
##XFACTOR=1.0
##YFACTOR=0.000148044
##DELTAX=4.0
##FIRSTX=450.0
##LASTX=3966.0
##FIRSTY=0.000000
##MAXX=3966
##MINX=450
##MAXY=1.48044
##MINY=0
##NPOINTS=880
##XYDATA=(X++(Y..Y))
450.0 0 247 285 211 330 296 316 400 315 262
490.0 412 299 314 326 326 353 336 397 423 483
530.0 397 366 352 297 275 354 324 318 277 320
570.0 294 319 388 410 412 403 351 379 318 334
610.0 299 287 312 283 305 315 288 299 305 307
650.0 329 369 417 447 448 443 359 374 338 366
690.0 415 502 661 824 790 655 516 426 370 426
730.0 487 601 1025 1490 1899 1804 1421 875 571 402
770.0 347 322 303 323 336 345 316 334 326 329
810.0 322 358 365 363 360 369 334 328 400 354
850.0 368 350 351 306 308 305 306 285 257 275
890.0 265 277 260 285 305 322 339 338 340 361
930.0 347 365 353 362 387 392 384 411 464 478
970.0 488 532 641 749 770 682 540 427 367 361
1010.0 368 374 385 427 450 512 607 715 800 877
1050.0 1004 1264 1672 1986 1941 1617 1330 1487 2156 3032
1090.0 3460 3012 2054 1417 1247 1346 1591 2191 3199 4072
1130.0 4033 3300 2378 1771 1471 1401 1705 2329 3014 3416
1170.0 3159 2556 1847 1294 1028 913 893 918 1013 1192
1210.0 1401 1737 2258 2894 3774 5007 6795 8950 10000 9667
1250.0 7301 5988 5962 5810 4950 3461 2521 1960 1577 1254
1290.0 1097 986 995 1079 1263 1526 1796 1993 2047 1997
1330.0 1789 1433 1096 890 800 689 591 549 553 622
1370.0 794 1000 1180 1137 932 709 610 591 585 548
1410.0 521 511 530 690 883 1205 1405 1383 1189 989
1450.0 878 920 1010 1284 1402 1490 1380 1284 1185 1029
1490.0 964 915 917 977 1052 1523 2035 2830 3392 3288
1530.0 2705 1738 1128 723 596 541 486 489 570 684
1570.0 984 1345 1999 3124 3345 3536 2936 2213 2176 2192
1610.0 2174 1886 1423 1037 776 680 598 586 546 555
1650.0 534 518 634 586 658 678 782 1051 1436 2373
1690.0 3628 5177 6236 5599 4629 3021 2008 1317 1153 1097
1730.0 1081 973 831 656 526 447 435 416 399 389
1770.0 342 327 323 330 325 315 297 277 263 279
1810.0 269 266 261 252 243 240 236 253 229 232
1850.0 237 247 246 245 238 228 245 242 255 262
1890.0 261 263 270 277 296 319 315 293 268 278
1930.0 286 287 274 253 239 238 235 233 232 235
1970.0 235 239 235 236 238 231 235 236 240 237
2010.0 237 234 231 235 236 238 242 243 242 244
2050.0 242 244 241 239 241 246 244 246 242 242
2090.0 238 239 240 244 243 248 245 245 240 238
2130.0 236 234 234 235 234 234 232 230 230 229
2170.0 232 233 235 232 232 231 227 228 225 227
2210.0 228 231 230 230 230 229 228 228 230 231
2250.0 230 230 229 229 226 223 225 227 229 231
2290.0 231 232 234 235 231 230 230 228 226 229
2330.0 227 220 223 212 237 230 241 230 247 235
2370.0 237 237 237 236 233 233 230 227 228 229
2410.0 228 225 226 225 224 225 220 220 217 213
2450.0 215 213 215 215 216 218 218 224 226 229
2490.0 231 231 228 225 227 224 220 220 219 220
2530.0 218 216 218 220 222 224 225 229 234 237
2570.0 238 239 241 243 244 247 243 239 243 241
2610.0 239 239 241 242 247 253 257 259 260 263
2650.0 262 258 254 252 250 252 249 252 250 248
2690.0 248 246 248 250 253 252 248 254 256 262
2730.0 272 280 288 291 291 295 297 296 295 290
2770.0 288 291 296 303 314 324 331 341 357 379
2810.0 413 467 549 684 849 957 937 806 642 536
2850.0 489 480 496 539 607 717 892 1130 1356 1466
2890.0 1439 1385 1390 1455 1528 1580 1610 1610 1577 1539
2930.0 1513 1530 1620 1748 1873 1926 1942 2001 2147 2397
2970.0 2679 2828 2706 2311 1756 1325 1027 832 674 554
3010.0 492 459 450 463 481 505 516 505 482 462
3050.0 462 467 471 456 440 442 485 574 681 763
3090.0 766 708 626 545 482 429 383 344 318 295
3130.0 287 281 272 269 260 263 263 261 259 261
3170.0 265 266 268 268 267 269 267 275 272 269
3210.0 268 272 273 263 263 254 250 247 246 242
3250.0 237 243 240 244 247 253 264 275 287 283
3290.0 289 286 282 288 281 283 283 288 293 297
3330.0 306 319 334 349 372 406 449 507 597 727
3370.0 913 1150 1409 1634 1778 1797 1687 1471 1218 984
3410.0 790 654 556 476 425 383 360 344 332 321
3450.0 329 353 398 441 468 453 404 341 296 275
3490.0 255 251 245 252 246 246 249 241 246 254
3530.0 253 239 241 238 246 241 248 239 248 244
3570.0 253 239 246 224 256 239 243 238 239 225
3610.0 246 243 238 250 226 255 231 239 234 253
3650.0 218 261 217 250 233 240 247 222 242 223
3690.0 255 225 252 243 246 248 245 231 252 253
3730.0 245 247 241 261 221 279 228 264 227 255
3770.0 242 247 251 244 247 249 239 258 241 277
3810.0 230 271 223 251 254 254 241 247 260 251
3850.0 242 252 264 245 266 258 262 263 251 239
3890.0 254 234 260 237 254 255 271 236 229 245
3930.0 229 253 249 259 251 262 260 243 229 243
##END=
