##TITLE=Cyclohexanecarboxylic acid isopropyl ester
##JCAMP-DX=4.24
##DATA TYPE=INFRARED SPECTRUM
##ORIGIN=Sadtler Research Labs Under US-EPA Contract
##OWNER=NIST Standard Reference Data Program
##CAS REGISTRY NO=6553-80-6
##MOLFORM=C 10 H 18 O 2
##XUNITS=1/CM
##YUNITS=ABSORBANCE
##XFACTOR=1.0
##YFACTOR=0.000156732
##DELTAX=4.0
##FIRSTX=450.0
##LASTX=3966.0
##FIRSTY=0.034951
##MAXX=3966
##MINX=450
##MAXY=1.56732
##MINY=0
##NPOINTS=880
##XYDATA=(X++(Y..Y))
450.0 223 213 211 72 85 110 114 156 116 22
490.0 17 76 98 131 140 112 116 107 32 86
530.0 58 59 44 62 92 51 11 96 74 64
570.0 26 60 82 24 87 74 43 59 32 73
610.0 30 50 119 37 51 105 115 91 76 108
650.0 110 80 75 89 100 149 75 74 97 107
690.0 111 77 134 75 64 89 110 75 86 81
730.0 93 103 139 109 143 172 173 216 181 183
770.0 160 114 101 112 129 112 123 132 104 124
810.0 128 174 201 269 360 406 408 391 315 282
850.0 217 153 130 126 147 196 232 267 296 312
890.0 326 413 484 523 508 429 333 258 241 258
930.0 299 364 447 568 712 807 790 651 448 291
970.0 208 175 157 145 162 199 247 329 451 678
1010.0 906 1060 1114 1121 1259 1541 1740 1655 1241 759
1050.0 504 407 355 335 358 365 413 476 583 716
1090.0 876 1158 1628 2372 3521 4801 5739 5715 4943 4270
1130.0 4027 4116 4050 3705 3216 2722 2404 2416 3046 4117
1170.0 5191 5754 5482 5036 4754 4631 4307 3704 3007 2378
1210.0 2026 1920 1960 2067 2192 2288 2354 2515 2989 3464
1250.0 3662 3336 2534 1796 1424 1328 1310 1265 1116 943
1290.0 892 965 1144 1388 1661 1870 1929 1828 1637 1422
1330.0 1239 1077 922 777 680 600 589 641 753 1017
1370.0 1373 1741 1990 2050 1860 1501 1111 743 535 408
1410.0 343 307 276 301 292 332 377 483 648 923
1450.0 1280 1572 1577 1444 1209 948 813 638 463 302
1490.0 210 176 140 122 102 67 95 71 50 76
1530.0 57 76 56 40 61 59 57 37 52 62
1570.0 54 58 60 54 66 62 66 64 60 64
1610.0 67 70 64 73 79 84 74 80 88 97
1650.0 78 106 110 115 121 111 113 139 116 155
1690.0 185 213 261 294 359 425 526 737 1103 1817
1730.0 2836 4207 6384 7479 7638 7661 5077 3553 2137 1266
1770.0 881 659 537 458 372 305 248 200 169 140
1810.0 123 108 93 88 77 71 77 72 70 56
1850.0 59 64 53 56 46 38 40 36 35 33
1890.0 32 32 30 36 31 29 28 27 25 30
1930.0 25 32 34 34 36 36 35 32 39 33
1970.0 35 36 33 36 33 33 34 37 37 36
2010.0 37 38 35 35 34 33 35 32 32 31
2050.0 26 25 27 27 29 34 36 35 34 32
2090.0 30 28 23 21 19 15 16 17 17 18
2130.0 15 18 16 15 17 18 19 16 15 16
2170.0 13 15 15 16 19 16 23 20 22 22
2210.0 19 22 23 22 22 21 23 25 25 28
2250.0 26 26 26 26 29 30 30 26 27 28
2290.0 28 26 23 26 27 21 26 25 27 27
2330.0 22 27 22 29 21 29 23 25 36 32
2370.0 24 24 21 23 19 19 17 18 16 14
2410.0 11 10 11 9 9 9 5 5 3 2
2450.0 0 3 0 3 4 5 6 11 15 19
2490.0 21 21 17 14 16 15 14 15 15 16
2530.0 17 16 14 12 11 9 9 12 10 16
2570.0 14 13 18 23 23 24 28 29 28 27
2610.0 25 28 32 32 35 35 38 43 43 54
2650.0 58 66 80 96 108 114 112 103 95 87
2690.0 79 74 69 66 62 59 54 50 44 43
2730.0 46 49 56 62 65 62 57 60 58 62
2770.0 63 68 78 90 100 108 118 128 135 137
2810.0 139 139 154 161 173 193 219 262 336 483
2850.0 757 1238 1990 2791 3258 3169 2632 2062 1649 1383
2890.0 1228 1171 1218 1342 1561 1859 2236 2732 3390 4368
2930.0 5683 7279 9108 10000 9741 8173 5908 3993 2773 2087
2970.0 1749 1816 2393 3209 3688 3418 2543 1690 1101 719
3010.0 473 335 244 193 164 147 135 119 110 99
3050.0 87 77 66 61 57 52 49 48 46 55
3090.0 52 55 53 53 53 49 46 44 43 40
3130.0 43 41 43 42 45 51 49 52 56 60
3170.0 59 59 63 62 53 56 50 45 42 42
3210.0 41 40 35 39 32 30 25 27 27 27
3250.0 23 19 11 15 16 14 9 12 15 11
3290.0 14 15 14 16 16 15 14 15 13 13
3330.0 13 19 19 20 22 20 18 17 25 21
3370.0 22 20 21 22 21 23 26 24 21 22
3410.0 18 20 23 26 24 24 29 31 33 44
3450.0 55 63 71 76 94 90 82 81 55 47
3490.0 34 27 15 13 11 15 13 14 10 12
3530.0 16 14 14 11 21 14 19 25 31 52
3570.0 78 85 87 74 60 26 21 13 20 17
3610.0 6 17 11 12 15 28 16 17 11 18
3650.0 9 23 10 18 15 13 22 3 15 13
3690.0 11 17 20 15 19 17 16 14 25 16
3730.0 14 28 14 22 10 19 8 28 28 19
3770.0 16 17 20 20 15 12 11 19 19 24
3810.0 16 15 16 19 32 16 0 21 15 20
3850.0 13 24 15 6 11 29 28 29 21 16
3890.0 11 11 16 24 20 4 18 29 20 13
3930.0 6 13 17 14 16 20 11 27 13 30
##END=
