##TITLE=2-Chloro-6-methoxybenzonitrile
##JCAMP-DX=4.24
##DATA TYPE=INFRARED SPECTRUM
##ORIGIN=Sadtler Research Labs Under US-EPA Contract
##OWNER=NIST Standard Reference Data Program
##CAS REGISTRY NO=6575-10-6
##MOLFORM=C 8 H 6 Cl N O
##XUNITS=1/CM
##YUNITS=ABSORBANCE
##XFACTOR=1.0
##YFACTOR=0.000067358
##DELTAX=4.0
##FIRSTX=450.0
##LASTX=3966.0
##FIRSTY=0.059208
##MAXX=3966
##MINX=450
##MAXY=0.67358
##MINY=0
##NPOINTS=880
##XYDATA=(X++(Y..Y))
450.0 879 277 124 140 261 301 221 395 349 396
490.0 180 295 204 134 0 114 79 18 171 134
530.0 76 106 136 105 99 279 292 189 32 43
570.0 141 92 246 249 311 182 172 249 65 85
610.0 179 185 180 135 116 143 158 310 313 274
650.0 287 164 193 139 112 62 25 147 82 150
690.0 157 33 108 137 186 388 621 1073 1423 1999
730.0 2218 1522 1535 1036 520 126 381 405 603 1095
770.0 1567 2281 3344 3108 2580 2303 1587 1087 826 513
810.0 456 361 279 315 113 182 205 96 219 344
850.0 550 915 1602 2378 2776 2833 2428 1598 1042 595
890.0 453 377 282 315 220 258 232 205 158 213
930.0 186 159 182 149 192 217 239 296 225 338
970.0 340 348 355 369 376 508 543 651 936 1123
1010.0 1560 2103 2642 3224 3633 4023 4359 5018 5967 7392
1050.0 8534 8906 8037 6343 4057 2329 1411 999 727 576
1090.0 472 391 360 374 282 294 213 183 195 185
1130.0 192 209 242 267 331 421 444 487 507 437
1170.0 445 495 638 724 721 727 719 633 585 599
1210.0 507 435 313 349 397 447 597 666 937 1230
1250.0 1804 2342 3073 3767 4785 5733 6968 8190 9355 10000
1290.0 8946 7505 5266 3133 1787 1233 880 644 591 519
1330.0 463 406 471 455 452 487 412 399 411 396
1370.0 441 387 363 327 294 300 303 293 341 421
1410.0 607 777 1194 2038 3231 5229 6739 7187 7001 5780
1450.0 4301 3807 4432 5832 7821 9372 9130 7559 5008 2713
1490.0 1583 1178 905 773 668 607 572 508 560 560
1530.0 637 736 833 1026 1166 1437 1683 2231 3256 3889
1570.0 5466 6628 7403 8762 7849 6754 5202 3507 1973 1043
1610.0 607 429 352 299 364 264 320 339 366 403
1650.0 360 313 236 187 162 171 143 182 148 170
1690.0 114 116 81 160 101 56 98 100 39 64
1730.0 128 150 131 113 102 116 59 89 97 68
1770.0 100 120 83 86 55 46 68 69 53 75
1810.0 70 82 107 119 135 140 117 94 99 104
1850.0 90 96 117 107 96 94 85 94 90 102
1890.0 107 113 122 136 175 203 252 294 296 288
1930.0 262 216 170 130 89 63 52 40 28 29
1970.0 25 35 34 16 29 35 25 30 36 45
2010.0 48 48 49 66 77 83 74 88 76 77
2050.0 69 76 86 86 91 101 96 96 90 108
2090.0 119 121 124 126 125 112 110 113 111 130
2130.0 151 155 172 184 194 178 155 137 106 84
2170.0 61 48 37 35 35 38 37 46 48 58
2210.0 68 98 137 180 237 311 354 354 325 279
2250.0 190 108 57 39 25 19 22 22 21 13
2290.0 9 15 19 22 23 28 42 41 50 74
2330.0 85 101 96 97 82 80 59 48 19 26
2370.0 20 0 11 1 1 1 6 3 1 6
2410.0 4 9 14 12 12 19 33 27 44 40
2450.0 42 42 42 33 29 22 25 17 11 11
2490.0 6 10 14 15 24 22 29 31 41 59
2530.0 64 75 86 106 115 116 130 124 120 123
2570.0 111 100 97 79 60 45 44 54 40 37
2610.0 48 54 51 55 63 72 72 76 62 70
2650.0 67 59 43 38 35 29 26 21 25 30
2690.0 20 29 29 38 35 37 52 59 69 72
2730.0 77 85 79 89 95 95 96 94 84 79
2770.0 70 63 58 60 61 66 74 83 76 94
2810.0 106 120 146 177 210 255 337 463 661 871
2850.0 1003 1010 920 717 548 482 464 478 502 515
2890.0 502 492 490 510 538 579 644 689 744 797
2930.0 835 903 1009 1198 1479 1702 1804 1768 1625 1381
2970.0 1266 1251 1155 961 840 708 633 602 618 675
3010.0 780 913 1068 1090 1020 914 676 483 364 305
3050.0 277 265 275 337 387 443 473 480 480 455
3090.0 434 420 390 312 254 179 137 120 100 90
3130.0 104 102 93 92 87 93 87 84 76 67
3170.0 41 47 52 50 38 21 37 25 19 49
3210.0 36 27 32 37 20 19 21 14 15 15
3250.0 19 11 22 12 14 21 24 13 13 1
3290.0 10 24 20 11 5 31 19 30 6 19
3330.0 19 4 33 26 17 16 23 16 11 16
3370.0 8 22 38 20 40 30 22 24 34 48
3410.0 48 39 39 48 36 28 34 36 46 45
3450.0 24 37 38 41 28 27 47 41 39 31
3490.0 13 45 40 53 42 52 30 32 41 44
3530.0 57 40 42 48 57 30 67 63 37 71
3570.0 80 70 74 68 52 72 60 59 60 55
3610.0 58 55 54 62 57 67 79 57 45 70
3650.0 72 71 67 47 42 65 73 77 55 79
3690.0 84 78 68 57 67 62 55 56 82 68
3730.0 56 58 72 53 72 56 53 29 30 56
3770.0 32 66 54 51 42 35 50 47 43 43
3810.0 45 30 32 35 99 80 39 43 86 60
3850.0 95 93 42 83 74 77 73 133 37 85
3890.0 25 66 52 124 94 82 30 57 104 5
3930.0 96 85 77 84 28 57 91 63 84 26
##END=
