##TITLE=2-Cyclohexylamino-1-phenylethanol
##JCAMP-DX=4.24
##DATA TYPE=INFRARED SPECTRUM
##ORIGIN=Sadtler Research Labs Under US-EPA Contract
##OWNER=NIST Standard Reference Data Program
##CAS REGISTRY NO=6589-48-6
##MOLFORM=C 14 H 21 N O
##XUNITS=1/CM
##YUNITS=ABSORBANCE
##XFACTOR=1.0
##YFACTOR=0.000078052
##DELTAX=4.0
##FIRSTX=450.0
##LASTX=3966.0
##FIRSTY=0.008586
##MAXX=3966
##MINX=450
##MAXY=0.78052
##MINY=0
##NPOINTS=880
##XYDATA=(X++(Y..Y))
450.0 110 122 119 7 80 81 111 95 82 74
490.0 43 38 52 72 44 65 65 104 117 146
530.0 154 192 254 253 266 270 188 116 133 114
570.0 94 117 131 159 156 125 82 69 75 102
610.0 117 133 144 150 178 211 200 171 144 121
650.0 99 107 135 164 196 245 313 352 471 600
690.0 932 1366 1811 1773 1433 994 749 603 550 541
730.0 526 557 596 661 739 886 944 866 698 536
770.0 406 316 247 201 181 168 157 142 126 105
810.0 94 82 81 74 75 69 72 81 105 117
850.0 95 61 60 64 65 82 112 151 218 306
890.0 386 413 407 383 345 311 265 208 168 149
930.0 141 125 113 96 94 112 114 135 160 178
970.0 180 183 185 183 190 205 229 267 328 385
1010.0 436 505 617 769 906 941 868 799 795 837
1050.0 885 940 978 968 903 818 753 730 736 759
1090.0 784 792 782 777 795 831 891 1000 1198 1403
1130.0 1509 1460 1307 1128 987 850 718 586 508 470
1170.0 465 494 525 533 528 542 576 615 631 628
1210.0 611 583 546 515 475 444 423 417 427 425
1250.0 431 452 496 515 506 482 465 447 440 440
1290.0 464 494 523 536 531 530 538 555 589 623
1330.0 648 642 631 655 716 741 696 656 688 742
1370.0 783 775 714 633 577 553 557 552 544 502
1410.0 448 372 327 312 318 357 444 579 787 1069
1450.0 1374 1601 1667 1609 1474 1265 986 742 575 488
1490.0 489 519 459 315 189 104 74 45 39 28
1530.0 25 26 24 13 9 22 5 7 12 11
1570.0 17 28 44 58 68 87 108 156 187 191
1610.0 147 81 49 30 23 25 33 38 56 70
1650.0 81 98 75 46 38 30 35 35 32 36
1690.0 31 39 56 64 99 161 240 280 311 313
1730.0 325 309 215 145 104 95 81 68 54 60
1770.0 55 48 32 34 32 40 54 73 80 70
1810.0 44 34 32 20 19 4 9 1 6 4
1850.0 11 15 19 29 33 39 46 51 56 56
1890.0 48 35 28 19 14 13 14 15 16 28
1930.0 40 52 64 72 74 74 71 72 59 39
1970.0 24 21 16 16 16 12 9 8 11 11
2010.0 10 9 7 11 9 12 10 9 4 6
2050.0 7 7 7 4 4 3 5 2 4 5
2090.0 6 2 2 5 5 3 1 2 2 5
2130.0 6 3 5 1 6 5 5 3 5 4
2170.0 8 5 6 8 8 7 4 3 1 4
2210.0 2 4 2 6 5 5 4 9 7 3
2250.0 7 5 9 8 8 10 11 11 10 12
2290.0 10 13 14 20 22 23 22 16 13 10
2330.0 19 17 11 9 21 19 16 17 8 5
2370.0 11 16 19 22 18 20 16 13 10 11
2410.0 7 11 11 9 8 9 12 5 7 8
2450.0 11 13 10 10 12 11 13 15 21 21
2490.0 17 17 17 17 14 20 19 15 23 24
2530.0 22 20 23 25 21 23 29 33 38 38
2570.0 42 47 55 58 69 73 85 90 96 92
2610.0 97 85 90 86 96 100 103 113 118 126
2650.0 133 143 155 167 173 179 171 154 149 139
2690.0 136 137 134 140 141 139 149 163 162 160
2730.0 159 169 178 170 167 169 179 192 205 220
2770.0 239 274 309 354 407 461 512 570 612 646
2810.0 677 713 760 816 861 923 1003 1103 1260 1486
2850.0 1825 2329 3005 3620 3660 3062 2327 1854 1598 1498
2890.0 1499 1595 1778 2046 2378 2752 3170 3645 4258 5222
2930.0 6778 8652 10000 9673 7650 5034 3065 1929 1303 931
2970.0 684 521 406 316 259 218 195 182 186 205
3010.0 230 259 310 410 560 735 836 814 700 587
3050.0 522 501 526 619 805 1017 1068 892 671 559
3090.0 514 454 382 308 256 215 179 133 99 71
3130.0 56 44 30 33 30 37 32 37 38 42
3170.0 36 35 27 17 10 13 9 7 14 11
3210.0 12 16 12 13 10 20 18 18 20 20
3250.0 16 16 26 21 26 23 26 24 32 26
3290.0 34 32 27 29 24 39 42 45 52 56
3330.0 55 60 66 69 67 69 73 76 87 84
3370.0 85 83 87 85 88 99 100 107 112 118
3410.0 122 108 129 128 129 139 142 153 163 158
3450.0 169 181 181 187 189 208 221 224 224 232
3490.0 246 258 262 277 279 280 301 294 297 273
3530.0 280 264 258 242 213 202 191 181 162 154
3570.0 148 126 118 109 87 96 72 59 58 47
3610.0 54 48 45 37 51 75 70 107 150 211
3650.0 263 265 198 130 97 48 30 1 20 26
3690.0 20 15 8 4 10 6 8 11 1 7
3730.0 1 5 5 9 1 1 3 1 1 20
3770.0 18 9 1 6 5 17 10 1 2 1
3810.0 15 4 4 1 6 16 16 3 1 1
3850.0 1 23 15 9 5 1 5 8 8 1
3890.0 1 14 1 19 0 12 2 22 1 11
3930.0 1 11 21 7 13 2 29 49 15 2
##END=
