##TITLE=Succinimide, N,N'-[(benzylimino)-bismethylene]di-
##JCAMP-DX=4.24
##DATA TYPE=INFRARED SPECTRUM
##ORIGIN=Sadtler Research Labs Under US-EPA Contract
##OWNER=NIST Standard Reference Data Program
##CAS REGISTRY NO=65950-41-6
##MOLFORM=C 17 H 19 N 3 O 4
##XUNITS=1/CM
##YUNITS=ABSORBANCE
##XFACTOR=1.0
##YFACTOR=0.000042114
##DELTAX=4.0
##FIRSTX=450.0
##LASTX=3966.0
##FIRSTY=0.000000
##MAXX=3966
##MINX=450
##MAXY=0.42114
##MINY=0
##NPOINTS=880
##XYDATA=(X++(Y..Y))
450.0 0 543 332 422 328 747 688 991 744 683
490.0 467 953 549 652 801 923 1334 1222 1128 941
530.0 869 912 977 1251 988 1314 1212 761 884 738
570.0 875 860 726 917 1016 1004 1017 989 1118 1178
610.0 1368 1250 1431 1412 1394 1514 1781 2009 2102 2389
650.0 2338 1981 1727 1773 1695 1577 1474 1196 1244 1065
690.0 1171 1307 1310 1106 970 886 902 1186 1190 1071
730.0 975 928 1027 1211 1419 1120 995 850 829 919
770.0 797 746 828 785 789 622 736 923 1117 959
810.0 940 1342 966 893 1050 874 1183 1010 1039 793
850.0 734 858 1025 991 866 842 792 967 1194 1108
890.0 1155 1338 1411 1216 1030 839 803 564 901 790
930.0 819 711 657 741 759 634 659 639 694 785
970.0 709 715 632 749 751 671 703 627 715 753
1010.0 806 718 761 863 892 863 739 733 754 827
1050.0 762 848 772 742 850 819 907 724 886 921
1090.0 790 818 909 786 873 963 1012 1123 1410 1677
1130.0 1876 2307 2595 3038 3321 3332 3272 3060 2847 2494
1170.0 2093 1550 1284 1171 1086 1081 1103 1046 997 992
1210.0 1206 1240 1237 1101 1062 1146 1120 1137 1060 1015
1250.0 1084 1056 1088 1022 1053 1200 1248 1365 1446 1436
1290.0 1285 1362 1474 1543 1521 1521 1646 1855 2126 2306
1330.0 2439 2514 2711 2456 2410 2029 1687 1442 1265 1104
1370.0 1022 907 913 872 867 792 818 770 780 751
1410.0 724 725 746 728 763 830 911 896 879 918
1450.0 940 979 887 853 848 784 690 674 743 722
1490.0 696 719 717 660 701 612 626 666 618 651
1530.0 616 586 615 595 600 613 605 632 608 610
1570.0 581 575 605 604 632 660 699 713 702 661
1610.0 643 637 639 666 654 643 674 664 677 757
1650.0 746 778 782 742 750 708 702 722 754 866
1690.0 938 1024 1230 1507 1896 2176 2453 2708 2679 2762
1730.0 2805 2920 3106 3295 3845 4480 5286 6224 7322 8796
1770.0 9656 10000 9625 8778 8154 7371 5506 3382 2213 1716
1810.0 1553 1462 1363 1333 1222 1077 939 800 716 625
1850.0 597 572 546 556 542 545 545 526 541 526
1890.0 512 517 513 503 503 499 504 502 494 510
1930.0 495 522 521 517 510 511 510 504 483 487
1970.0 469 469 450 459 458 441 442 439 427 435
2010.0 441 424 428 421 430 435 425 414 435 441
2050.0 433 429 427 421 416 420 409 412 423 416
2090.0 410 413 414 421 416 400 411 414 405 405
2130.0 407 410 400 403 407 404 401 430 413 413
2170.0 415 407 409 415 420 410 419 408 407 411
2210.0 403 399 402 399 419 416 417 409 407 412
2250.0 399 407 420 410 414 420 422 422 436 437
2290.0 447 457 484 483 509 501 479 472 476 458
2330.0 437 441 410 437 480 481 514 481 468 453
2370.0 493 460 483 469 434 400 378 374 386 361
2410.0 375 377 378 381 378 367 387 375 371 366
2450.0 374 375 372 370 363 377 363 378 379 368
2490.0 366 361 359 360 365 360 363 342 336 344
2530.0 346 336 354 354 364 360 346 351 343 358
2570.0 360 356 375 361 352 362 378 379 357 365
2610.0 358 378 377 367 369 377 385 383 370 378
2650.0 375 370 391 379 385 387 389 393 390 401
2690.0 409 399 415 400 417 417 414 448 446 469
2730.0 465 472 452 456 442 442 434 440 448 479
2770.0 463 453 475 486 492 520 551 559 607 571
2810.0 584 605 620 612 597 630 634 654 666 680
2850.0 695 709 718 696 709 683 632 626 626 630
2890.0 620 641 632 620 605 621 605 613 604 649
2930.0 640 587 606 651 680 749 741 735 735 731
2970.0 689 636 621 623 598 590 579 619 568 587
3010.0 592 627 646 641 686 699 673 665 674 632
3050.0 612 576 580 595 627 687 700 689 666 615
3090.0 626 566 564 536 529 519 507 465 441 463
3130.0 451 463 458 455 428 438 444 413 427 415
3170.0 430 409 397 422 417 416 408 422 424 408
3210.0 428 408 425 429 397 399 429 409 443 424
3250.0 403 424 453 405 392 425 431 394 434 434
3290.0 448 424 432 446 430 406 425 442 456 429
3330.0 430 430 425 439 470 447 407 457 386 426
3370.0 415 452 449 462 435 426 376 426 454 436
3410.0 461 449 464 536 582 634 714 783 907 1004
3450.0 1108 1194 1133 1046 1028 1107 954 796 637 515
3490.0 545 507 489 528 511 430 475 494 519 507
3530.0 482 453 466 539 516 503 507 530 555 474
3570.0 450 513 490 435 458 524 531 439 432 445
3610.0 466 459 436 449 462 510 394 450 382 395
3650.0 400 441 399 554 444 395 388 406 416 563
3690.0 481 406 438 503 480 462 439 447 449 418
3730.0 472 470 423 463 461 504 381 441 483 473
3770.0 450 382 368 422 466 443 365 419 424 441
3810.0 470 489 471 400 445 326 486 396 425 438
3850.0 460 456 485 353 463 382 576 393 347 478
3890.0 383 517 471 334 437 411 456 716 548 447
3930.0 597 560 646 492 397 398 485 434 438 573
##END=
