##TITLE=Hexanal
##JCAMP-DX=4.24
##DATA TYPE=INFRARED SPECTRUM
##ORIGIN=Sadtler Research Labs Under US-EPA Contract
##OWNER=NIST Standard Reference Data Program
##CAS REGISTRY NO=66-25-1
##MOLFORM=C 6 H 12 O
##XUNITS=1/CM
##YUNITS=ABSORBANCE
##XFACTOR=1.0
##YFACTOR=0.000084244
##DELTAX=4.0
##FIRSTX=450.0
##LASTX=3966.0
##FIRSTY=0.008846
##MAXX=3966
##MINX=450
##MAXY=0.84244
##MINY=0
##NPOINTS=880
##XYDATA=(X++(Y..Y))
450.0 105 129 168 115 72 102 201 166 144 108
490.0 1 89 119 54 196 207 201 230 301 277
530.0 290 305 257 350 237 167 151 92 131 127
570.0 107 72 123 99 104 132 192 97 92 102
610.0 98 106 72 119 92 141 113 106 96 95
650.0 109 123 122 144 144 183 167 159 155 141
690.0 103 122 99 98 112 111 146 187 233 232
730.0 306 295 311 295 230 214 176 152 125 138
770.0 109 136 122 137 127 119 149 127 140 135
810.0 140 130 125 127 128 126 132 139 150 184
850.0 199 217 237 237 225 221 216 222 240 267
890.0 307 335 357 357 356 350 338 328 334 357
930.0 372 396 420 439 431 434 427 416 398 391
970.0 381 360 353 356 368 386 410 431 453 478
1010.0 508 557 600 647 682 716 703 670 640 601
1050.0 567 544 538 531 530 542 555 570 587 619
1090.0 642 655 664 666 671 676 683 712 738 777
1130.0 795 807 797 767 712 651 591 557 530 531
1170.0 527 511 505 482 482 480 483 483 481 475
1210.0 460 460 463 455 454 458 463 461 453 443
1250.0 439 431 429 427 434 445 449 448 446 452
1290.0 453 453 451 449 443 438 424 426 429 441
1330.0 473 519 564 616 669 680 693 690 713 733
1370.0 763 791 891 1022 1102 1106 1055 955 859 787
1410.0 749 746 721 734 721 715 694 701 764 847
1450.0 977 1120 1253 1377 1384 1322 1119 882 674 482
1490.0 346 264 205 152 114 71 74 62 33 55
1530.0 34 49 26 14 7 31 25 7 14 23
1570.0 20 16 29 23 32 18 33 24 27 28
1610.0 36 47 34 62 46 80 79 106 129 124
1650.0 132 118 157 163 219 227 280 345 407 509
1690.0 645 844 1005 1394 1709 1938 1943 2170 2767 3701
1730.0 5095 6633 7959 8174 8059 7440 6133 4478 3360 2689
1770.0 2271 1923 1722 1501 1326 1111 921 746 598 498
1810.0 394 327 261 234 183 165 138 132 103 88
1850.0 93 80 70 57 68 40 52 46 47 38
1890.0 36 45 28 41 33 24 26 24 21 22
1930.0 26 24 31 10 19 14 17 18 18 9
1970.0 7 11 9 15 6 5 0 7 5 7
2010.0 11 6 8 2 24 17 27 24 32 33
2050.0 30 34 31 32 27 32 33 35 36 34
2090.0 29 21 25 20 25 16 17 17 16 16
2130.0 13 16 18 25 14 16 19 23 16 27
2170.0 27 26 29 28 28 15 19 24 20 23
2210.0 19 19 20 14 8 15 15 17 12 14
2250.0 15 16 20 16 22 14 20 15 24 26
2290.0 25 36 36 40 54 66 50 48 37 24
2330.0 46 30 27 13 50 61 52 40 22 7
2370.0 12 25 14 20 16 17 17 13 8 12
2410.0 7 6 9 7 4 4 8 9 13 9
2450.0 8 13 11 12 14 15 2 12 3 14
2490.0 10 5 14 4 6 5 8 3 11 9
2530.0 5 14 22 33 33 28 26 30 36 43
2570.0 43 44 53 59 65 72 70 73 85 97
2610.0 104 120 119 150 166 183 202 233 256 289
2650.0 328 356 409 470 534 605 701 814 962 1149
2690.0 1373 1663 2039 2551 2985 3151 3138 2946 2521 2028
2730.0 1668 1432 1283 1177 1096 1023 970 933 902 879
2770.0 886 915 969 1058 1159 1333 1535 1760 2025 2257
2810.0 2392 2374 2263 2043 1813 1610 1508 1478 1536 1688
2850.0 1940 2332 2855 3467 4061 4492 4697 4839 4879 4796
2890.0 4593 4311 4081 4022 4162 4447 4921 5606 6396 7406
2930.0 8396 9338 9911 10000 9546 8880 8151 7767 7957 8501
2970.0 8655 7739 6315 4700 3224 2239 1655 1262 1003 841
3010.0 719 628 569 518 465 438 402 375 342 309
3050.0 299 271 238 229 220 211 208 191 180 172
3090.0 168 168 155 162 140 136 139 135 133 120
3130.0 122 114 111 105 104 100 111 108 117 116
3170.0 99 104 100 108 100 94 84 87 91 79
3210.0 82 88 99 76 77 68 85 80 58 65
3250.0 65 47 61 64 43 46 50 50 39 36
3290.0 38 33 27 30 10 7 23 8 11 17
3330.0 28 22 37 19 13 18 30 20 21 22
3370.0 8 15 22 35 22 36 45 41 33 30
3410.0 47 46 52 68 73 68 81 98 100 101
3450.0 110 135 169 162 179 180 179 141 110 124
3490.0 84 57 56 58 56 51 18 34 37 42
3530.0 54 57 55 72 64 49 73 81 91 136
3570.0 216 286 296 325 276 209 173 166 149 154
3610.0 147 143 123 120 121 113 127 107 121 139
3650.0 150 191 185 176 133 114 80 53 42 76
3690.0 53 41 64 44 74 65 38 53 39 35
3730.0 57 66 65 44 74 58 55 59 35 64
3770.0 74 68 74 58 40 26 63 43 60 46
3810.0 72 32 65 50 33 60 39 113 90 62
3850.0 47 71 74 45 36 78 77 54 76 63
3890.0 94 82 88 65 55 68 70 95 40 26
3930.0 47 76 110 87 57 72 36 52 49 91
##END=
