##TITLE=1-Naphthalenecarboxaldehyde
##JCAMP-DX=4.24
##DATA TYPE=INFRARED SPECTRUM
##ORIGIN=Sadtler Research Labs Under US-EPA Contract
##OWNER=NIST Standard Reference Data Program
##CAS REGISTRY NO=66-77-3
##MOLFORM=C 11 H 8 O
##XUNITS=1/CM
##YUNITS=ABSORBANCE
##XFACTOR=1.0
##YFACTOR=0.000141937
##DELTAX=4.0
##FIRSTX=450.0
##LASTX=3966.0
##FIRSTY=0.000426
##MAXX=3966
##MINX=450
##MAXY=1.41937
##MINY=0
##NPOINTS=880
##XYDATA=(X++(Y..Y))
450.0 3 41 20 67 0 82 48 60 59 102
490.0 187 217 304 311 319 318 302 277 333 336
530.0 210 210 208 153 164 128 133 101 66 98
570.0 77 81 69 82 69 44 112 84 107 91
610.0 84 90 70 103 119 220 352 617 849 920
650.0 918 765 541 280 179 130 69 46 59 42
690.0 72 84 196 366 625 761 805 797 609 438
730.0 368 351 285 309 303 438 702 1238 1693 2235
770.0 3353 2711 1841 1926 1779 1928 2418 2957 2232 1566
810.0 1179 728 432 243 171 106 82 64 95 119
850.0 203 289 335 329 335 336 389 658 750 774
890.0 743 507 200 79 72 61 47 43 31 35
930.0 37 44 53 53 69 65 78 88 86 103
970.0 117 118 91 104 92 93 107 120 143 159
1010.0 216 259 289 315 328 315 331 397 520 747
1050.0 1029 1162 1147 1015 737 462 312 270 218 166
1090.0 106 63 50 36 47 50 77 89 102 108
1130.0 108 149 193 226 268 337 453 698 1033 1205
1170.0 1188 1119 807 443 267 255 300 403 631 944
1210.0 1256 1375 1398 1383 1039 724 578 388 241 178
1250.0 165 158 161 174 160 156 135 126 92 73
1290.0 63 51 57 43 60 55 69 84 106 163
1330.0 229 324 371 421 411 348 299 264 265 278
1370.0 276 259 224 219 229 243 252 265 285 254
1410.0 233 216 162 146 121 140 142 201 242 280
1450.0 325 360 393 351 314 261 157 97 110 120
1490.0 188 322 512 752 964 1131 1143 1005 765 514
1530.0 297 178 112 77 70 89 145 184 330 461
1570.0 643 738 757 742 660 547 465 419 365 285
1610.0 219 217 241 309 305 335 292 252 214 177
1650.0 166 149 176 173 245 261 314 382 440 576
1690.0 870 1566 2961 5267 7832 9138 10000 8189 6096 3494
1730.0 1675 785 428 355 278 303 326 371 416 473
1770.0 496 502 494 455 410 375 374 361 336 319
1810.0 306 273 246 210 184 157 135 134 118 117
1850.0 114 115 111 106 109 111 122 125 124 116
1890.0 106 94 96 93 105 115 128 147 152 173
1930.0 184 202 197 190 173 151 129 104 101 84
1970.0 78 60 51 42 32 31 28 28 29 25
2010.0 26 23 20 23 17 22 19 22 16 22
2050.0 24 21 31 27 25 21 23 24 23 29
2090.0 25 37 30 31 30 26 30 27 27 28
2130.0 31 38 40 37 40 34 29 22 28 20
2170.0 21 22 22 25 21 26 18 25 25 22
2210.0 24 26 33 31 36 39 38 41 37 43
2250.0 44 44 45 40 46 44 45 47 47 55
2290.0 55 64 65 69 77 81 87 77 94 81
2330.0 89 79 69 72 51 68 91 72 49 14
2370.0 16 8 13 27 23 23 11 18 14 17
2410.0 24 22 29 24 28 22 19 23 15 19
2450.0 13 18 9 11 16 11 18 15 16 17
2490.0 14 19 14 14 15 13 16 8 14 12
2530.0 19 19 15 19 15 21 16 23 27 28
2570.0 41 32 44 38 38 36 37 44 39 45
2610.0 49 50 58 59 66 69 72 75 71 85
2650.0 83 91 93 95 107 110 128 132 163 184
2690.0 227 291 385 560 833 1260 1706 1963 1990 1801
2730.0 1420 980 738 627 572 556 539 530 509 479
2770.0 464 439 432 406 396 374 374 384 395 433
2810.0 481 549 617 679 728 734 732 707 667 631
2850.0 577 532 458 397 325 256 212 173 154 134
2890.0 125 115 102 109 102 111 104 108 112 111
2930.0 120 116 134 134 145 153 151 155 141 137
2970.0 128 115 119 110 116 121 133 156 178 218
3010.0 246 284 302 322 362 405 489 591 749 939
3050.0 1119 1313 1503 1652 1682 1585 1388 1183 989 845
3090.0 800 771 707 622 478 346 232 163 120 73
3130.0 71 56 60 43 50 52 44 45 43 50
3170.0 52 47 53 43 50 37 43 36 35 43
3210.0 34 41 47 43 45 36 44 29 39 35
3250.0 41 45 26 36 20 29 29 23 30 20
3290.0 30 32 33 33 33 46 33 47 40 42
3330.0 48 48 51 38 43 43 43 51 33 54
3370.0 47 42 58 52 77 97 134 145 166 179
3410.0 155 152 112 81 58 48 40 46 40 14
3450.0 28 33 33 45 31 50 46 40 52 31
3490.0 34 19 39 45 37 40 26 40 36 27
3530.0 26 28 59 43 45 41 56 66 53 82
3570.0 74 60 65 70 86 46 77 56 67 54
3610.0 47 46 27 27 35 30 28 17 25 34
3650.0 46 30 18 33 37 37 15 32 18 32
3690.0 51 8 43 24 36 47 34 32 33 46
3730.0 48 56 49 16 56 34 38 23 8 46
3770.0 32 52 33 44 30 27 62 36 48 19
3810.0 20 32 44 52 32 58 48 42 35 40
3850.0 57 27 55 50 39 45 13 49 39 37
3890.0 49 72 59 46 52 24 50 52 50 57
3930.0 24 76 46 56 104 45 58 35 69 70
##END=
