##TITLE=1,3-Benzenediol, 4-bromo-
##JCAMP-DX=4.24
##DATA TYPE=INFRARED SPECTRUM
##ORIGIN=Sadtler Research Labs Under US-EPA Contract
##OWNER=NIST Standard Reference Data Program
##CAS REGISTRY NO=6626-15-9
##MOLFORM=C 6 H 5 Br O 2
##XUNITS=1/CM
##YUNITS=ABSORBANCE
##XFACTOR=1.0
##YFACTOR=0.000044339
##DELTAX=4.0
##FIRSTX=450.0
##LASTX=3966.0
##FIRSTY=0.005010
##MAXX=3966
##MINX=450
##MAXY=0.44339
##MINY=0
##NPOINTS=880
##XYDATA=(X++(Y..Y))
450.0 113 247 195 255 0 119 102 192 110 171
490.0 182 279 530 542 593 460 282 288 144 196
530.0 195 215 278 277 161 227 202 216 389 472
570.0 560 336 283 323 506 847 1118 1248 1199 896
610.0 475 404 406 340 233 132 95 21 82 195
650.0 687 1177 1415 1011 583 477 526 713 396 305
690.0 289 265 226 159 77 98 79 97 103 134
730.0 200 251 302 306 403 476 489 602 631 776
770.0 910 1066 1315 1105 1026 973 939 784 549 410
810.0 305 331 363 452 578 816 1027 912 781 792
850.0 725 763 758 638 659 675 571 356 193 80
890.0 33 14 11 21 22 36 52 69 71 63
930.0 41 88 183 394 665 898 1172 1623 2258 2322
970.0 1985 1639 837 377 296 289 318 351 387 426
1010.0 455 431 414 451 633 742 757 703 436 272
1050.0 265 332 396 409 388 342 321 322 332 340
1090.0 334 322 330 342 438 663 1061 1607 2290 2862
1130.0 3647 4892 5921 6544 7312 7491 6919 5789 4451 4089
1170.0 4845 6640 9192 10000 9923 8417 5655 4638 4418 4226
1210.0 4356 4460 4298 4081 3465 2708 2097 1660 1390 1301
1250.0 1361 1556 1767 1793 1794 1742 1563 1623 1921 2284
1290.0 2640 2936 3148 3396 3669 3659 3402 3155 2894 2954
1330.0 3442 4158 4662 4635 3975 2633 1387 742 473 301
1370.0 203 166 130 104 92 93 81 107 106 135
1410.0 131 172 236 286 363 480 681 934 1389 1918
1450.0 2819 3861 5255 6570 7147 6656 5620 5102 5188 6044
1490.0 6331 5965 4993 3307 2048 1474 1125 845 738 661
1530.0 662 660 701 712 676 664 702 775 856 990
1570.0 1298 1724 2347 3020 3720 4541 5317 6132 6554 6386
1610.0 5706 4911 4184 3406 2727 1924 1359 909 625 495
1650.0 457 445 432 369 337 280 241 186 179 176
1690.0 145 146 173 183 170 165 173 182 132 103
1730.0 89 95 65 60 59 42 54 42 61 51
1770.0 79 71 54 43 40 32 40 30 39 31
1810.0 42 43 47 47 49 58 45 49 53 69
1850.0 63 66 69 61 68 74 66 68 74 77
1890.0 85 87 88 77 76 76 71 67 68 58
1930.0 61 47 47 37 47 52 54 52 53 48
1970.0 50 42 41 39 44 54 64 67 65 60
2010.0 54 49 54 53 55 55 56 57 64 62
2050.0 64 59 67 63 58 57 60 61 54 56
2090.0 57 62 66 72 66 60 57 54 51 50
2130.0 54 57 56 53 57 64 62 59 54 51
2170.0 50 47 49 52 54 54 55 66 62 65
2210.0 60 62 60 65 75 72 75 68 69 69
2250.0 69 69 73 72 81 89 97 106 116 130
2290.0 136 160 189 207 214 254 234 226 244 222
2330.0 215 200 209 220 278 261 264 198 214 189
2370.0 181 160 185 188 147 84 74 67 70 89
2410.0 88 103 105 121 129 138 144 142 144 141
2450.0 147 138 131 127 133 141 142 149 147 146
2490.0 155 142 139 127 132 125 117 116 111 100
2530.0 82 70 68 59 59 54 54 58 64 61
2570.0 55 59 57 59 59 65 68 66 69 82
2610.0 67 67 73 67 64 56 59 53 45 48
2650.0 45 42 40 39 36 30 31 25 28 24
2690.0 22 24 26 23 26 23 28 21 27 29
2730.0 31 27 34 38 36 42 47 39 42 52
2770.0 52 44 44 51 44 54 51 55 53 50
2810.0 52 45 44 44 37 38 36 32 29 26
2850.0 20 28 28 27 33 27 26 11 13 15
2890.0 16 19 12 16 26 31 29 29 31 34
2930.0 34 42 45 46 52 35 40 37 33 21
2970.0 12 19 20 24 16 21 31 31 42 42
3010.0 58 74 103 130 181 245 313 393 443 452
3050.0 419 383 354 320 286 270 262 245 246 239
3090.0 228 203 183 148 115 95 80 69 63 55
3130.0 53 47 42 33 33 42 44 42 34 30
3170.0 35 35 34 38 44 44 40 47 54 44
3210.0 47 36 34 33 31 27 36 27 34 31
3250.0 36 25 22 34 31 39 42 34 30 42
3290.0 27 43 29 37 39 47 42 57 54 58
3330.0 62 101 103 119 109 127 131 129 110 102
3370.0 88 81 86 66 69 51 62 54 53 69
3410.0 70 66 54 60 70 63 58 61 44 41
3450.0 51 37 49 53 57 60 58 64 50 58
3490.0 68 69 51 73 83 81 82 94 125 180
3530.0 254 529 994 1605 3005 5245 6912 7532 5984 3568
3570.0 2101 1526 1246 1069 882 643 351 221 162 129
3610.0 125 126 162 181 242 431 692 1226 2270 3600
3650.0 4590 4554 4167 3273 1950 889 455 246 129 97
3690.0 101 66 29 74 49 73 56 51 63 70
3730.0 38 97 88 86 117 113 116 75 73 95
3770.0 93 63 44 73 49 30 38 73 80 82
3810.0 47 60 85 85 73 64 92 96 76 61
3850.0 79 183 103 81 96 101 79 58 74 91
3890.0 43 80 90 121 109 103 91 92 92 86
3930.0 103 107 83 76 78 109 91 129 102 80
##END=
