##TITLE=Carbonic acid 1,1-dimethylethyl ester
##JCAMP-DX=4.24
##DATA TYPE=INFRARED SPECTRUM
##ORIGIN=Sadtler Research Labs Under US-EPA Contract
##OWNER=NIST Standard Reference Data Program
##CAS REGISTRY NO=6627-89-0
##MOLFORM=C 11 H 14 O 3
##XUNITS=1/CM
##YUNITS=ABSORBANCE
##XFACTOR=1.0
##YFACTOR=0.000159534
##DELTAX=4.0
##FIRSTX=450.0
##LASTX=3966.0
##FIRSTY=0.000000
##MAXX=3966
##MINX=450
##MAXY=1.59534
##MINY=0
##NPOINTS=880
##XYDATA=(X++(Y..Y))
450.0 0 51 14 299 213 20 150 130 111 151
490.0 210 255 260 336 196 173 107 86 82 40
530.0 69 97 90 33 91 30 158 57 53 39
570.0 110 50 99 112 81 122 120 136 95 114
610.0 37 40 81 81 89 70 59 66 73 62
650.0 83 84 120 159 142 234 227 300 437 592
690.0 582 528 423 334 336 415 513 617 625 621
730.0 521 508 341 386 568 768 646 543 409 420
770.0 482 532 602 631 583 455 403 331 336 381
810.0 444 412 539 666 729 666 408 253 160 157
850.0 121 88 135 155 152 240 348 480 517 517
890.0 487 309 307 338 402 480 472 328 227 173
930.0 172 110 113 113 98 100 87 93 107 98
970.0 111 115 123 121 129 137 152 183 229 295
1010.0 341 328 389 461 493 430 317 262 257 274
1050.0 278 280 281 295 286 284 275 258 220 208
1090.0 202 200 236 267 281 363 417 415 487 658
1130.0 850 1145 1610 2339 3569 5319 7349 8904 9951 10000
1170.0 9185 8258 6845 5079 3805 2895 2446 2159 1887 1856
1210.0 2117 2667 3411 3983 4248 4307 3966 3512 3415 3867
1250.0 4723 5823 7215 8068 8577 9103 9197 8639 6262 3813
1290.0 2228 1406 1052 814 650 573 525 479 388 328
1330.0 286 272 264 265 262 259 266 303 394 628
1370.0 961 1241 1222 883 560 416 519 657 633 433
1410.0 262 218 189 189 170 166 166 187 203 220
1450.0 267 330 384 447 459 577 665 697 676 679
1490.0 1024 1636 2059 1656 943 425 273 225 161 166
1530.0 127 130 147 144 128 106 131 144 168 126
1570.0 142 168 195 266 354 554 804 890 864 583
1610.0 378 256 193 158 121 122 102 112 106 88
1650.0 125 110 114 66 102 97 103 102 108 136
1690.0 114 119 149 172 148 149 160 194 207 218
1730.0 275 286 324 321 373 488 724 1200 2008 3144
1770.0 4239 4694 4090 3162 2496 2147 1704 1090 571 331
1810.0 236 180 157 141 139 142 129 132 118 122
1850.0 106 105 105 90 98 90 89 79 76 71
1890.0 67 59 53 46 46 52 57 64 67 74
1930.0 86 85 80 77 81 87 88 78 67 61
1970.0 62 60 57 53 51 49 48 46 48 46
2010.0 47 47 50 56 60 64 71 77 82 80
2050.0 78 72 66 62 52 53 51 47 45 42
2090.0 41 40 40 41 40 39 37 38 40 40
2130.0 42 46 46 47 51 51 53 52 53 46
2170.0 47 46 44 45 45 42 42 42 46 45
2210.0 44 46 43 46 44 45 44 43 46 47
2250.0 51 54 56 60 63 66 65 69 70 73
2290.0 77 77 78 80 80 83 79 79 78 71
2330.0 62 51 62 43 61 33 56 37 57 42
2370.0 47 44 35 34 30 25 26 28 28 30
2410.0 30 31 34 33 32 34 33 30 33 30
2450.0 29 25 23 25 23 25 23 23 27 27
2490.0 29 28 26 28 29 27 28 27 26 27
2530.0 24 19 19 21 18 18 12 13 14 13
2570.0 12 13 14 14 11 14 11 10 11 13
2610.0 13 15 17 18 17 16 17 16 16 18
2650.0 18 18 16 16 14 10 10 11 9 9
2690.0 7 9 7 7 8 11 13 10 14 17
2730.0 20 24 25 19 16 15 15 15 17 15
2770.0 19 18 16 20 23 27 26 25 25 22
2810.0 27 32 32 36 43 43 47 39 37 37
2850.0 39 48 51 64 80 91 117 132 152 171
2890.0 187 200 206 212 221 240 275 292 290 295
2930.0 324 395 481 550 552 495 435 385 373 389
2970.0 473 657 881 1079 1312 1543 1422 991 556 412
3010.0 422 427 366 272 202 182 180 203 236 299
3050.0 381 406 360 288 263 278 298 335 391 401
3090.0 357 256 198 180 180 165 139 107 75 55
3130.0 40 39 30 29 24 23 22 24 25 25
3170.0 26 29 32 27 28 26 30 27 26 30
3210.0 28 28 22 28 28 26 27 30 31 29
3250.0 27 26 24 24 23 22 25 21 20 24
3290.0 22 17 18 20 24 28 24 26 22 24
3330.0 24 25 20 25 29 27 31 26 28 29
3370.0 28 23 30 25 23 24 27 28 30 25
3410.0 28 26 26 29 27 24 28 28 30 30
3450.0 30 31 28 25 26 30 26 31 25 22
3490.0 22 24 24 23 24 26 33 34 32 37
3530.0 38 37 32 24 18 13 29 22 27 26
3570.0 27 18 19 13 26 14 29 19 26 17
3610.0 24 25 23 40 26 45 32 36 41 78
3650.0 64 91 52 81 60 53 56 40 31 16
3690.0 35 19 14 22 27 27 35 13 29 7
3730.0 32 41 24 48 40 75 31 39 16 27
3770.0 34 30 24 19 14 25 17 41 35 62
3810.0 25 55 36 57 28 29 42 56 38 33
3850.0 39 87 63 35 43 52 42 45 39 35
3890.0 54 39 39 46 42 67 42 44 40 34
3930.0 46 33 48 45 47 42 48 48 37 56
##END=
