##TITLE=Naphthalene, 1-bromo-4-methyl-
##JCAMP-DX=4.24
##DATA TYPE=INFRARED SPECTRUM
##ORIGIN=Sadtler Research Labs Under US-EPA Contract
##OWNER=NIST Standard Reference Data Program
##CAS REGISTRY NO=6627-78-7
##MOLFORM=C 11 H 9 Br
##XUNITS=1/CM
##YUNITS=ABSORBANCE
##XFACTOR=1.0
##YFACTOR=0.000079428
##DELTAX=4.0
##FIRSTX=450.0
##LASTX=3966.0
##FIRSTY=0.004925
##MAXX=3966
##MINX=450
##MAXY=0.79428
##MINY=0
##NPOINTS=880
##XYDATA=(X++(Y..Y))
450.0 62 156 88 147 108 225 297 194 360 119
490.0 240 335 174 261 85 67 190 439 570 456
530.0 384 129 45 107 114 209 216 168 333 249
570.0 323 250 176 208 118 249 188 208 378 433
610.0 698 1146 1450 1551 1226 772 430 205 173 165
650.0 123 116 95 71 0 181 0 102 155 259
690.0 245 364 412 486 464 270 213 224 251 271
730.0 446 545 1482 3540 5694 9326 10000 6959 4021 2379
770.0 914 552 449 406 410 388 416 441 898 1841
810.0 3032 4917 6424 5283 3296 2039 962 446 312 256
850.0 291 302 309 443 553 723 822 820 809 874
890.0 1095 1706 2728 3741 4000 3422 2159 1173 690 451
930.0 351 336 327 336 336 417 430 422 551 717
970.0 1001 1400 1883 2327 2335 2029 1455 879 561 423
1010.0 478 548 798 1262 1485 1530 1261 875 494 354
1050.0 360 332 382 356 380 342 344 325 308 249
1090.0 251 286 377 678 1115 1378 1492 1061 591 395
1130.0 373 295 298 269 256 458 669 933 939 825
1170.0 613 482 528 583 714 1106 1596 1876 1765 1274
1210.0 799 717 804 939 1024 927 741 532 452 472
1250.0 753 1068 1472 1701 1568 1257 866 578 462 371
1290.0 305 251 273 297 311 343 338 374 413 449
1330.0 469 407 367 337 309 349 457 690 1112 1841
1370.0 2908 3867 4365 4235 3749 2826 2003 1246 791 773
1410.0 849 987 1110 996 825 586 518 696 842 1138
1450.0 1411 1571 1268 1213 780 745 623 527 476 507
1490.0 716 797 1147 1422 1556 1669 1165 923 544 323
1530.0 308 193 347 228 368 411 585 1093 1578 1781
1570.0 1755 1375 967 755 1054 1305 1652 1444 1361 1010
1610.0 643 628 396 473 493 576 606 592 413 309
1650.0 280 141 224 0 165 61 183 48 206 161
1690.0 256 311 437 531 416 372 272 310 205 155
1730.0 271 210 453 334 394 327 196 147 120 107
1770.0 112 155 91 114 123 132 254 285 339 333
1810.0 271 218 226 289 318 415 323 416 421 648
1850.0 623 601 490 273 159 92 60 41 50 83
1890.0 95 132 147 150 126 162 156 271 278 296
1930.0 233 175 180 201 271 249 231 181 87 64
1970.0 26 23 18 11 20 4 19 14 15 21
2010.0 25 23 23 17 15 8 18 12 21 19
2050.0 23 26 24 18 22 18 18 28 27 27
2090.0 29 25 29 16 12 8 3 9 5 7
2130.0 8 8 13 5 4 5 0 12 8 11
2170.0 11 9 9 11 9 13 9 12 1 6
2210.0 5 4 16 8 11 17 9 23 24 21
2250.0 29 26 35 37 41 38 34 38 27 28
2290.0 37 25 42 49 50 77 85 120 122 153
2330.0 155 118 194 35 235 42 259 120 237 184
2370.0 140 119 87 78 67 65 71 79 89 95
2410.0 99 100 92 85 75 67 62 60 68 63
2450.0 61 59 55 62 65 72 81 93 101 87
2490.0 85 76 66 69 65 64 66 70 75 68
2530.0 74 68 75 69 74 74 75 81 87 88
2570.0 96 90 88 89 88 87 83 85 95 95
2610.0 108 111 100 110 95 99 88 92 97 84
2650.0 98 90 87 92 98 97 97 89 93 92
2690.0 92 90 90 99 99 104 108 112 124 130
2730.0 146 155 173 202 225 236 236 206 180 162
2770.0 156 152 154 162 168 175 180 181 195 198
2810.0 196 216 223 231 253 270 274 280 297 320
2850.0 362 404 480 610 802 1022 1204 1269 1227 1110
2890.0 995 942 958 1047 1165 1274 1357 1413 1508 1694
2930.0 1980 2277 2441 2422 2238 2029 1983 2029 1957 1814
2970.0 1727 1737 1819 1943 1911 1727 1483 1190 1033 980
3010.0 1013 1109 1236 1428 1637 1832 1970 2056 2157 2224
3050.0 2234 2156 1972 1782 1727 1949 2532 3307 3990 4232
3090.0 3819 3012 2125 1366 866 618 505 437 397 370
3130.0 355 353 333 316 279 272 263 242 249 242
3170.0 234 231 225 226 225 219 212 211 216 222
3210.0 232 224 208 218 200 187 190 185 187 192
3250.0 180 194 186 183 184 182 187 180 180 177
3290.0 166 171 162 170 182 161 176 173 164 179
3330.0 161 162 163 174 165 174 180 159 169 180
3370.0 163 183 174 181 173 172 179 177 176 179
3410.0 183 191 175 172 180 174 188 189 186 190
3450.0 167 196 172 170 187 176 198 172 184 172
3490.0 192 193 194 144 198 154 208 186 188 182
3530.0 172 192 208 192 205 162 245 144 265 114
3570.0 213 186 223 195 190 171 192 212 173 253
3610.0 160 194 177 228 152 267 121 290 166 229
3650.0 147 253 194 161 317 44 409 40 315 185
3690.0 182 259 160 274 200 212 236 172 266 110
3730.0 253 264 106 417 53 449 53 325 179 217
3770.0 286 162 307 268 216 321 194 295 213 258
3810.0 272 195 292 171 325 213 319 315 215 400
3850.0 92 407 128 379 255 197 360 188 325 181
3890.0 259 203 318 192 217 342 150 293 172 292
3930.0 205 258 234 227 309 211 315 217 219 323
##END=
