##TITLE=Phenol, 2-bromo-4-methyl-
##JCAMP-DX=4.24
##DATA TYPE=INFRARED SPECTRUM
##ORIGIN=Sadtler Research Labs Under US-EPA Contract
##OWNER=NIST Standard Reference Data Program
##CAS REGISTRY NO=6627-55-0
##MOLFORM=C 7 H 7 Br O
##XUNITS=1/CM
##YUNITS=ABSORBANCE
##XFACTOR=1.0
##YFACTOR=0.000085995
##DELTAX=4.0
##FIRSTX=450.0
##LASTX=3966.0
##FIRSTY=0.024079
##MAXX=3966
##MINX=450
##MAXY=0.85995
##MINY=0
##NPOINTS=880
##XYDATA=(X++(Y..Y))
450.0 280 203 290 311 312 290 195 257 436 706
490.0 673 571 430 138 111 0 18 99 92 153
530.0 136 229 366 453 556 730 383 322 272 220
570.0 139 171 139 130 68 174 159 177 174 193
610.0 212 214 239 227 204 178 149 132 103 99
650.0 104 122 163 278 488 644 679 662 489 435
690.0 437 403 346 260 180 150 143 151 169 196
730.0 228 296 431 682 1015 1399 1639 1677 1543 1272
770.0 900 628 440 271 224 290 417 683 1102 1504
810.0 1914 2719 2434 1644 1244 771 400 269 242 299
850.0 421 590 717 860 907 767 686 561 455 344
890.0 232 170 132 106 109 107 112 127 127 146
930.0 157 181 187 199 200 168 144 143 131 148
970.0 162 196 244 312 375 407 401 349 283 222
1010.0 176 181 201 235 320 499 938 1288 1367 1349
1050.0 871 436 309 264 254 236 248 258 294 328
1090.0 354 350 344 303 256 232 214 215 255 284
1130.0 342 418 438 460 446 426 482 672 1112 1765
1170.0 2466 3578 5152 5820 5576 5803 4451 3410 3062 2928
1210.0 2705 2483 2271 1803 1279 993 850 888 1138 1667
1250.0 2310 2542 2475 2405 1942 1901 2595 3713 4370 4183
1290.0 3376 1814 682 360 318 369 464 624 893 1258
1330.0 1500 1454 1438 1086 697 461 352 342 362 330
1370.0 322 314 288 298 316 353 386 427 500 608
1410.0 648 676 637 528 472 460 391 379 326 301
1450.0 306 332 354 328 403 521 744 1159 2034 3439
1490.0 5377 8242 10000 9161 8267 4958 2635 1725 1245 934
1530.0 656 499 387 299 266 299 304 331 238 303
1570.0 371 465 630 733 771 743 652 569 627 747
1610.0 859 849 807 697 489 380 297 216 166 174
1650.0 110 142 74 106 97 134 120 118 123 99
1690.0 89 102 107 96 102 131 186 218 212 228
1730.0 240 230 170 181 184 191 154 154 131 102
1770.0 101 77 60 65 68 72 78 96 104 109
1810.0 106 98 85 72 73 65 58 70 69 69
1850.0 70 74 84 95 92 120 138 181 204 184
1890.0 174 123 95 76 66 76 70 74 59 62
1930.0 60 65 75 58 63 63 70 57 64 54
1970.0 55 51 44 56 55 53 59 58 64 66
2010.0 64 68 84 79 80 98 110 100 106 102
2050.0 102 93 78 67 76 74 78 67 66 64
2090.0 53 53 41 45 45 42 39 36 36 40
2130.0 46 46 44 45 50 50 56 56 48 48
2170.0 45 36 42 31 36 41 35 36 33 35
2210.0 39 36 36 44 41 49 49 49 54 52
2250.0 58 58 59 60 49 56 51 48 47 38
2290.0 46 38 35 38 28 31 49 40 36 27
2330.0 36 18 24 17 29 34 69 72 52 38
2370.0 48 46 43 42 53 63 59 47 47 46
2410.0 39 39 45 51 49 56 54 62 53 53
2450.0 58 70 75 92 103 109 108 101 90 76
2490.0 80 83 78 76 73 72 71 81 71 76
2530.0 92 99 101 95 84 72 67 56 55 54
2570.0 61 53 54 43 53 64 63 59 56 52
2610.0 45 56 43 43 31 31 25 25 10 14
2650.0 1 3 19 15 29 29 34 41 46 34
2690.0 35 37 37 33 41 39 48 46 40 41
2730.0 51 53 75 88 106 113 122 92 82 75
2770.0 76 69 70 70 64 58 56 60 59 58
2810.0 69 76 77 79 86 86 91 96 109 133
2850.0 161 200 256 346 461 578 683 736 721 674
2890.0 598 550 528 528 531 551 595 683 833 1024
2930.0 1255 1414 1450 1357 1131 867 677 555 482 433
2970.0 378 343 322 333 364 403 433 469 505 551
3010.0 600 644 652 651 641 682 798 950 1029 996
3050.0 919 722 598 559 500 442 422 391 347 322
3090.0 282 239 190 160 129 105 99 106 90 88
3130.0 79 70 53 67 47 49 42 56 48 54
3170.0 60 60 62 49 49 42 39 47 50 36
3210.0 53 58 53 42 36 48 46 49 37 48
3250.0 44 30 49 69 68 69 96 70 75 74
3290.0 65 62 56 62 62 58 54 46 56 57
3330.0 39 46 33 49 44 40 59 49 58 78
3370.0 73 72 66 76 76 59 56 34 57 49
3410.0 52 20 33 27 32 50 28 43 59 38
3450.0 64 38 57 35 53 23 51 39 20 23
3490.0 34 34 30 21 33 51 63 69 76 51
3530.0 122 127 169 232 374 767 1940 3855 4879 5269
3570.0 4453 2806 1520 786 392 210 137 47 73 39
3610.0 16 15 7 52 37 54 70 142 238 312
3650.0 356 340 383 341 268 163 49 61 64 72
3690.0 44 52 65 81 99 77 50 95 61 52
3730.0 75 62 58 83 121 62 130 109 115 115
3770.0 90 112 108 115 118 130 107 100 95 112
3810.0 115 139 92 134 126 160 133 109 69 105
3850.0 67 8 22 51 25 63 62 107 86 110
3890.0 96 128 99 91 84 161 143 115 103 116
3930.0 135 100 128 125 123 123 150 138 143 151
##END=
