##TITLE=Cyclohexanone, 2-(2-ethylhexylidene)-,
##JCAMP-DX=4.24
##DATA TYPE=INFRARED SPECTRUM
##ORIGIN=Sadtler Research Labs Under US-EPA Contract
##OWNER=NIST Standard Reference Data Program
##CAS REGISTRY NO=6628-38-2
##MOLFORM=C 14 H 24 O
##XUNITS=1/CM
##YUNITS=ABSORBANCE
##XFACTOR=1.0
##YFACTOR=0.000069043
##DELTAX=4.0
##FIRSTX=450.0
##LASTX=3966.0
##FIRSTY=0.012221
##MAXX=3966
##MINX=450
##MAXY=0.69043
##MINY=0
##NPOINTS=880
##XYDATA=(X++(Y..Y))
450.0 177 216 225 276 366 255 123 203 210 259
490.0 343 102 35 86 181 199 255 133 92 259
530.0 227 320 233 151 83 244 281 130 161 0
570.0 72 274 118 106 98 41 109 230 176 61
610.0 118 30 192 285 133 94 122 153 169 291
650.0 98 100 132 115 198 351 95 99 104 119
690.0 191 204 96 124 223 178 254 248 188 233
730.0 276 249 229 222 94 199 247 216 258 175
770.0 171 264 337 320 245 215 169 292 301 236
810.0 330 330 392 404 322 243 245 235 232 327
850.0 270 227 305 342 404 454 374 323 354 397
890.0 385 444 332 281 308 305 318 346 335 324
930.0 370 347 325 337 251 283 384 328 361 378
970.0 304 286 300 255 237 196 143 194 221 184
1010.0 175 203 220 255 337 260 260 286 268 348
1050.0 420 405 496 564 614 650 594 446 374 422
1090.0 430 527 553 574 632 765 883 1104 1251 1273
1130.0 1375 1481 1333 1099 833 586 501 463 413 354
1170.0 313 275 315 332 285 306 296 354 446 457
1210.0 464 507 544 619 768 833 810 834 748 691
1250.0 694 660 653 646 725 764 770 723 615 596
1290.0 591 582 606 654 684 789 816 730 655 538
1330.0 509 593 602 641 605 525 488 519 532 499
1370.0 529 501 605 696 682 574 412 297 270 310
1410.0 291 328 395 432 519 561 570 654 768 940
1450.0 1108 1294 1299 1347 1357 1194 950 655 395 294
1490.0 247 229 193 188 115 106 161 161 155 133
1530.0 98 109 101 97 135 108 73 68 124 118
1570.0 130 126 98 166 181 179 200 213 209 331
1610.0 407 446 650 884 1132 1246 1078 757 529 367
1650.0 289 293 279 259 282 301 340 417 493 550
1690.0 730 1001 1454 1993 2390 2471 2435 2526 2865 3143
1730.0 2921 2276 1602 1061 733 553 443 399 395 368
1770.0 350 342 284 239 232 190 151 144 110 107
1810.0 143 110 95 80 57 75 97 85 63 85
1850.0 56 76 105 76 71 55 55 65 78 59
1890.0 40 79 74 74 61 41 46 53 39 73
1930.0 77 36 56 71 62 59 55 44 58 73
1970.0 44 38 50 30 62 93 29 25 57 35
2010.0 71 51 43 49 49 44 58 45 24 48
2050.0 48 40 52 46 52 42 61 40 69 61
2090.0 36 59 51 50 56 67 30 50 54 45
2130.0 81 52 32 49 63 46 65 37 33 65
2170.0 71 39 59 44 29 65 63 51 43 32
2210.0 32 70 49 27 42 28 33 69 41 28
2250.0 34 33 35 62 42 17 44 29 44 68
2290.0 43 25 33 32 42 48 23 2 35 15
2330.0 33 50 4 3 53 47 43 57 3 39
2370.0 133 79 109 89 55 54 77 58 56 57
2410.0 35 59 79 48 51 48 37 50 69 55
2450.0 31 45 32 54 58 30 33 37 38 69
2490.0 65 41 39 62 54 76 77 40 65 77
2530.0 86 79 77 44 68 93 73 95 80 65
2570.0 87 107 95 92 96 61 102 112 96 102
2610.0 83 80 108 110 89 90 95 87 133 130
2650.0 102 129 120 143 166 164 140 135 147 123
2690.0 163 133 101 130 129 130 147 134 113 150
2730.0 151 165 194 169 160 186 188 184 183 159
2770.0 156 209 224 217 247 210 244 297 305 313
2810.0 323 331 351 431 445 479 550 633 825 1063
2850.0 1300 1652 2172 2855 3596 4100 4089 3892 3643 3381
2890.0 3082 2752 2556 2569 2809 3124 3583 4183 4952 6111
2930.0 7507 8844 9813 10000 9181 7981 6607 5717 5750 6549
2970.0 7027 6368 4733 3003 1904 1334 1006 854 774 651
3010.0 579 523 440 453 454 371 344 311 275 308
3050.0 284 231 201 206 184 227 201 141 159 144
3090.0 157 189 163 103 126 148 126 155 121 89
3130.0 128 128 146 136 112 73 126 135 114 142
3170.0 92 86 131 140 110 138 94 80 123 140
3210.0 98 109 61 69 128 117 83 75 63 61
3250.0 127 75 56 77 56 68 98 60 40 70
3290.0 61 72 121 58 28 78 70 113 115 59
3330.0 53 73 86 82 108 42 68 98 90 117
3370.0 115 51 72 132 116 114 130 73 86 155
3410.0 121 108 102 76 112 158 128 84 91 59
3450.0 94 106 87 76 75 35 79 105 36 31
3490.0 74 32 100 95 21 37 48 62 82 90
3530.0 29 54 83 54 104 46 38 72 123 100
3570.0 121 123 93 106 133 89 105 57 66 117
3610.0 139 92 93 91 82 128 121 116 109 83
3650.0 87 131 121 88 89 74 58 117 82 69
3690.0 70 66 79 89 69 40 57 69 62 95
3730.0 66 48 77 80 87 106 96 64 108 100
3770.0 102 137 88 96 126 129 117 142 127 105
3810.0 165 160 138 145 91 107 147 153 129 131
3850.0 133 132 204 183 149 140 98 123 158 156
3890.0 115 106 92 104 141 98 77 87 79 101
3930.0 121 96 67 104 105 131 8 17 17 17
##END=
