##TITLE=Cyclohexanol, 2-chloro-, trans-
##JCAMP-DX=4.24
##DATA TYPE=INFRARED SPECTRUM
##ORIGIN=Sadtler Research Labs Under US-EPA Contract
##OWNER=NIST Standard Reference Data Program
##CAS REGISTRY NO=6628-80-4
##MOLFORM=C 6 H 11 Cl O
##XUNITS=1/CM
##YUNITS=ABSORBANCE
##XFACTOR=1.0
##YFACTOR=0.000075284
##DELTAX=4.0
##FIRSTX=450.0
##LASTX=3966.0
##FIRSTY=0.013325
##MAXX=3966
##MINX=450
##MAXY=0.75284
##MINY=0
##NPOINTS=880
##XYDATA=(X++(Y..Y))
450.0 177 163 214 294 355 400 379 330 248 118
490.0 45 23 8 76 48 51 59 124 104 128
530.0 144 159 198 223 307 402 354 367 375 280
570.0 281 154 147 130 125 134 81 112 101 100
610.0 138 143 160 150 121 96 85 74 98 96
650.0 132 131 162 149 137 153 116 110 100 140
690.0 190 241 326 379 406 439 450 540 717 956
730.0 1274 1537 1752 1705 1559 1128 756 399 210 159
770.0 151 168 204 274 383 553 659 733 661 642
810.0 412 216 165 116 142 191 303 378 389 414
850.0 416 368 353 385 397 376 364 312 227 240
890.0 270 288 304 299 291 264 233 216 182 192
930.0 243 320 411 559 777 1185 1592 1715 1860 1645
970.0 1450 953 695 566 472 408 358 349 397 457
1010.0 513 539 626 729 905 1108 1259 1266 1301 1123
1050.0 899 793 794 942 1239 1687 2266 2859 3295 3298
1090.0 2925 2455 1826 1216 827 685 742 873 954 909
1130.0 841 776 600 461 388 368 353 325 297 262
1170.0 235 241 243 262 289 340 408 522 705 947
1210.0 1257 1512 1822 2081 2297 2132 1849 1681 1326 1015
1250.0 919 990 1144 1329 1483 1594 1500 1337 1222 961
1290.0 694 507 442 389 341 327 382 435 469 509
1330.0 595 566 520 512 521 583 738 988 1260 1417
1370.0 1539 1606 1336 944 670 514 378 279 206 167
1410.0 143 138 137 146 178 260 323 506 748 999
1450.0 1242 1439 1599 1269 1077 820 540 333 202 110
1490.0 87 69 71 62 71 45 32 38 17 21
1530.0 19 34 23 16 6 36 30 33 9 20
1570.0 38 19 27 14 27 34 31 24 31 25
1610.0 30 27 22 28 9 33 14 36 24 41
1650.0 17 32 17 18 13 28 2 39 17 17
1690.0 23 24 20 30 36 41 37 49 52 69
1730.0 68 66 92 106 137 197 270 354 418 431
1770.0 374 297 237 179 153 126 135 130 116 112
1810.0 88 70 60 27 37 23 11 22 5 11
1850.0 14 16 4 5 6 10 10 16 11 10
1890.0 15 11 11 7 13 10 10 16 11 17
1930.0 14 19 17 9 17 11 20 11 15 16
1970.0 11 13 7 14 17 9 21 16 16 22
2010.0 14 20 22 19 22 13 21 14 11 13
2050.0 9 15 6 8 10 0 6 0 6 7
2090.0 5 15 14 19 18 21 25 19 22 20
2130.0 21 26 20 20 21 26 38 32 42 31
2170.0 37 26 27 27 19 19 26 20 26 21
2210.0 17 20 21 21 21 21 26 26 27 20
2250.0 25 27 17 21 15 16 14 14 14 14
2290.0 22 15 22 22 23 30 34 26 40 34
2330.0 33 37 32 38 33 31 20 29 37 25
2370.0 46 40 44 40 33 41 32 33 25 19
2410.0 20 14 18 11 9 9 4 8 10 14
2450.0 19 13 20 19 20 20 15 19 8 17
2490.0 21 20 23 22 22 21 21 28 23 21
2530.0 24 21 23 26 24 29 29 37 29 30
2570.0 23 18 24 16 22 27 26 31 30 33
2610.0 37 32 38 32 38 40 38 46 48 59
2650.0 71 73 87 86 88 80 81 87 81 80
2690.0 67 66 62 57 51 47 49 61 55 63
2730.0 41 42 36 36 43 40 44 47 38 43
2770.0 28 30 43 50 71 86 106 106 108 115
2810.0 114 126 131 138 146 145 166 173 203 270
2850.0 401 669 1130 1826 2622 3401 3863 3688 3173 2435
2890.0 1754 1248 924 785 770 827 982 1215 1580 2119
2930.0 2784 3729 5329 7086 8519 9926 10000 9286 7985 5204
2970.0 3290 2002 1128 618 344 208 155 112 84 64
3010.0 49 44 37 39 33 33 39 42 52 56
3050.0 66 78 72 79 81 71 59 52 51 31
3090.0 29 31 28 32 32 46 47 48 62 60
3130.0 72 68 64 61 56 64 52 50 48 34
3170.0 34 16 19 24 23 23 23 25 27 19
3210.0 30 22 31 31 31 37 37 34 41 44
3250.0 53 54 73 71 59 60 46 45 40 43
3290.0 36 23 39 30 24 45 41 42 32 27
3330.0 27 11 27 13 19 29 16 26 24 21
3370.0 28 15 29 23 23 38 27 46 49 50
3410.0 50 39 25 18 25 17 9 29 10 20
3450.0 16 8 13 15 19 32 23 28 21 36
3490.0 38 43 40 42 54 46 39 28 21 38
3530.0 27 18 17 19 30 18 32 29 39 43
3570.0 46 50 55 63 55 67 84 124 214 481
3610.0 927 1206 1479 1459 1433 1066 706 495 375 313
3650.0 278 254 213 181 164 115 81 61 51 51
3690.0 22 42 33 40 43 16 44 39 36 31
3730.0 31 25 18 33 39 18 36 31 37 41
3770.0 29 33 24 33 38 29 42 51 47 76
3810.0 70 77 68 81 81 76 57 46 42 59
3850.0 39 19 27 33 26 19 22 28 19 30
3890.0 34 48 44 49 54 81 72 66 54 53
3930.0 60 49 55 66 59 57 59 63 59 56
##END=
