##TITLE=2,4-Nonanediol, 5-ethyl-3-methyl-
##JCAMP-DX=4.24
##DATA TYPE=INFRARED SPECTRUM
##ORIGIN=Sadtler Research Labs Under US-EPA Contract
##OWNER=NIST Standard Reference Data Program
##CAS REGISTRY NO=6628-31-5
##MOLFORM=C 12 H 26 O 2
##XUNITS=1/CM
##YUNITS=ABSORBANCE
##XFACTOR=1.0
##YFACTOR=0.000108325
##DELTAX=4.0
##FIRSTX=450.0
##LASTX=3966.0
##FIRSTY=0.000000
##MAXX=3966
##MINX=450
##MAXY=1.08325
##MINY=0
##NPOINTS=880
##XYDATA=(X++(Y..Y))
450.0 0 115 209 143 18 237 273 180 330 229
490.0 260 266 237 209 191 187 157 209 207 155
530.0 199 200 169 181 221 153 169 177 195 176
570.0 192 151 124 162 184 214 219 147 154 142
610.0 166 210 185 172 153 172 176 159 219 184
650.0 155 206 169 198 245 144 192 151 184 176
690.0 220 200 138 136 152 182 201 227 211 236
730.0 228 330 114 148 282 289 251 255 304 344
770.0 368 366 366 428 407 420 351 290 313 342
810.0 322 264 330 339 342 411 437 419 459 464
850.0 478 476 428 390 376 384 376 390 394 397
890.0 423 444 477 492 523 574 577 598 623 629
930.0 666 667 657 667 676 712 753 801 875 922
970.0 918 948 984 1044 1152 1201 1279 1320 1363 1443
1010.0 1518 1563 1610 1580 1552 1492 1398 1352 1298 1273
1050.0 1253 1304 1339 1357 1420 1439 1441 1455 1458 1478
1090.0 1500 1507 1541 1571 1599 1573 1551 1536 1521 1475
1130.0 1445 1424 1354 1299 1259 1150 1076 980 876 820
1170.0 754 761 733 764 794 830 834 859 883 882
1210.0 866 901 914 951 972 980 1006 1005 1042 1056
1250.0 1040 1095 1103 1106 1109 1094 1093 1083 1089 1065
1290.0 1035 1032 1015 987 960 927 912 879 873 863
1330.0 822 839 829 858 888 912 946 985 1048 1120
1370.0 1212 1367 1609 1813 1966 1818 1647 1458 1358 1330
1410.0 1236 1237 1112 1020 922 818 790 789 832 921
1450.0 1068 1239 1541 1736 1844 1751 1477 1091 777 574
1490.0 414 407 330 296 296 236 234 205 219 214
1530.0 172 224 171 233 160 155 168 159 182 137
1570.0 144 180 136 150 121 117 131 119 147 120
1610.0 134 114 147 117 109 138 128 135 124 117
1650.0 134 156 91 116 104 130 96 127 83 142
1690.0 107 114 123 133 109 104 129 135 137 135
1730.0 132 139 126 135 107 120 101 104 101 104
1770.0 107 108 98 88 75 90 76 88 61 79
1810.0 68 69 77 66 83 61 72 65 67 66
1850.0 60 66 68 63 70 63 72 61 73 66
1890.0 71 67 72 64 65 62 73 66 63 63
1930.0 64 65 62 62 63 63 63 57 66 53
1970.0 59 60 58 59 55 57 52 57 52 55
2010.0 56 51 53 53 59 57 56 56 59 58
2050.0 56 59 57 55 54 58 54 56 54 52
2090.0 48 54 53 49 50 53 53 49 50 50
2130.0 50 49 51 48 48 50 50 49 50 52
2170.0 51 49 50 49 49 47 47 47 45 46
2210.0 47 46 52 49 47 47 49 49 46 52
2250.0 49 47 50 53 49 47 43 45 44 48
2290.0 43 41 38 38 39 41 41 49 56 50
2330.0 47 59 47 70 38 66 49 75 38 45
2370.0 46 47 51 52 59 64 66 70 70 71
2410.0 71 70 70 68 69 63 63 61 62 64
2450.0 61 59 58 59 61 58 58 61 57 55
2490.0 56 56 59 57 59 63 65 67 66 67
2530.0 67 72 75 75 78 81 81 88 89 94
2570.0 96 100 107 112 112 119 122 124 129 132
2610.0 135 135 137 139 144 143 145 148 151 153
2650.0 157 158 167 165 172 175 187 191 194 196
2690.0 193 197 199 197 201 200 204 209 211 220
2730.0 232 244 264 281 288 282 274 274 268 271
2770.0 276 287 301 315 334 356 379 404 432 458
2810.0 483 517 553 600 658 724 813 922 1053 1226
2850.0 1460 1786 2253 2843 3496 4031 4401 4730 5098 5286
2890.0 5066 4557 4126 3952 4052 4368 4875 5541 6265 7099
2930.0 7941 8641 9086 8967 8339 7377 6552 6527 7483 9014
2970.0 10000 9369 7446 5363 3806 2739 2014 1521 1187 958
3010.0 805 687 608 540 487 443 405 377 345 322
3050.0 302 281 270 257 247 239 230 230 220 218
3090.0 207 202 192 189 185 172 164 157 148 150
3130.0 148 143 138 141 136 126 124 124 121 115
3170.0 120 115 111 107 104 102 89 96 83 80
3210.0 75 70 67 63 60 59 56 55 52 49
3250.0 51 49 48 44 38 46 43 38 45 43
3290.0 49 43 43 46 42 38 48 50 41 46
3330.0 50 46 50 48 39 46 47 51 48 51
3370.0 55 53 55 65 63 60 65 60 68 72
3410.0 68 65 70 79 69 77 72 71 75 69
3450.0 83 83 79 88 88 96 89 98 104 103
3490.0 106 111 112 125 103 129 132 143 153 152
3530.0 182 198 211 263 303 371 436 549 650 787
3570.0 941 1111 1290 1457 1482 1420 1213 1015 832 689
3610.0 599 525 504 439 465 444 478 456 519 595
3650.0 743 778 785 678 516 408 267 265 150 168
3690.0 124 119 103 103 88 95 86 92 55 71
3730.0 56 78 97 36 138 49 121 38 87 66
3770.0 41 81 58 76 70 43 66 40 82 62
3810.0 82 70 67 100 64 74 89 85 91 48
3850.0 113 64 86 55 87 106 56 97 68 111
3890.0 58 114 51 110 79 54 85 72 91 64
3930.0 92 71 62 90 72 66 77 65 73 63
##END=
