##TITLE=2-Allyl-4-methylphenol
##JCAMP-DX=4.24
##DATA TYPE=INFRARED SPECTRUM
##ORIGIN=Sadtler Research Labs Under US-EPA Contract
##OWNER=NIST Standard Reference Data Program
##CAS REGISTRY NO=6628-06-4
##MOLFORM=C 10 H 12 O
##XUNITS=1/CM
##YUNITS=ABSORBANCE
##XFACTOR=1.0
##YFACTOR=0.000062317
##DELTAX=4.0
##FIRSTX=450.0
##LASTX=3966.0
##FIRSTY=0.010407
##MAXX=3966
##MINX=450
##MAXY=0.62317
##MINY=0
##NPOINTS=880
##XYDATA=(X++(Y..Y))
450.0 167 128 155 166 147 197 219 299 428 476
490.0 383 409 289 211 186 117 115 121 174 167
530.0 272 358 484 617 751 895 938 1008 853 677
570.0 526 386 257 173 64 145 94 132 132 72
610.0 75 103 86 84 56 87 112 123 159 231
650.0 364 408 397 319 211 116 91 44 22 21
690.0 28 32 21 28 74 112 155 149 165 186
730.0 229 292 447 571 701 699 679 636 637 721
770.0 861 932 956 959 1102 1348 1714 2316 2773 2523
810.0 2544 2532 2443 1642 1096 705 431 263 266 339
850.0 457 601 660 576 598 651 667 611 555 586
890.0 712 962 1349 1914 2739 3528 4031 4108 3543 2818
930.0 2206 1568 1133 909 744 621 537 472 455 490
970.0 545 618 768 1043 1423 1870 2206 2237 1945 1465
1010.0 942 594 422 353 329 310 347 376 426 460
1050.0 494 511 528 546 604 687 812 973 1148 1341
1090.0 1492 1604 1693 1775 1841 1844 1802 1676 1484 1325
1130.0 1242 1236 1328 1469 1601 1706 1701 1816 2232 3102
1170.0 4471 6231 7714 8568 8470 7471 6211 5050 4044 3369
1210.0 2912 2600 2481 2589 2876 3330 3919 4380 4642 4874
1250.0 5111 5510 6093 6389 6050 4917 3527 2330 1687 1440
1290.0 1353 1285 1252 1286 1496 1900 2355 2657 2665 2441
1330.0 1929 1402 1033 707 511 411 361 346 354 325
1370.0 345 353 385 442 504 530 584 594 657 789
1410.0 1057 1259 1494 1562 1772 1943 2185 2202 2150 1850
1450.0 1447 1239 981 1045 1179 1596 2120 2759 3246 3732
1490.0 4274 5444 7462 9347 10000 9188 7346 4624 2646 1477
1530.0 948 585 527 250 296 329 320 307 110 238
1570.0 243 316 266 433 539 639 710 754 755 753
1610.0 763 826 819 891 1092 1385 1878 2097 2119 1715
1650.0 1086 476 326 243 224 174 200 132 192 47
1690.0 84 110 78 1 39 85 143 87 126 153
1730.0 186 198 170 165 193 175 172 161 134 115
1770.0 110 42 70 69 80 111 57 118 133 154
1810.0 175 191 233 279 290 321 361 355 395 342
1850.0 347 303 269 221 202 159 184 182 174 161
1890.0 119 82 63 53 48 36 55 40 45 30
1930.0 39 34 44 40 41 33 48 60 53 70
1970.0 59 87 87 86 92 108 95 78 76 72
2010.0 68 72 71 66 63 72 80 91 102 86
2050.0 87 84 75 76 74 85 86 70 80 72
2090.0 74 59 44 43 33 34 26 31 33 26
2130.0 19 34 24 26 23 24 23 19 13 12
2170.0 12 17 24 24 40 32 31 23 22 32
2210.0 34 26 27 21 32 29 38 32 32 40
2250.0 42 37 44 51 51 67 62 71 82 81
2290.0 96 99 91 104 113 127 107 98 115 115
2330.0 88 63 77 97 90 125 145 130 104 79
2370.0 63 68 69 82 102 93 95 93 85 102
2410.0 109 110 108 105 106 112 111 111 103 110
2450.0 103 103 104 112 104 111 114 128 131 134
2490.0 134 142 145 144 151 151 143 128 128 122
2530.0 113 106 97 94 75 83 83 83 90 90
2570.0 82 83 82 89 80 76 76 62 59 47
2610.0 46 52 68 61 69 67 72 70 67 69
2650.0 56 56 63 76 75 76 92 92 100 93
2690.0 97 101 102 101 109 115 118 122 132 146
2730.0 171 188 237 276 289 259 229 174 151 141
2770.0 125 126 132 117 125 132 142 157 171 195
2810.0 217 252 280 319 379 470 582 735 890 1042
2850.0 1126 1210 1289 1427 1635 1916 2175 2296 2280 2154
2890.0 2022 1981 2048 2219 2466 2770 3124 3491 3954 4406
2930.0 4677 4581 4182 3485 2784 2227 1827 1587 1418 1305
2970.0 1264 1394 1657 2008 2305 2419 2331 2269 2437 2917
3010.0 3658 4278 4443 4164 3617 3060 2691 2481 2351 2218
3050.0 2088 1958 1877 1856 1799 1719 1639 1716 1963 2368
3090.0 2595 2205 1652 1053 632 473 362 332 298 278
3130.0 250 226 197 169 132 115 92 90 81 73
3170.0 73 63 58 50 62 63 44 48 48 58
3210.0 48 49 56 40 72 55 57 50 69 64
3250.0 61 66 57 45 38 53 45 44 56 57
3290.0 27 24 30 49 33 48 57 51 44 60
3330.0 74 56 57 55 82 61 71 88 97 96
3370.0 85 88 96 89 86 111 91 62 97 91
3410.0 87 71 87 77 97 103 86 102 124 91
3450.0 70 116 120 89 135 119 117 144 108 123
3490.0 129 131 115 143 141 133 136 155 195 224
3530.0 282 365 431 493 534 587 670 702 763 835
3570.0 987 1213 1629 2139 2659 3016 3275 3357 3354 3188
3610.0 2798 2383 1919 1465 1166 954 913 1090 1485 2177
3650.0 2822 3260 3144 2848 1914 1126 586 301 168 135
3690.0 58 45 44 38 44 52 24 33 27 26
3730.0 51 15 0 17 4 1 17 26 56 69
3770.0 60 68 85 77 85 93 116 86 75 52
3810.0 73 86 99 78 37 70 74 68 56 87
3850.0 80 42 44 40 43 38 17 23 7 12
3890.0 1 1 1 2 6 38 36 26 53 55
3930.0 65 55 31 47 60 73 66 68 80 81
##END=
