##TITLE=Benzene, 1-(1,1-dimethylethyl)-3-ethyl-5-methyl-
##JCAMP-DX=4.24
##DATA TYPE=INFRARED SPECTRUM
##ORIGIN=Sadtler Research Labs Under US-EPA Contract
##OWNER=NIST Standard Reference Data Program
##CAS REGISTRY NO=6630-01-9
##MOLFORM=C 13 H 20
##XUNITS=1/CM
##YUNITS=ABSORBANCE
##XFACTOR=1.0
##YFACTOR=0.000140170
##DELTAX=4.0
##FIRSTX=450.0
##LASTX=3966.0
##FIRSTY=0.047798
##MAXX=3966
##MINX=450
##MAXY=1.4017
##MINY=0
##NPOINTS=880
##XYDATA=(X++(Y..Y))
450.0 341 149 34 96 0 77 20 52 36 63
490.0 66 48 62 47 82 63 93 89 133 139
530.0 118 94 84 82 64 74 53 62 48 59
570.0 50 49 51 46 46 49 49 52 51 45
610.0 53 48 49 52 43 43 41 50 44 52
650.0 55 59 52 61 58 73 68 69 72 67
690.0 121 203 433 654 1103 1131 771 482 232 99
730.0 80 58 67 63 64 61 61 59 59 56
770.0 48 60 54 42 59 60 70 60 55 50
810.0 57 69 47 57 80 69 86 105 211 475
850.0 743 1179 1401 933 629 360 274 368 524 593
890.0 533 396 233 159 151 184 258 346 389 374
930.0 289 197 147 106 87 79 75 71 66 64
970.0 70 71 86 94 84 86 78 85 95 107
1010.0 111 101 96 88 92 98 109 114 126 132
1050.0 141 153 179 211 215 200 154 113 84 81
1090.0 72 69 66 64 64 59 59 59 61 57
1130.0 59 58 63 65 66 63 61 70 83 94
1170.0 102 103 107 113 133 165 218 293 375 420
1210.0 423 439 595 841 997 928 693 423 258 193
1250.0 159 142 133 136 140 154 180 236 338 492
1290.0 644 687 598 433 290 222 197 186 196 212
1330.0 230 226 221 213 224 285 390 553 765 1014
1370.0 1073 991 828 661 532 516 564 588 533 400
1410.0 289 296 329 385 456 552 638 702 761 827
1450.0 929 1058 1221 1292 1292 1224 1203 1286 1329 1259
1490.0 1027 718 534 444 392 347 311 298 294 286
1530.0 283 278 268 250 222 199 189 188 197 209
1570.0 245 293 377 499 673 952 1393 2076 2716 2838
1610.0 2137 1293 691 386 243 167 130 100 82 72
1650.0 75 70 64 58 52 52 57 52 57 56
1690.0 51 53 65 66 67 66 64 68 66 77
1730.0 102 152 188 192 171 138 120 128 145 156
1770.0 162 141 112 80 57 44 38 34 36 33
1810.0 32 31 27 27 26 29 25 26 27 29
1850.0 30 28 29 28 28 29 24 25 27 28
1890.0 29 32 31 30 33 36 35 34 32 30
1930.0 34 34 36 34 30 30 28 24 19 21
1970.0 20 17 16 17 18 19 14 14 15 13
2010.0 11 11 15 17 14 17 15 12 11 10
2050.0 11 10 9 8 8 8 9 12 10 14
2090.0 13 12 10 8 10 8 10 11 9 10
2130.0 10 14 17 17 21 26 23 24 22 22
2170.0 20 19 18 21 15 13 13 11 12 12
2210.0 8 10 12 13 12 12 12 15 14 15
2250.0 14 14 13 15 11 11 16 18 18 20
2290.0 27 36 45 46 47 49 46 43 44 39
2330.0 37 36 35 32 21 43 75 64 53 31
2370.0 19 16 15 26 31 33 31 29 27 27
2410.0 22 22 21 22 23 20 24 28 24 25
2450.0 20 15 18 16 15 16 18 15 17 19
2490.0 15 16 19 19 20 14 15 17 18 16
2530.0 19 21 20 18 22 23 26 27 22 25
2570.0 24 24 27 25 21 24 29 30 28 33
2610.0 33 29 23 23 29 28 30 31 33 37
2650.0 42 43 47 49 49 50 47 45 47 43
2690.0 41 39 43 45 50 57 63 71 80 90
2730.0 104 122 136 139 136 124 104 96 90 87
2770.0 86 89 93 102 112 118 119 120 124 140
2810.0 156 171 192 208 231 264 307 350 391 451
2850.0 538 686 919 1271 1714 2166 2509 2684 2725 2689
2890.0 2580 2456 2397 2459 2647 2877 3058 3157 3244 3394
2930.0 3587 3798 3972 4011 4001 4184 4867 5972 7306 8813
2970.0 10000 9520 7691 4986 3002 2022 1546 1299 1171 1113
3010.0 1109 1130 1152 1171 1198 1197 1160 1064 984 922
3050.0 883 842 784 730 660 573 481 387 304 246
3090.0 195 169 147 135 121 113 108 103 94 96
3130.0 92 95 94 90 90 79 83 80 79 78
3170.0 88 93 100 100 95 89 82 86 90 94
3210.0 87 84 79 78 74 70 73 68 66 62
3250.0 65 63 58 60 58 52 56 62 45 41
3290.0 39 45 41 43 29 29 25 24 30 34
3330.0 29 26 26 25 24 17 28 26 31 31
3370.0 36 35 31 40 32 23 19 16 18 13
3410.0 22 25 25 20 24 21 24 11 10 18
3450.0 20 24 21 19 19 12 21 19 23 22
3490.0 32 21 21 23 23 25 22 32 21 16
3530.0 22 21 29 21 16 20 29 22 26 27
3570.0 14 24 28 19 29 27 15 13 11 19
3610.0 26 38 31 36 19 17 10 24 25 25
3650.0 16 10 19 27 15 18 32 21 33 20
3690.0 18 18 11 8 20 22 34 17 17 28
3730.0 8 21 12 19 19 12 12 14 22 36
3770.0 18 11 7 8 8 29 25 23 34 25
3810.0 32 18 15 41 25 25 20 8 9 19
3850.0 25 10 12 12 42 32 19 6 22 25
3890.0 50 45 47 56 47 24 39 27 46 65
3930.0 46 20 41 48 51 39 24 76 60 31
##END=
