##TITLE=Benzaldehyde, 2-bromo-
##JCAMP-DX=4.24
##DATA TYPE=INFRARED SPECTRUM
##ORIGIN=Sadtler Research Labs Under US-EPA Contract
##OWNER=NIST Standard Reference Data Program
##CAS REGISTRY NO=6630-33-7
##MOLFORM=C 7 H 5 Br O
##XUNITS=1/CM
##YUNITS=ABSORBANCE
##XFACTOR=1.0
##YFACTOR=0.000157501
##DELTAX=4.0
##FIRSTX=450.0
##LASTX=3966.0
##FIRSTY=0.045045
##MAXX=3966
##MINX=450
##MAXY=1.57501
##MINY=0
##NPOINTS=880
##XYDATA=(X++(Y..Y))
450.0 286 193 164 203 178 214 213 184 172 228
490.0 177 104 166 97 150 117 132 125 136 120
530.0 119 134 140 155 146 157 157 153 159 180
570.0 185 195 178 165 167 148 155 148 157 156
610.0 167 190 215 291 457 604 599 660 501 291
650.0 179 157 140 134 141 170 217 297 489 669
690.0 717 692 596 313 172 114 94 103 134 175
730.0 253 530 975 1721 2286 3415 3918 2513 1724 1151
770.0 505 239 124 138 107 120 115 148 207 358
810.0 674 1125 1434 1542 1527 1121 710 432 296 236
850.0 197 177 153 147 112 98 63 52 28 21
890.0 20 8 5 0 11 3 10 8 9 7
930.0 8 8 9 29 36 62 76 86 84 91
970.0 77 74 66 68 97 120 164 220 267 301
1010.0 385 485 686 1055 1424 1490 1560 1580 1376 1273
1050.0 1152 836 378 170 120 94 94 98 111 124
1090.0 135 148 167 222 299 340 336 325 236 167
1130.0 137 118 111 92 107 149 248 281 308 344
1170.0 338 383 531 802 1236 1824 2152 2038 2017 1335
1210.0 633 340 226 227 231 233 207 177 186 202
1250.0 343 688 1429 1889 1871 1958 1358 702 483 394
1290.0 350 289 208 134 85 62 47 54 40 37
1330.0 34 37 69 76 73 81 86 91 106 107
1370.0 123 223 387 711 1053 1136 1079 870 437 226
1410.0 171 164 279 338 447 583 862 1162 1334 1309
1450.0 1242 973 737 669 658 669 625 498 304 206
1490.0 164 98 113 87 141 154 91 110 136 98
1530.0 94 89 124 170 142 113 166 305 458 576
1570.0 807 973 1203 1367 1786 1995 1833 1646 986 495
1610.0 292 271 285 263 264 226 250 290 252 270
1650.0 262 279 188 165 220 267 358 363 451 529
1690.0 566 808 1407 2750 5362 8755 10000 9960 8915 4560
1730.0 2360 1518 1067 864 554 395 298 306 310 312
1770.0 336 326 263 221 199 189 218 213 213 196
1810.0 201 202 157 136 102 85 54 53 85 107
1850.0 99 79 78 57 63 64 42 27 26 29
1890.0 36 45 38 41 42 47 41 53 75 77
1930.0 96 100 97 91 80 58 65 71 82 87
1970.0 77 70 49 40 29 39 33 32 37 45
2010.0 54 55 62 50 39 28 19 10 10 10
2050.0 6 9 6 10 8 5 0 1 2 5
2090.0 11 5 8 5 3 3 6 3 3 6
2130.0 3 4 6 8 3 7 5 4 1 6
2170.0 8 8 12 9 10 6 6 2 5 5
2210.0 3 8 3 7 6 12 15 17 15 13
2250.0 11 7 11 10 21 16 19 22 20 17
2290.0 12 11 5 11 3 0 7 9 8 3
2330.0 8 4 3 0 20 0 0 0 1 26
2370.0 46 59 59 51 38 33 28 27 23 17
2410.0 18 19 24 22 22 17 15 13 13 19
2450.0 19 23 25 27 26 30 29 27 29 23
2490.0 24 20 20 18 19 21 17 20 18 24
2530.0 22 26 27 31 32 35 35 35 34 30
2570.0 30 28 30 30 33 32 38 44 45 51
2610.0 51 54 56 59 57 57 56 53 56 55
2650.0 56 56 60 60 59 52 51 45 38 45
2690.0 45 55 59 70 86 111 152 208 248 258
2730.0 274 270 289 352 411 422 387 311 210 154
2770.0 124 114 106 104 96 89 88 91 105 122
2810.0 141 156 181 204 227 248 280 332 411 508
2850.0 635 796 996 1249 1392 1310 1102 762 397 206
2890.0 147 116 103 94 92 91 85 83 78 85
2930.0 76 83 82 83 86 85 87 91 95 92
2970.0 94 93 89 88 90 95 100 106 100 96
3010.0 94 99 102 107 105 96 90 77 80 79
3050.0 90 121 191 297 422 586 825 937 875 775
3090.0 519 276 186 139 104 83 68 59 60 71
3130.0 81 94 107 108 96 85 67 59 50 40
3170.0 38 34 32 37 30 32 35 29 26 28
3210.0 36 35 29 31 29 28 26 22 17 25
3250.0 26 26 19 25 22 25 26 23 22 29
3290.0 27 28 23 23 19 16 15 18 23 20
3330.0 22 19 16 21 29 27 33 36 48 39
3370.0 46 44 42 35 37 52 57 86 114 165
3410.0 201 212 184 125 70 39 29 21 23 20
3450.0 19 23 15 12 5 9 1 8 9 16
3490.0 13 12 21 11 13 13 18 8 7 3
3530.0 21 18 26 23 16 36 41 47 74 68
3570.0 76 62 67 66 52 58 29 19 21 5
3610.0 29 26 13 22 9 24 18 16 8 19
3650.0 23 19 28 24 15 15 20 28 18 19
3690.0 41 21 21 25 19 20 35 41 24 19
3730.0 37 23 28 7 34 23 47 24 4 19
3770.0 9 31 2 41 24 21 12 7 1 24
3810.0 17 7 11 24 24 9 20 21 20 24
3850.0 18 29 31 5 13 25 18 45 23 40
3890.0 17 42 2 35 28 27 4 11 12 38
3930.0 7 15 29 6 7 12 20 2 36 18
##END=
