##TITLE=2,4,5-Trichlorotoluene
##JCAMP-DX=4.24
##DATA TYPE=INFRARED SPECTRUM
##ORIGIN=Sadtler Research Labs Under US-EPA Contract
##OWNER=NIST Standard Reference Data Program
##CAS REGISTRY NO=6639-30-1
##MOLFORM=C 7 H 5 Cl 3
##XUNITS=1/CM
##YUNITS=ABSORBANCE
##XFACTOR=1.0
##YFACTOR=0.000071973
##DELTAX=4.0
##FIRSTX=450.0
##LASTX=3966.0
##FIRSTY=0.016626
##MAXX=3966
##MINX=450
##MAXY=0.71973
##MINY=0
##NPOINTS=880
##XYDATA=(X++(Y..Y))
450.0 231 276 260 192 215 261 222 205 152 88
490.0 180 250 299 232 283 205 165 261 445 694
530.0 1225 1887 2034 1602 1069 353 136 71 153 194
570.0 66 54 150 32 63 147 154 158 227 220
610.0 246 131 32 152 144 23 89 59 203 93
650.0 99 191 323 599 1314 3172 3808 3612 2680 1010
690.0 175 136 152 379 654 1178 1599 1569 1190 600
730.0 191 159 222 70 135 155 214 289 247 258
770.0 168 186 171 168 193 204 138 116 109 129
810.0 122 193 319 443 425 362 241 161 147 133
850.0 148 172 274 510 1082 1820 2472 3825 2771 1836
890.0 1189 581 516 713 1114 1519 1568 1469 995 524
930.0 398 323 276 268 227 191 197 171 163 168
970.0 213 207 240 313 365 456 603 732 857 807
1010.0 680 496 310 267 288 341 422 515 547 525
1050.0 574 770 1207 2064 3754 6636 9576 10000 8813 5078
1090.0 2051 850 568 488 550 606 717 875 1151 1615
1130.0 2271 3068 3060 2582 1752 669 289 176 143 150
1170.0 166 167 172 177 213 281 346 438 598 807
1210.0 930 948 802 546 361 268 306 403 509 510
1250.0 447 295 175 145 117 124 146 183 214 225
1290.0 230 204 179 202 214 227 277 354 448 636
1330.0 920 1379 1932 2381 2509 2354 1759 1203 800 586
1370.0 518 503 552 634 718 685 682 556 445 405
1410.0 387 399 480 642 991 1580 2654 4073 5373 6142
1450.0 6236 5631 4909 4876 5759 7528 8577 7881 5444 2617
1490.0 1098 589 460 393 373 374 370 359 375 392
1530.0 407 379 338 281 290 298 301 288 287 306
1570.0 319 315 335 381 370 335 285 229 186 161
1610.0 149 131 124 125 115 113 127 112 112 99
1650.0 100 90 108 121 134 114 99 107 82 77
1690.0 84 77 77 70 97 133 177 214 283 365
1730.0 433 470 441 369 274 171 121 100 94 86
1770.0 78 77 90 95 81 86 85 79 84 98
1810.0 106 119 109 96 75 65 57 65 58 56
1850.0 63 55 63 62 62 61 64 68 77 62
1890.0 71 68 72 64 65 74 80 74 74 74
1930.0 69 63 64 57 43 43 43 52 42 51
1970.0 50 51 49 50 37 35 35 39 35 32
2010.0 26 29 19 21 26 26 29 20 18 19
2050.0 18 18 21 31 19 26 24 18 25 12
2090.0 19 30 22 28 35 33 36 30 37 36
2130.0 35 36 35 43 43 41 41 41 46 29
2170.0 31 41 32 46 40 39 46 32 34 39
2210.0 44 34 34 40 31 31 38 38 38 37
2250.0 38 37 42 45 40 39 41 46 40 57
2290.0 62 76 76 84 88 90 66 66 72 61
2330.0 69 69 46 45 67 75 67 68 73 78
2370.0 66 81 95 98 94 68 54 38 38 37
2410.0 30 30 44 36 37 32 35 35 35 35
2450.0 42 49 49 41 48 41 31 27 34 38
2490.0 29 27 26 25 33 39 26 19 25 24
2530.0 24 30 20 31 28 17 8 24 17 16
2570.0 24 17 25 31 30 39 33 44 55 43
2610.0 40 38 31 38 38 45 33 40 40 41
2650.0 31 39 32 33 31 33 27 33 40 46
2690.0 41 48 32 39 42 53 50 55 40 49
2730.0 49 49 48 57 68 85 96 101 97 72
2770.0 66 68 65 70 70 90 77 79 69 73
2810.0 77 78 87 85 89 90 92 97 112 119
2850.0 137 157 201 253 310 387 407 410 385 335
2890.0 292 277 271 255 249 249 261 297 356 508
2930.0 737 1029 1223 1229 1056 765 552 476 487 541
2970.0 602 614 581 592 628 655 639 584 506 393
3010.0 316 257 227 204 193 175 170 189 165 157
3050.0 177 172 199 226 259 253 243 206 159 118
3090.0 97 98 92 76 83 69 62 76 61 76
3130.0 70 60 52 60 38 37 35 29 42 29
3170.0 35 22 37 34 22 33 38 33 39 29
3210.0 30 37 36 30 29 26 14 25 36 21
3250.0 9 30 28 11 36 30 30 37 37 36
3290.0 30 38 10 15 31 25 21 26 39 38
3330.0 25 33 15 34 26 40 21 23 20 29
3370.0 33 32 13 39 13 29 30 24 30 27
3410.0 23 18 16 36 33 40 28 41 42 23
3450.0 24 31 29 11 29 33 37 27 48 35
3490.0 8 37 21 14 24 19 23 29 38 15
3530.0 36 36 37 36 30 16 14 30 16 24
3570.0 34 28 51 39 35 11 30 30 30 43
3610.0 36 34 27 22 20 23 31 28 48 25
3650.0 24 24 40 32 31 54 27 30 38 42
3690.0 39 26 30 33 39 39 32 29 37 39
3730.0 36 41 16 35 25 27 34 54 48 33
3770.0 33 43 44 57 55 56 60 54 56 43
3810.0 34 49 63 40 43 45 51 46 40 32
3850.0 40 42 57 36 50 50 43 42 35 38
3890.0 23 24 23 33 49 58 39 35 58 65
3930.0 66 85 77 68 60 57 0 4 4 4
##END=
