##TITLE=4,5-Dichloro-2-nitroaniline
##JCAMP-DX=4.24
##DATA TYPE=INFRARED SPECTRUM
##ORIGIN=Sadtler Research Labs Under US-EPA Contract
##OWNER=NIST Standard Reference Data Program
##CAS REGISTRY NO=6641-64-1
##MOLFORM=C 6 H 4 Cl 2 N 2 O 2
##XUNITS=1/CM
##YUNITS=ABSORBANCE
##XFACTOR=1.0
##YFACTOR=0.000086914
##DELTAX=4.0
##FIRSTX=450.0
##LASTX=3966.0
##FIRSTY=0.019990
##MAXX=3966
##MINX=450
##MAXY=0.86914
##MINY=0
##NPOINTS=880
##XYDATA=(X++(Y..Y))
450.0 230 181 132 83 19 26 86 125 306 318
490.0 294 231 169 128 152 169 384 496 677 607
530.0 593 397 143 84 144 192 297 336 205 268
570.0 195 269 279 429 463 376 348 217 321 284
610.0 407 403 550 485 375 292 235 385 362 463
650.0 540 510 627 547 778 1276 1804 2067 1789 1146
690.0 612 390 312 338 457 547 670 823 875 1060
730.0 1059 956 713 445 434 468 493 569 563 326
770.0 173 150 47 117 85 137 76 109 115 182
810.0 249 348 345 372 455 561 864 1218 1534 1617
850.0 1281 996 617 353 207 172 216 288 393 568
890.0 766 904 850 730 483 317 231 198 177 170
930.0 232 366 554 862 1327 2040 2766 2906 2409 1506
970.0 653 292 192 173 162 159 89 63 39 45
1010.0 48 55 91 41 50 38 55 86 140 219
1050.0 274 342 351 362 357 340 284 283 235 208
1090.0 163 114 118 125 138 134 185 214 234 260
1130.0 296 424 722 1276 1870 2194 2060 1525 917 581
1170.0 439 410 449 478 515 553 556 565 594 638
1210.0 711 827 1016 1231 1534 1920 2390 3155 4249 5725
1250.0 7007 7453 6875 5588 4397 3577 2801 2013 1430 1130
1290.0 982 898 953 1168 1554 1882 1943 1745 1627 1902
1330.0 2699 3964 5208 5756 5203 3728 2309 1539 1051 802
1370.0 643 526 518 505 498 559 722 955 1154 1160
1410.0 1014 784 600 510 512 549 679 867 1352 2015
1450.0 2804 3457 3773 4216 4421 4427 3927 3231 2618 2298
1490.0 2166 2334 2786 3904 5321 6846 7459 6992 5653 4434
1530.0 3601 3019 2660 2328 2533 2992 3708 4477 5172 5256
1570.0 4640 3572 2416 1891 1615 1555 1593 1764 2153 2859
1610.0 4199 6252 8524 10000 9365 7242 4579 2473 1615 1105
1650.0 884 570 622 524 476 396 393 377 363 227
1690.0 286 237 106 17 107 136 124 24 109 113
1730.0 113 28 103 113 111 66 76 63 43 84
1770.0 74 54 148 155 152 153 86 109 90 96
1810.0 89 89 77 70 40 27 60 60 71 25
1850.0 61 53 48 54 41 25 73 74 70 64
1890.0 38 41 40 45 58 57 79 50 50 42
1930.0 43 51 57 53 60 57 52 38 38 31
1970.0 49 54 59 65 45 32 25 27 40 40
2010.0 52 54 53 47 40 40 35 54 52 59
2050.0 55 45 40 33 43 56 55 56 55 50
2090.0 36 36 36 42 55 60 50 53 44 36
2130.0 36 47 60 58 67 57 54 40 30 34
2170.0 55 56 58 57 51 44 50 46 50 65
2210.0 61 64 51 39 33 31 37 48 55 54
2250.0 52 43 45 37 40 45 53 60 64 57
2290.0 63 63 69 94 98 91 96 91 64 50
2330.0 33 63 84 116 135 113 116 95 73 62
2370.0 96 96 85 79 63 38 36 47 58 70
2410.0 69 70 60 51 40 42 51 61 70 68
2450.0 62 45 40 33 38 45 50 56 50 54
2490.0 42 39 43 42 49 48 47 35 24 14
2530.0 19 23 37 45 54 44 34 34 39 45
2570.0 58 65 70 75 75 64 70 63 69 73
2610.0 90 80 80 62 62 64 66 83 97 93
2650.0 97 89 77 67 84 89 84 90 85 73
2690.0 73 69 78 93 104 115 119 100 74 67
2730.0 62 74 87 97 100 87 78 69 73 82
2770.0 93 111 101 96 89 72 73 81 100 118
2810.0 123 134 131 117 110 117 134 152 171 182
2850.0 170 159 143 138 142 162 178 167 168 149
2890.0 140 135 154 178 187 195 184 159 153 141
2930.0 139 144 171 185 204 197 174 144 148 149
2970.0 152 161 145 131 100 93 85 88 94 140
3010.0 146 141 146 148 142 122 135 139 148 161
3050.0 156 151 139 164 188 200 217 242 247 257
3090.0 262 279 293 313 344 333 280 213 133 106
3130.0 93 101 114 120 110 99 86 86 97 99
3170.0 123 129 127 133 109 101 104 111 122 123
3210.0 124 109 92 79 82 92 96 118 120 114
3250.0 91 60 73 80 94 113 108 120 99 111
3290.0 70 86 108 126 136 125 129 100 112 108
3330.0 115 138 159 169 169 163 163 163 193 238
3370.0 291 315 376 411 468 596 829 1286 1943 2662
3410.0 3133 3054 2443 1632 949 556 377 301 272 238
3450.0 213 191 178 192 223 242 281 293 323 340
3490.0 365 424 479 562 652 777 932 1127 1334 1517
3530.0 1650 1648 1483 1217 903 644 437 286 205 178
3570.0 158 187 174 141 126 85 105 116 123 140
3610.0 109 95 89 63 78 17 84 106 122 97
3650.0 14 48 43 74 79 55 69 53 102 92
3690.0 31 63 90 103 116 92 72 99 83 68
3730.0 74 64 68 105 46 55 54 77 76 82
3770.0 90 131 134 120 107 86 86 76 69 101
3810.0 130 115 81 57 80 90 106 86 123 123
3850.0 107 20 57 86 79 115 150 155 123 105
3890.0 86 82 92 113 163 194 182 157 126 109
3930.0 116 149 188 203 193 186 0 14 14 14
##END=
