##TITLE=Propionitrile, 3-dodecyloxy-2,2-diethoxy-,
##JCAMP-DX=4.24
##DATA TYPE=INFRARED SPECTRUM
##ORIGIN=Sadtler Research Labs Under US-EPA Contract
##OWNER=NIST Standard Reference Data Program
##CAS REGISTRY NO=66487-26-1
##MOLFORM=C 19 H 37 N O 3
##XUNITS=1/CM
##YUNITS=ABSORBANCE
##XFACTOR=1.0
##YFACTOR=0.000091565
##DELTAX=4.0
##FIRSTX=450.0
##LASTX=3966.0
##FIRSTY=0.093305
##MAXX=3966
##MINX=450
##MAXY=0.91565
##MINY=0
##NPOINTS=880
##XYDATA=(X++(Y..Y))
450.0 1019 537 205 510 423 444 594 296 350 314
490.0 530 572 423 498 469 325 431 300 294 0
530.0 137 259 402 406 541 549 669 202 353 480
570.0 515 576 400 572 523 374 362 346 288 376
610.0 320 359 371 393 418 298 408 378 419 310
650.0 346 270 313 389 289 263 363 287 241 185
690.0 163 179 230 325 333 298 411 440 512 480
730.0 410 486 172 260 435 492 370 379 373 354
770.0 390 393 413 371 302 367 394 395 399 384
810.0 373 423 409 429 405 423 451 464 457 444
850.0 418 425 455 405 415 443 395 400 397 382
890.0 376 347 310 321 301 336 327 351 294 295
930.0 320 244 323 366 326 359 389 371 399 390
970.0 457 544 608 646 706 710 839 842 887 912
1010.0 960 1002 998 1039 1083 1096 1132 1180 1172 1248
1050.0 1309 1330 1288 1474 1593 1742 1895 2085 2380 2720
1090.0 3110 3578 4135 4783 5365 5701 6182 6361 6361 6021
1130.0 5629 5219 4701 4184 3624 3038 2439 1929 1501 1183
1170.0 917 706 586 448 386 349 339 380 423 365
1210.0 338 291 234 232 246 392 423 512 634 793
1250.0 896 909 880 856 825 790 851 881 924 948
1290.0 973 973 988 946 872 804 757 764 746 795
1330.0 819 815 841 961 1147 1372 1388 1320 1242 1169
1370.0 1024 974 924 894 789 706 626 596 566 543
1410.0 574 587 602 605 615 614 657 717 927 1057
1450.0 1199 1387 1465 1527 1399 1218 1017 839 708 565
1490.0 439 353 295 267 244 230 207 185 181 170
1530.0 174 156 154 152 149 134 127 143 138 136
1570.0 132 123 116 115 124 115 125 112 118 108
1610.0 100 125 114 106 105 100 105 116 110 102
1650.0 109 114 114 96 114 94 99 104 102 116
1690.0 115 115 138 129 121 126 116 114 121 124
1730.0 140 146 151 154 161 168 175 191 189 176
1770.0 168 153 132 126 103 106 102 104 86 88
1810.0 86 86 88 81 82 81 82 84 86 83
1850.0 80 80 85 81 83 83 84 81 87 81
1890.0 87 86 92 96 99 100 99 109 108 112
1930.0 108 110 114 113 113 115 115 117 111 118
1970.0 115 114 113 113 112 107 106 102 101 101
2010.0 95 102 96 91 99 97 97 94 94 90
2050.0 89 91 91 84 89 89 88 89 83 86
2090.0 91 89 90 82 87 83 81 83 78 79
2130.0 81 82 77 78 81 81 82 79 69 74
2170.0 77 69 70 68 65 69 70 67 62 64
2210.0 67 67 63 68 72 79 81 101 127 164
2250.0 199 187 145 110 89 76 73 66 62 56
2290.0 61 60 65 68 65 62 63 61 61 59
2330.0 66 59 74 66 64 66 69 59 59 63
2370.0 50 50 57 59 46 40 34 34 30 31
2410.0 36 35 32 32 36 35 27 32 30 26
2450.0 25 29 27 29 33 30 31 34 34 30
2490.0 31 33 37 38 42 42 41 40 45 50
2530.0 53 54 55 53 56 60 63 61 64 62
2570.0 70 71 73 76 80 82 86 95 93 93
2610.0 100 104 105 111 115 122 122 132 139 143
2650.0 147 150 157 171 175 188 198 210 217 234
2690.0 245 252 265 277 286 294 303 315 336 347
2730.0 360 377 383 391 399 410 415 421 431 446
2770.0 467 491 520 551 587 630 673 730 778 823
2810.0 890 962 1042 1154 1289 1460 1695 2026 2503 3187
2850.0 4082 5031 5831 6249 6239 5941 5564 5177 4845 4625
2890.0 4519 4528 4675 4940 5304 5796 6423 7234 8216 9256
2930.0 10000 9966 9195 8048 6835 5762 4934 4370 3953 3545
2970.0 3030 2427 1848 1403 1088 865 708 587 499 432
3010.0 373 338 303 274 250 221 197 185 170 158
3050.0 147 135 117 110 105 106 103 101 102 98
3090.0 90 89 81 84 66 70 60 66 67 56
3130.0 56 60 69 63 57 51 58 49 61 45
3170.0 54 51 53 51 46 46 46 48 39 43
3210.0 41 44 37 37 40 45 33 36 46 40
3250.0 33 36 40 31 40 39 28 28 28 36
3290.0 32 34 40 27 30 33 38 29 42 37
3330.0 30 28 34 27 29 43 37 40 46 34
3370.0 48 44 30 35 44 42 42 39 42 43
3410.0 46 48 24 34 57 44 36 30 59 38
3450.0 52 51 34 41 51 41 45 60 56 44
3490.0 52 38 43 60 44 62 70 45 58 57
3530.0 57 56 45 52 67 62 50 47 59 65
3570.0 81 59 51 72 60 55 55 65 52 68
3610.0 75 67 71 75 74 75 87 83 91 75
3650.0 62 55 75 75 81 84 61 68 62 70
3690.0 79 67 74 95 71 67 73 65 64 65
3730.0 74 82 72 60 80 57 42 79 74 58
3770.0 63 59 74 84 71 80 48 41 55 76
3810.0 65 57 60 69 81 68 72 46 87 92
3850.0 53 63 92 56 74 45 77 79 54 96
3890.0 81 97 70 111 89 110 80 95 115 60
3930.0 90 100 89 85 94 113 88 140 100 125
##END=
