##TITLE=Isopropyl Alcohol
##JCAMP-DX=4.24
##DATA TYPE=INFRARED SPECTRUM
##ORIGIN=Sadtler Research Labs Under US-EPA Contract
##OWNER=NIST Standard Reference Data Program
##CAS REGISTRY NO=67-63-0
##MOLFORM=C 3 H 8 O
##XUNITS=1/CM
##YUNITS=ABSORBANCE
##XFACTOR=1.0
##YFACTOR=0.000136630
##DELTAX=4.0
##FIRSTX=450.0
##LASTX=3966.0
##FIRSTY=0.018308
##MAXX=3966
##MINX=450
##MAXY=1.3663
##MINY=0
##NPOINTS=880
##XYDATA=(X++(Y..Y))
450.0 134 134 133 143 156 176 232 190 236 217
490.0 234 207 232 192 192 112 118 137 28 85
530.0 35 36 21 29 42 24 37 38 47 43
570.0 15 52 28 54 48 66 30 66 88 76
610.0 83 80 84 85 67 71 63 109 100 71
650.0 78 69 64 61 51 57 34 61 49 53
690.0 47 29 41 43 28 30 23 38 35 24
730.0 32 25 20 35 35 22 8 19 10 29
770.0 21 39 66 116 176 264 346 382 443 484
810.0 525 551 546 499 494 513 469 368 241 152
850.0 101 68 44 41 30 32 42 39 50 59
890.0 80 108 143 202 283 407 588 844 1172 1567
930.0 1991 2364 2630 2753 2897 3102 3136 2989 2762 2714
970.0 2536 2021 1422 923 601 425 333 269 243 232
1010.0 224 225 238 261 305 371 462 588 768 977
1050.0 1213 1445 1666 1854 2057 2285 2385 2368 2373 2413
1090.0 2422 2366 2243 2145 2093 2132 2231 2413 2637 2906
1130.0 3178 3424 3702 3924 4068 4044 3906 3690 3423 3085
1170.0 2699 2357 2034 1698 1380 1109 918 799 740 717
1210.0 755 837 970 1146 1344 1544 1701 1814 1892 1973
1250.0 2084 2053 1925 1817 1723 1567 1353 1123 930 775
1290.0 668 597 560 549 545 567 613 673 752 841
1330.0 935 1038 1140 1261 1410 1597 1845 2111 2402 2719
1370.0 3107 3479 3703 3803 3631 3545 3442 3064 2501 1924
1410.0 1473 1158 930 794 714 682 674 681 707 712
1450.0 748 843 1043 1154 920 933 1028 742 633 584
1490.0 531 489 398 325 249 193 138 116 85 74
1530.0 57 55 48 31 36 34 36 22 34 26
1570.0 25 25 27 20 25 27 24 29 27 26
1610.0 20 28 25 34 21 32 26 26 26 32
1650.0 18 34 31 32 31 30 24 36 20 32
1690.0 28 28 25 23 23 30 32 26 42 46
1730.0 48 50 63 62 67 75 78 77 74 75
1770.0 69 60 55 53 40 27 15 9 4 10
1810.0 3 6 7 6 7 5 11 10 9 7
1850.0 13 14 19 21 22 22 31 37 41 40
1890.0 39 44 41 43 37 37 27 22 16 13
1930.0 8 3 5 0 2 3 2 4 6 4
1970.0 5 6 10 11 7 6 6 13 16 15
2010.0 20 22 21 22 25 24 29 29 30 30
2050.0 29 30 24 28 25 24 21 22 22 23
2090.0 19 20 14 16 13 15 16 13 10 13
2130.0 13 13 19 18 17 22 24 25 26 29
2170.0 30 35 35 34 34 36 31 28 29 28
2210.0 25 17 13 15 12 10 11 11 10 11
2250.0 15 13 16 24 21 27 26 36 46 47
2290.0 51 63 68 71 73 76 71 72 67 67
2330.0 59 60 56 59 59 64 26 38 70 81
2370.0 74 90 79 73 55 49 45 42 43 43
2410.0 42 46 46 41 49 49 52 50 47 49
2450.0 50 52 54 51 56 58 57 61 67 62
2490.0 66 61 70 70 70 71 72 69 68 64
2530.0 65 67 64 61 67 64 62 61 71 77
2570.0 72 79 75 86 85 94 105 110 110 126
2610.0 131 139 141 159 175 186 187 193 209 204
2650.0 210 212 206 203 215 191 178 163 159 158
2690.0 151 146 142 150 156 158 165 162 181 186
2730.0 195 201 203 213 211 220 222 232 234 240
2770.0 252 257 262 274 285 302 313 323 339 351
2810.0 373 396 413 439 476 492 522 570 646 762
2850.0 928 1125 1334 1581 1811 2004 2164 2373 2774 3250
2890.0 3467 3450 3213 3096 3050 3077 3085 3044 2983 2971
2930.0 3080 3162 3291 3585 4066 4656 5284 5896 6411 6851
2970.0 8016 8983 10000 9452 7070 6008 5765 5248 4559 3550
3010.0 2505 1645 1037 635 397 283 211 172 148 136
3050.0 118 112 115 126 126 118 120 115 121 125
3090.0 134 131 133 133 126 130 121 124 128 125
3130.0 123 120 122 118 138 128 131 132 137 144
3170.0 151 152 169 154 157 167 167 150 156 142
3210.0 144 134 125 123 122 98 101 87 89 68
3250.0 63 77 57 41 19 32 34 39 21 18
3290.0 13 25 18 22 22 40 30 38 57 47
3330.0 62 64 75 61 71 80 72 81 72 73
3370.0 64 66 66 66 68 64 83 77 78 85
3410.0 82 85 86 94 93 102 102 106 94 100
3450.0 106 111 110 103 95 80 86 90 81 77
3490.0 59 63 61 63 64 52 56 63 43 54
3530.0 64 62 47 55 48 49 57 56 54 51
3570.0 58 61 46 69 69 84 79 91 104 118
3610.0 162 188 240 273 349 459 614 861 897 906
3650.0 964 993 1021 996 951 872 820 731 573 437
3690.0 297 205 130 75 60 71 46 54 55 42
3730.0 26 44 47 44 50 57 32 41 43 34
3770.0 34 52 34 48 44 63 61 55 70 59
3810.0 66 70 87 85 86 64 76 91 112 90
3850.0 85 92 86 52 110 86 70 78 66 78
3890.0 57 59 80 77 83 78 73 71 73 60
3930.0 67 52 76 71 72 61 55 56 84 67
##END=
