##TITLE=Acetone
##JCAMP-DX=4.24
##DATA TYPE=INFRARED SPECTRUM
##ORIGIN=Sadtler Research Labs Under US-EPA Contract
##OWNER=NIST Standard Reference Data Program
##CAS REGISTRY NO=67-64-1
##MOLFORM=C 3 H 6 O
##XUNITS=1/CM
##YUNITS=ABSORBANCE
##XFACTOR=1.0
##YFACTOR=0.000078659
##DELTAX=4.0
##FIRSTX=450.0
##LASTX=3966.0
##FIRSTY=0.003146
##MAXX=3966
##MINX=450
##MAXY=0.78659
##MINY=0
##NPOINTS=880
##XYDATA=(X++(Y..Y))
450.0 40 76 71 59 67 74 97 132 180 202
490.0 341 455 666 917 1188 1341 1395 1310 1231 1416
530.0 1312 982 1028 970 849 618 433 257 161 121
570.0 79 117 23 49 78 80 139 116 93 83
610.0 75 72 71 106 77 25 141 119 113 94
650.0 86 97 93 82 74 94 62 113 90 115
690.0 104 94 86 96 96 99 99 91 104 117
730.0 110 135 113 156 168 163 198 189 185 196
770.0 198 214 214 229 248 123 169 158 154 140
810.0 128 118 100 96 94 125 112 107 127 142
850.0 158 155 176 203 254 297 331 360 374 417
890.0 456 490 523 533 531 532 519 486 442 399
930.0 367 347 321 276 268 235 210 205 184 186
970.0 171 164 161 152 145 149 143 135 134 116
1010.0 126 123 117 121 133 130 144 146 147 153
1050.0 160 159 160 177 181 188 209 226 245 269
1090.0 360 406 315 307 312 326 322 330 303 285
1130.0 261 253 233 218 217 223 216 255 301 384
1170.0 514 744 1117 1660 2408 3305 4185 4883 5217 5223
1210.0 5340 6068 6105 4519 5085 5420 4841 3561 2178 1179
1250.0 627 372 254 207 194 200 199 195 216 224
1290.0 249 261 291 338 383 453 557 693 869 1126
1330.0 1486 1987 2615 3342 4082 4620 4861 4908 5395 6070
1370.0 5909 5612 5362 4895 4028 3085 2300 1783 1491 1370
1410.0 1358 1381 1433 1469 1502 1469 1513 1504 1498 1471
1450.0 1425 1313 1216 1088 989 930 886 827 729 659
1490.0 613 561 543 521 516 518 518 494 517 516
1530.0 510 502 503 511 503 492 493 485 459 449
1570.0 434 410 391 364 343 323 304 286 264 247
1610.0 232 211 212 193 195 178 190 187 190 197
1650.0 207 249 248 283 316 373 452 558 718 949
1690.0 1268 1749 2441 3325 4332 5418 6422 7304 7954 8392
1730.0 8692 9250 10000 9713 9233 8855 8199 7102 5998 4895
1770.0 3902 3090 2389 1894 1584 1297 1096 917 754 623
1810.0 519 434 370 319 269 227 212 181 164 150
1850.0 132 119 107 106 87 94 80 82 77 83
1890.0 72 60 68 62 55 49 54 48 53 59
1930.0 54 54 56 60 56 59 58 52 65 65
1970.0 59 70 62 66 64 68 62 53 57 47
2010.0 45 44 44 43 42 31 36 36 43 33
2050.0 30 34 29 38 41 41 42 47 55 54
2090.0 73 82 99 107 124 130 137 141 152 151
2130.0 146 152 146 151 137 131 112 103 85 65
2170.0 56 58 43 44 44 37 48 48 45 41
2210.0 49 48 51 54 56 60 67 66 65 72
2250.0 66 66 69 65 65 64 53 55 56 42
2290.0 46 51 37 46 40 44 49 42 52 71
2330.0 51 39 33 8 29 19 35 51 66 0
2370.0 4 11 7 16 25 34 28 28 36 28
2410.0 42 35 40 40 37 45 42 30 33 35
2450.0 34 33 33 32 27 27 26 26 29 25
2490.0 25 26 26 31 25 31 32 43 32 32
2530.0 34 42 45 53 51 51 56 66 61 60
2570.0 53 73 66 59 64 39 43 39 26 27
2610.0 32 28 21 20 28 21 25 37 36 33
2650.0 33 32 27 19 19 20 19 6 18 11
2690.0 20 10 19 18 19 4 18 18 24 17
2730.0 17 17 18 18 20 16 19 22 21 31
2770.0 35 41 37 36 49 62 51 58 62 65
2810.0 71 80 92 92 118 137 130 156 169 189
2850.0 200 204 217 225 247 253 255 261 256 275
2890.0 299 339 379 438 524 613 699 776 828 869
2930.0 892 922 995 1063 1077 1076 1018 985 954 1068
2970.0 1521 1224 873 860 917 1018 1130 1194 1202 1182
3010.0 1134 1144 1150 1054 1043 1050 1002 914 818 716
3050.0 649 602 596 569 581 542 542 531 511 489
3090.0 457 426 395 348 310 270 246 198 180 157
3130.0 145 111 110 85 59 76 77 60 58 65
3170.0 65 47 59 47 38 38 50 45 56 33
3210.0 24 28 21 34 17 22 41 18 26 16
3250.0 37 25 20 42 22 10 15 22 12 32
3290.0 29 27 19 22 19 16 11 24 22 47
3330.0 47 21 23 21 12 21 23 27 30 17
3370.0 24 5 48 36 54 46 43 24 51 72
3410.0 77 99 90 112 148 180 167 206 218 244
3450.0 238 244 271 247 255 255 206 191 161 157
3490.0 124 91 79 68 65 61 53 41 30 36
3530.0 30 51 48 76 55 31 38 42 35 24
3570.0 39 28 26 32 28 40 30 30 44 36
3610.0 40 25 33 36 41 65 63 66 52 37
3650.0 56 59 42 55 53 47 64 56 48 37
3690.0 49 53 64 54 56 56 44 55 77 60
3730.0 63 79 66 43 53 51 55 56 58 52
3770.0 62 49 71 53 45 49 59 62 62 66
3810.0 60 70 52 63 63 83 82 93 93 77
3850.0 63 55 70 72 54 57 40 44 38 43
3890.0 66 76 79 64 56 59 62 51 42 51
3930.0 34 29 28 47 52 68 73 75 67 61
##END=
