##TITLE=Dimethyl Sulfoxide
##JCAMP-DX=4.24
##DATA TYPE=INFRARED SPECTRUM
##ORIGIN=Sadtler Research Labs Under US-EPA Contract
##OWNER=NIST Standard Reference Data Program
##CAS REGISTRY NO=67-68-5
##MOLFORM=C 2 H 6 O S
##XUNITS=1/CM
##YUNITS=ABSORBANCE
##XFACTOR=1.0
##YFACTOR=0.000051099
##DELTAX=4.0
##FIRSTX=450.0
##LASTX=3966.0
##FIRSTY=0.007256
##MAXX=3966
##MINX=450
##MAXY=0.51099
##MINY=0
##NPOINTS=880
##XYDATA=(X++(Y..Y))
450.0 142 137 128 121 128 129 115 94 85 81
490.0 90 74 52 71 63 52 72 72 69 71
530.0 56 69 47 57 57 81 92 74 92 92
570.0 96 61 42 48 52 80 34 118 115 119
610.0 122 150 221 300 377 457 441 550 628 711
650.0 882 1059 1255 1375 1463 1541 1524 1408 1291 1066
690.0 1012 953 761 518 290 147 86 83 63 56
730.0 56 61 13 66 75 90 118 123 118 93
770.0 95 76 47 46 11 19 28 21 14 14
810.0 28 32 28 21 38 21 31 38 30 55
850.0 60 77 81 96 102 123 133 149 191 221
890.0 272 360 435 472 467 516 643 704 688 745
930.0 796 750 671 622 489 409 384 369 331 307
970.0 296 363 446 574 703 814 892 994 1150 1194
1010.0 1065 917 912 870 737 574 447 353 319 338
1050.0 379 490 689 1034 1572 2361 3476 4864 6317 7449
1090.0 7957 8083 8927 10000 8478 6986 6869 6220 4694 2925
1130.0 1563 763 348 169 112 101 82 92 81 72
1170.0 72 68 89 91 96 101 94 91 84 83
1210.0 93 73 84 74 82 81 100 99 91 93
1250.0 82 93 101 111 130 169 202 254 307 382
1290.0 474 564 625 692 717 803 829 749 674 657
1330.0 676 581 445 322 239 210 209 188 203 195
1370.0 216 251 315 397 493 601 684 722 762 878
1410.0 796 840 1090 1158 930 868 855 1134 1522 991
1450.0 642 650 676 603 503 368 270 185 134 98
1490.0 94 81 78 67 76 70 58 71 64 59
1530.0 56 61 66 64 80 74 70 84 92 85
1570.0 100 103 125 103 109 116 118 107 109 107
1610.0 118 117 117 107 96 83 65 74 59 67
1650.0 54 77 44 50 44 54 40 45 45 48
1690.0 46 39 46 47 45 34 47 57 59 51
1730.0 58 64 68 77 92 118 145 145 164 148
1770.0 144 132 129 119 93 70 71 60 58 46
1810.0 53 44 47 45 43 42 46 36 43 51
1850.0 47 48 48 48 55 61 47 60 58 58
1890.0 64 52 57 62 59 68 67 67 76 70
1930.0 82 81 89 85 93 96 92 91 89 89
1970.0 90 91 90 90 83 85 81 72 68 62
2010.0 62 53 62 52 54 52 54 47 50 41
2050.0 36 36 24 36 27 26 26 26 35 35
2090.0 46 48 54 63 61 59 62 54 56 58
2130.0 56 67 57 66 77 80 90 101 109 134
2170.0 152 162 172 182 192 192 191 181 173 160
2210.0 145 120 91 77 71 70 67 59 59 59
2250.0 68 69 58 70 58 59 64 57 63 54
2290.0 61 65 52 61 57 53 65 58 57 45
2330.0 45 31 30 63 22 19 40 49 30 0
2370.0 2 3 6 18 30 32 47 36 37 37
2410.0 36 45 48 35 44 39 32 37 30 36
2450.0 30 29 30 28 30 21 29 30 23 24
2490.0 32 20 27 22 29 21 21 30 22 22
2530.0 22 22 23 23 30 22 32 32 32 33
2570.0 32 33 24 33 33 33 34 34 35 36
2610.0 24 24 44 45 34 47 44 48 55 55
2650.0 60 57 59 56 55 47 46 37 37 30
2690.0 27 28 20 26 23 21 18 22 18 29
2730.0 19 30 10 30 22 18 19 19 19 18
2770.0 30 30 30 30 39 50 67 71 81 79
2810.0 97 105 85 97 89 106 106 108 87 79
2850.0 78 81 76 82 65 58 59 43 69 77
2890.0 115 176 285 435 573 650 666 701 887 884
2930.0 701 669 675 601 444 296 178 116 101 113
2970.0 174 229 315 420 499 562 635 917 1513 843
3010.0 764 753 698 663 587 440 302 195 107 64
3050.0 45 33 34 34 31 32 35 33 29 30
3090.0 33 35 35 35 35 34 35 25 34 35
3130.0 36 35 35 42 33 35 34 37 36 56
3170.0 55 44 45 53 49 61 44 58 51 65
3210.0 46 56 55 36 49 46 35 47 46 53
3250.0 38 34 35 37 10 38 29 37 39 38
3290.0 51 58 46 59 64 74 51 69 47 48
3330.0 39 39 47 31 39 40 45 38 39 33
3370.0 38 40 39 39 40 41 40 41 33 36
3410.0 31 36 32 25 32 31 42 42 30 32
3450.0 38 36 29 43 27 39 24 41 42 32
3490.0 32 42 43 33 41 38 44 45 20 49
3530.0 43 25 24 43 40 42 36 31 43 59
3570.0 71 62 63 52 57 51 44 42 45 42
3610.0 39 28 36 31 20 28 25 24 32 29
3650.0 26 9 30 18 20 28 20 13 4 21
3690.0 17 21 1 2 4 0 0 0 0 0
3730.0 0 7 2 0 4 0 0 0 0 0
3770.0 0 0 0 0 0 0 0 0 5 0
3810.0 0 0 0 12 17 9 19 1 0 3
3850.0 2 0 0 4 7 21 15 12 4 10
3890.0 6 13 22 30 24 35 40 44 30 36
3930.0 32 37 36 28 24 19 14 9 18 14
##END=
