##TITLE=Chloroform
##JCAMP-DX=4.24
##DATA TYPE=INFRARED SPECTRUM
##ORIGIN=Sadtler Research Labs Under US-EPA Contract
##OWNER=NIST Standard Reference Data Program
##CAS REGISTRY NO=67-66-3
##MOLFORM=C H Cl 3
##XUNITS=1/CM
##YUNITS=ABSORBANCE
##XFACTOR=1.0
##YFACTOR=0.000256363
##DELTAX=4.0
##FIRSTX=450.0
##LASTX=3966.0
##FIRSTY=0.000000
##MAXX=3966
##MINX=450
##MAXY=2.56363
##MINY=0
##NPOINTS=880
##XYDATA=(X++(Y..Y))
450.0 0 52 53 50 82 45 71 45 68 44
490.0 78 53 76 72 55 80 63 91 62 56
530.0 65 58 62 52 61 53 60 51 57 55
570.0 65 55 51 30 56 93 39 52 58 65
610.0 70 76 85 85 81 76 73 75 78 72
650.0 73 76 71 109 122 277 338 192 267 366
690.0 326 209 114 85 72 80 82 92 118 153
730.0 233 361 577 954 1520 2458 3651 5647 7500 8409
770.0 10000 9147 8699 4303 2222 1081 561 308 172 114
810.0 80 70 66 61 60 56 56 62 65 72
850.0 85 100 100 85 73 70 62 61 58 57
890.0 57 61 62 67 73 77 86 87 88 96
930.0 100 88 77 81 82 73 62 58 53 55
970.0 53 53 52 50 51 55 55 55 57 60
1010.0 63 66 71 71 72 76 76 78 73 76
1050.0 73 73 72 71 70 68 68 68 66 63
1090.0 61 60 56 57 56 53 55 55 52 51
1130.0 49 49 50 47 47 50 49 50 52 52
1170.0 56 60 68 80 102 131 148 195 318 535
1210.0 930 1586 2565 2489 1432 744 406 229 144 98
1250.0 77 63 57 53 51 50 49 46 46 46
1290.0 45 45 45 45 46 46 46 46 47 47
1330.0 47 47 45 47 46 46 45 46 45 47
1370.0 47 47 47 50 50 50 52 52 53 53
1410.0 57 58 61 70 73 83 90 96 96 88
1450.0 72 58 52 52 55 53 56 55 55 55
1490.0 55 53 51 53 56 57 62 67 71 75
1530.0 77 78 82 86 81 75 67 68 65 57
1570.0 50 47 44 40 41 40 40 40 37 37
1610.0 37 36 40 37 36 36 37 37 36 35
1650.0 37 36 39 35 36 37 37 35 36 37
1690.0 35 35 35 36 36 36 34 35 36 34
1730.0 35 35 34 34 34 35 36 34 36 35
1770.0 36 34 35 32 35 34 37 36 34 35
1810.0 35 35 35 35 32 34 34 32 32 34
1850.0 34 31 34 32 32 32 32 31 32 32
1890.0 32 34 34 34 34 34 31 31 32 31
1930.0 32 32 32 31 31 31 31 31 31 31
1970.0 30 31 31 31 30 30 31 30 30 31
2010.0 30 31 29 30 30 29 31 31 31 31
2050.0 31 31 31 29 30 31 31 30 29 30
2090.0 30 31 29 29 29 29 29 27 27 27
2130.0 29 27 27 27 27 27 27 27 27 27
2170.0 26 26 29 27 27 27 27 27 26 26
2210.0 26 26 29 26 26 26 26 26 27 26
2250.0 26 26 26 26 27 27 27 27 27 26
2290.0 26 24 25 24 24 21 21 22 24 22
2330.0 24 25 26 27 27 22 21 25 30 26
2370.0 35 31 34 35 32 34 36 42 35 44
2410.0 76 36 40 42 39 37 32 35 35 35
2450.0 31 32 32 31 31 27 26 26 25 25
2490.0 24 24 25 26 24 24 25 25 25 25
2530.0 22 24 24 24 26 25 25 26 24 24
2570.0 24 24 24 24 24 22 22 22 24 22
2610.0 22 21 24 22 24 24 21 21 24 24
2650.0 24 24 24 24 24 25 22 24 26 26
2690.0 25 25 25 25 26 25 25 25 25 25
2730.0 25 21 25 22 24 24 24 25 24 24
2770.0 24 24 24 24 26 25 27 25 25 26
2810.0 26 26 26 26 26 26 27 30 29 29
2850.0 29 29 29 31 34 32 32 34 36 36
2890.0 35 36 39 39 40 37 40 40 40 39
2930.0 39 39 37 40 40 40 41 40 42 41
2970.0 42 41 41 41 42 41 37 40 37 37
3010.0 34 39 36 37 36 37 52 50 26 40
3050.0 34 32 29 29 25 25 26 25 25 25
3090.0 25 26 24 25 25 24 26 26 24 25
3130.0 25 25 25 25 25 25 25 24 25 25
3170.0 26 25 25 26 24 26 25 27 25 25
3210.0 24 24 25 26 26 25 25 25 25 26
3250.0 27 21 25 22 22 24 24 22 25 26
3290.0 25 26 24 25 26 26 25 21 26 24
3330.0 25 24 25 24 24 22 25 25 24 22
3370.0 25 24 26 26 24 25 24 25 27 26
3410.0 26 22 24 24 22 22 26 24 25 25
3450.0 25 25 21 26 25 22 24 26 25 22
3490.0 25 21 22 22 22 22 22 21 24 22
3530.0 22 25 25 22 21 24 24 21 21 22
3570.0 25 21 25 24 25 22 27 21 27 24
3610.0 22 24 24 22 22 29 27 26 25 22
3650.0 29 29 29 26 27 29 29 39 27 26
3690.0 30 34 26 31 32 26 27 25 24 22
3730.0 21 25 24 27 26 25 25 22 24 24
3770.0 22 21 22 22 21 25 27 24 24 24
3810.0 21 24 25 25 21 22 21 22 22 25
3850.0 24 26 27 21 21 24 22 21 24 21
3890.0 24 21 25 26 22 22 24 25 25 21
3930.0 22 21 21 21 25 26 21 21 25 22
##END=
