##TITLE=Dimethyl sulfone
##JCAMP-DX=4.24
##DATA TYPE=INFRARED SPECTRUM
##ORIGIN=Sadtler Research Labs Under US-EPA Contract
##OWNER=NIST Standard Reference Data Program
##CAS REGISTRY NO=67-71-0
##MOLFORM=C 2 H 6 O 2 S
##XUNITS=1/CM
##YUNITS=ABSORBANCE
##XFACTOR=1.0
##YFACTOR=0.000284247
##DELTAX=4.0
##FIRSTX=450.0
##LASTX=3966.0
##FIRSTY=0.205510
##MAXX=3966
##MINX=450
##MAXY=2.84247
##MINY=0
##NPOINTS=880
##XYDATA=(X++(Y..Y))
450.0 723 545 506 760 1449 1498 1214 1349 1461 1260
490.0 1036 1769 855 387 456 418 362 260 162 93
530.0 55 36 25 20 13 13 21 20 16 11
570.0 18 18 9 14 0 13 26 11 9 8
610.0 4 0 6 9 13 12 15 14 22 26
650.0 41 68 95 131 156 207 232 289 374 361
690.0 250 217 253 274 278 280 321 409 532 660
730.0 771 855 944 1162 1195 906 717 746 671 513
770.0 327 183 98 62 49 46 41 45 40 39
810.0 37 36 39 33 33 33 37 35 39 39
850.0 43 52 54 59 64 74 70 73 79 90
890.0 105 128 172 247 381 564 790 973 1055 1005
930.0 1376 2096 1506 1174 1310 1276 1113 810 555 363
970.0 259 203 182 165 118 103 102 81 60 52
1010.0 47 41 40 33 33 29 34 41 46 53
1050.0 43 42 39 43 36 35 32 32 35 34
1090.0 37 39 47 50 62 80 114 180 300 509
1130.0 818 1268 1787 2331 2714 3078 3360 4109 5494 3505
1170.0 2396 2915 2876 2332 1587 902 469 240 159 125
1210.0 121 103 95 94 94 91 82 84 75 77
1250.0 74 81 86 87 95 98 107 114 148 195
1290.0 271 357 472 615 763 1275 1713 1772 2818 3936
1330.0 4573 5134 5641 5592 5966 6615 10000 4331 3743 4392
1370.0 3942 3042 1843 930 435 212 163 175 163 182
1410.0 195 217 245 203 234 234 232 187 146 124
1450.0 117 110 120 84 63 59 77 63 35 50
1490.0 57 30 27 22 57 82 55 67 81 54
1530.0 54 49 64 83 70 47 54 84 60 41
1570.0 41 41 32 27 13 8 0 13 23 36
1610.0 40 41 56 41 53 34 50 54 37 45
1650.0 61 70 36 30 32 36 49 27 50 59
1690.0 34 28 63 59 45 27 41 62 30 19
1730.0 32 57 32 28 35 43 26 26 26 18
1770.0 33 36 21 25 22 28 32 28 33 22
1810.0 21 21 16 20 22 29 20 11 22 29
1850.0 19 11 13 11 21 28 14 13 13 16
1890.0 20 21 18 19 20 20 21 21 23 15
1930.0 14 12 9 16 15 11 13 15 18 25
1970.0 25 28 30 34 35 46 46 39 34 36
2010.0 32 29 28 25 23 23 23 26 28 27
2050.0 27 27 27 25 26 25 22 21 18 20
2090.0 20 18 16 15 14 14 14 14 14 14
2130.0 14 15 13 15 14 14 14 14 14 12
2170.0 12 11 11 11 11 8 11 11 11 11
2210.0 11 13 13 14 14 16 19 18 19 18
2250.0 18 19 20 18 16 19 21 23 27 32
2290.0 36 40 46 52 55 53 54 56 52 43
2330.0 42 41 34 32 32 25 20 14 19 18
2370.0 13 14 13 13 13 13 11 11 11 11
2410.0 11 11 9 8 11 8 8 8 6 7
2450.0 8 11 11 14 16 20 25 28 33 36
2490.0 41 42 46 49 52 43 32 27 25 20
2530.0 14 9 5 5 4 5 2 5 4 5
2570.0 4 5 5 5 5 4 6 7 7 6
2610.0 8 9 6 12 9 4 6 6 4 1
2650.0 0 0 0 0 0 0 1 2 2 2
2690.0 6 5 5 7 6 7 7 8 9 8
2730.0 5 6 8 8 11 9 9 8 9 9
2770.0 11 13 13 11 12 13 15 15 15 18
2810.0 20 20 22 21 22 22 25 23 21 21
2850.0 22 22 21 22 20 21 22 22 22 21
2890.0 23 22 22 21 26 26 34 42 55 67
2930.0 69 73 59 117 151 62 68 80 76 71
2970.0 55 45 35 35 33 34 41 49 62 73
3010.0 86 90 97 117 129 124 110 71 73 70
3050.0 64 52 34 22 7 0 1 15 18 20
3090.0 20 26 29 29 32 34 35 37 37 39
3130.0 41 40 40 42 40 43 42 42 45 45
3170.0 45 45 46 45 47 48 48 48 50 47
3210.0 49 50 48 53 50 52 52 52 49 52
3250.0 53 50 52 52 54 52 54 56 56 56
3290.0 57 56 59 61 60 63 63 61 61 59
3330.0 62 61 62 59 61 59 60 60 57 59
3370.0 59 60 61 60 61 63 64 63 64 63
3410.0 64 63 64 62 64 66 66 61 61 66
3450.0 67 66 64 63 64 68 68 70 68 68
3490.0 70 68 68 71 71 73 70 70 70 66
3530.0 69 70 70 73 64 70 69 71 75 69
3570.0 73 74 75 76 75 73 71 79 77 71
3610.0 71 77 79 79 74 80 75 80 81 81
3650.0 77 80 84 79 81 74 82 77 82 84
3690.0 84 80 81 82 81 83 84 80 81 83
3730.0 87 83 81 86 84 88 89 87 90 90
3770.0 91 91 90 89 89 89 87 89 91 91
3810.0 94 93 98 93 93 91 90 96 95 95
3850.0 103 102 101 104 101 100 104 103 97 102
3890.0 101 98 104 98 105 108 105 105 112 109
3930.0 110 115 111 114 112 114 109 116 111 111
##END=
