##TITLE=Benzene, (1-chloroethyl)-
##JCAMP-DX=4.24
##DATA TYPE=INFRARED SPECTRUM
##ORIGIN=Sadtler Research Labs Under US-EPA Contract
##OWNER=NIST Standard Reference Data Program
##CAS REGISTRY NO=672-65-1
##MOLFORM=C 8 H 9 Cl
##XUNITS=1/CM
##YUNITS=ABSORBANCE
##XFACTOR=1.0
##YFACTOR=0.000050241
##DELTAX=4.0
##FIRSTX=450.0
##LASTX=3966.0
##FIRSTY=0.004773
##MAXX=3966
##MINX=450
##MAXY=0.50241
##MINY=0
##NPOINTS=880
##XYDATA=(X++(Y..Y))
450.0 95 112 103 74 70 114 123 137 205 221
490.0 254 315 432 577 748 955 1110 1157 1123 972
530.0 680 546 392 561 361 327 328 565 866 1386
570.0 1567 1544 1314 913 309 187 294 273 343 381
610.0 544 639 721 784 905 1032 1335 1615 1936 2228
650.0 2425 2753 3239 4036 4963 5890 6142 6473 7118 8175
690.0 9338 10000 9059 7253 5297 3583 2303 1527 1091 1018
730.0 907 972 1122 1410 1859 2570 3326 3992 4286 3905
770.0 3435 2992 2385 2028 1757 1371 908 598 385 277
810.0 194 119 85 51 39 10 9 12 33 2
850.0 3 28 49 87 121 186 185 197 207 188
890.0 241 330 425 501 596 808 606 443 368 295
930.0 225 185 163 205 251 344 490 685 924 1140
970.0 1333 1374 1277 1079 861 724 538 430 393 421
1010.0 496 728 1219 1874 2174 2226 2112 1842 1852 2521
1050.0 3312 3667 3416 2670 1622 957 735 707 728 724
1090.0 709 610 509 445 371 320 224 173 129 89
1130.0 60 49 51 26 33 52 73 106 128 157
1170.0 195 282 383 474 578 660 704 765 782 836
1210.0 899 1005 1227 1631 2232 2978 3704 4180 4161 3651
1250.0 2901 2062 1374 940 704 565 545 556 607 698
1290.0 801 910 917 843 744 628 592 602 593 553
1330.0 501 455 500 562 569 552 512 454 482 587
1370.0 831 1159 1456 1621 1539 1235 860 538 344 268
1410.0 236 232 294 363 465 614 850 1272 1801 2355
1450.0 2776 3000 2900 2478 1912 1383 1013 820 855 1136
1490.0 1551 1881 1976 1795 1414 820 449 282 235 216
1530.0 207 200 177 160 132 102 96 115 111 112
1570.0 150 180 236 267 349 421 546 657 738 715
1610.0 611 470 357 241 189 180 172 176 159 147
1650.0 110 155 129 168 183 220 228 196 156 131
1690.0 105 85 107 128 135 128 144 165 177 196
1730.0 218 280 301 309 310 267 220 181 152 125
1770.0 126 131 152 180 267 387 473 489 449 371
1810.0 269 230 222 199 187 148 120 102 92 93
1850.0 106 148 169 240 280 330 344 374 382 368
1890.0 341 296 236 155 118 99 97 108 128 172
1930.0 227 289 362 410 437 441 443 418 367 306
1970.0 235 144 104 76 77 79 67 60 50 50
2010.0 50 44 52 52 53 54 37 30 34 32
2050.0 32 27 34 31 29 18 21 12 2 11
2090.0 28 37 36 45 39 38 41 31 38 39
2130.0 46 44 43 51 32 28 37 35 29 24
2170.0 23 13 21 10 8 15 15 14 14 1
2210.0 14 6 11 4 12 12 21 22 32 33
2250.0 44 31 32 35 28 34 34 34 37 48
2290.0 47 49 41 52 57 68 88 76 90 103
2330.0 86 94 141 150 173 140 82 68 88 101
2370.0 133 128 138 120 98 71 56 48 40 59
2410.0 49 51 50 52 71 60 67 59 61 52
2450.0 53 52 43 52 52 52 50 43 49 47
2490.0 47 43 54 54 53 55 64 64 66 54
2530.0 54 51 46 46 53 44 39 44 46 56
2570.0 47 47 59 59 59 61 82 72 90 105
2610.0 99 99 99 89 110 89 98 77 99 95
2650.0 100 103 89 61 60 51 52 72 51 51
2690.0 54 56 39 69 56 39 43 43 43 72
2730.0 104 85 84 94 85 92 117 65 54 62
2770.0 66 88 111 76 67 77 97 139 128 110
2810.0 107 117 130 226 161 167 168 158 180 203
2850.0 184 211 249 337 481 580 719 800 830 791
2890.0 720 668 639 618 640 622 629 706 882 1199
2930.0 1554 1906 2173 2196 2088 1728 1462 1289 1249 1304
2970.0 1455 1960 2980 3920 4773 5889 5949 5321 4404 3345
3010.0 2063 1576 1470 1650 2117 2794 3438 3915 4100 3915
3050.0 3429 2932 2616 2724 3193 3919 4469 4589 4414 3826
3090.0 3123 2685 2395 2113 1832 1524 1215 989 735 538
3130.0 356 222 160 118 113 107 116 103 102 103
3170.0 134 124 115 113 112 94 111 73 74 84
3210.0 92 105 106 116 103 105 99 103 91 88
3250.0 76 82 94 80 76 66 57 80 74 47
3290.0 34 38 27 36 27 27 25 34 39 30
3330.0 21 46 12 3 58 22 17 34 29 43
3370.0 47 52 43 43 60 43 50 24 24 24
3410.0 13 22 27 17 31 28 45 16 33 36
3450.0 34 16 20 10 8 48 14 37 26 57
3490.0 28 28 14 30 32 16 46 31 31 13
3530.0 46 41 39 29 37 18 28 24 37 14
3570.0 31 39 38 25 41 59 48 40 21 53
3610.0 56 18 22 39 25 61 76 70 83 84
3650.0 88 92 105 88 74 54 72 71 74 45
3690.0 32 45 37 53 45 54 24 64 45 60
3730.0 46 39 15 28 2 51 37 46 27 28
3770.0 19 30 19 16 0 22 15 2 2 10
3810.0 2 12 9 8 2 2 5 2 21 13
3850.0 5 1 23 2 2 2 2 2 2 2
3890.0 2 2 2 2 2 2 2 2 2 2
3930.0 2 2 2 2 2 2 2 2 2 2
##END=
