##TITLE=Benzene, 1-propynyl-
##JCAMP-DX=4.24
##DATA TYPE=INFRARED SPECTRUM
##ORIGIN=Sadtler Research Labs Under US-EPA Contract
##OWNER=NIST Standard Reference Data Program
##CAS REGISTRY NO=673-32-5
##MOLFORM=C 9 H 8
##XUNITS=1/CM
##YUNITS=ABSORBANCE
##XFACTOR=1.0
##YFACTOR=0.000058252
##DELTAX=4.0
##FIRSTX=450.0
##LASTX=3966.0
##FIRSTY=0.002330
##MAXX=3966
##MINX=450
##MAXY=0.58252
##MINY=0
##NPOINTS=880
##XYDATA=(X++(Y..Y))
450.0 40 86 109 133 128 85 80 151 69 89
490.0 122 167 182 291 352 501 693 826 1005 1791
530.0 1249 949 784 634 400 268 194 118 115 92
570.0 87 138 148 132 95 102 131 201 379 480
610.0 592 700 593 461 331 185 109 88 90 131
650.0 200 280 421 641 951 1680 2341 3157 3733 4330
690.0 6922 4892 5034 4289 3735 2832 1672 916 650 743
730.0 1172 1989 3218 4517 5538 6491 10000 7015 5926 5196
770.0 3734 2276 1184 550 260 158 140 99 72 54
810.0 31 24 29 41 71 116 165 195 219 202
850.0 159 135 93 58 45 56 56 71 79 102
890.0 136 231 337 466 554 727 680 461 399 300
930.0 201 117 63 29 5 0 2 34 109 214
970.0 254 296 304 227 204 192 181 176 111 101
1010.0 99 110 198 513 857 817 810 711 401 348
1050.0 430 540 650 752 727 684 725 590 437 344
1090.0 311 256 193 175 150 111 80 73 61 46
1130.0 45 50 52 63 55 56 53 70 82 90
1170.0 109 114 114 121 109 95 103 108 105 105
1210.0 122 117 124 126 119 116 109 123 154 187
1250.0 257 420 614 722 792 766 546 525 518 513
1290.0 486 348 265 231 214 212 229 267 260 281
1330.0 407 388 272 297 400 373 440 583 672 663
1370.0 831 1255 1424 1480 1427 1449 962 496 496 490
1410.0 347 518 1028 718 607 891 1106 1095 1064 1233
1450.0 1171 938 1031 978 663 547 629 993 2146 4154
1490.0 5478 5343 5900 3993 2154 1199 1138 766 476 463
1530.0 413 368 432 604 378 285 320 389 397 422
1570.0 533 575 710 769 941 1369 1998 2542 2889 2496
1610.0 1928 1235 561 290 158 104 86 101 79 139
1650.0 149 316 327 431 419 418 328 255 179 191
1690.0 126 108 122 145 117 129 148 198 205 252
1730.0 282 346 338 343 315 343 386 371 332 304
1770.0 307 306 269 301 383 462 573 560 501 426
1810.0 288 228 219 194 170 121 75 72 75 93
1850.0 106 131 164 220 265 298 307 384 471 476
1890.0 414 327 237 104 51 47 59 92 125 178
1930.0 241 313 360 349 381 494 507 455 377 292
1970.0 162 60 29 24 26 21 20 20 15 8
2010.0 10 4 1 3 8 8 16 29 54 111
2050.0 169 177 167 136 63 25 14 12 12 7
2090.0 8 11 16 12 13 12 18 21 18 22
2130.0 28 26 14 11 14 17 22 32 34 41
2170.0 40 41 47 51 69 77 102 130 166 230
2210.0 312 392 420 405 341 234 189 250 371 493
2250.0 606 719 722 629 532 349 176 60 6 0
2290.0 15 36 49 66 86 112 101 105 110 99
2330.0 105 102 110 124 122 151 140 128 97 56
2370.0 41 44 44 59 64 69 74 66 60 61
2410.0 63 70 76 81 89 89 85 80 68 59
2450.0 63 78 82 82 84 80 76 77 79 72
2490.0 77 74 78 73 83 83 79 75 78 78
2530.0 71 71 68 69 68 63 59 49 43 51
2570.0 48 49 44 47 45 47 61 68 75 73
2610.0 68 61 48 42 46 47 45 45 51 58
2650.0 52 56 49 46 43 35 32 28 30 28
2690.0 33 30 29 31 36 43 47 53 65 79
2730.0 101 139 193 239 289 330 309 269 223 154
2770.0 105 86 80 83 83 83 80 81 74 79
2810.0 82 91 100 113 127 141 176 223 292 373
2850.0 442 566 799 1254 1965 2378 2456 2284 1696 1107
2890.0 828 635 566 516 510 578 699 1109 1889 3565
2930.0 6058 5834 5635 4863 2221 1225 715 771 612 666
2970.0 787 815 1220 917 823 770 617 861 775 1218
3010.0 1195 1135 1402 1489 1819 2028 2655 3208 3040 2976
3050.0 2883 2697 3068 4000 4988 5466 5251 4906 4189 3534
3090.0 3337 3102 3025 2579 2055 1640 1228 879 562 325
3130.0 206 179 186 194 200 201 194 158 122 111
3170.0 107 101 89 75 65 53 47 45 40 42
3210.0 50 59 68 78 90 99 98 97 84 62
3250.0 45 39 34 31 37 36 37 40 39 37
3290.0 38 39 36 30 34 39 45 37 42 44
3330.0 45 42 38 33 32 24 29 26 15 18
3370.0 16 18 15 17 18 17 17 22 25 29
3410.0 27 22 24 31 35 33 24 27 27 26
3450.0 24 34 31 44 37 29 29 25 21 17
3490.0 24 30 23 21 13 22 39 41 38 16
3530.0 28 22 15 18 5 10 33 12 34 14
3570.0 23 47 56 72 53 40 52 31 34 24
3610.0 17 7 7 16 12 49 11 14 26 27
3650.0 67 30 42 37 37 61 43 55 21 29
3690.0 40 31 27 26 35 46 50 29 26 15
3730.0 25 29 29 23 70 39 54 37 46 49
3770.0 45 37 30 36 21 25 34 25 41 27
3810.0 14 27 27 32 10 4 21 47 15 12
3850.0 8 62 27 21 14 34 5 11 9 13
3890.0 25 33 27 31 29 41 22 32 13 15
3930.0 28 3 9 25 10 14 15 16 17 17
##END=
