##TITLE=Benzaldehyde, 2-hydroxy-4-methoxy-
##JCAMP-DX=4.24
##DATA TYPE=INFRARED SPECTRUM
##ORIGIN=Sadtler Research Labs Under US-EPA Contract
##OWNER=NIST Standard Reference Data Program
##CAS REGISTRY NO=673-22-3
##MOLFORM=C 8 H 8 O 3
##XUNITS=1/CM
##YUNITS=ABSORBANCE
##XFACTOR=1.0
##YFACTOR=0.000161713
##DELTAX=4.0
##FIRSTX=450.0
##LASTX=3966.0
##FIRSTY=0.083605
##MAXX=3966
##MINX=450
##MAXY=1.61713
##MINY=0
##NPOINTS=880
##XYDATA=(X++(Y..Y))
450.0 517 407 417 349 239 91 33 35 8 21
490.0 10 18 17 15 6 12 4 2 24 43
530.0 35 45 65 117 140 161 195 226 252 279
570.0 282 271 263 277 270 302 315 299 291 255
610.0 223 175 154 144 118 111 129 119 132 169
650.0 217 281 405 581 775 1029 1210 1396 1464 1502
690.0 1528 1485 1453 1335 1177 983 815 691 661 650
730.0 515 404 325 267 244 272 370 549 861 1188
770.0 1376 1697 1777 1731 1777 1842 1721 1465 1081 642
810.0 465 459 541 673 765 914 921 810 830 747
850.0 571 474 419 397 403 439 379 302 228 155
890.0 97 70 53 58 63 83 118 169 254 369
930.0 426 429 389 290 181 101 65 47 40 47
970.0 53 65 73 85 101 119 141 161 191 212
1010.0 242 298 395 561 832 1218 1652 2023 2232 2212
1050.0 1962 1568 1086 655 377 246 192 162 139 128
1090.0 134 152 186 242 312 361 415 468 537 701
1130.0 1009 1506 2188 2870 3306 3521 3426 2938 2319 1801
1170.0 1419 1177 1070 1003 1002 967 875 807 720 631
1210.0 584 561 541 563 621 735 931 1252 1784 2518
1250.0 3269 3850 4288 4763 5841 7862 9581 9850 8795 6281
1290.0 3550 2159 1788 1832 2000 2123 2122 2003 1843 1703
1330.0 1624 1614 1633 1651 1605 1497 1400 1379 1457 1554
1370.0 1524 1319 1027 781 711 831 996 1136 1199 1166
1410.0 1055 934 797 731 697 721 759 861 968 1086
1450.0 1220 1345 1508 1779 2157 2651 3528 4985 6814 7949
1490.0 7889 6966 4964 2983 1791 1137 807 608 485 414
1530.0 347 320 290 274 269 277 279 283 333 398
1570.0 515 709 1038 1441 1811 1930 1820 1537 1209 976
1610.0 885 887 932 1015 1069 1096 1031 881 755 749
1650.0 831 1060 1435 2207 3888 6827 9370 10000 9246 6133
1690.0 3181 2001 1698 1626 1520 1305 976 677 479 374
1730.0 318 280 254 219 175 137 111 90 76 71
1770.0 62 60 65 59 56 47 42 40 35 40
1810.0 34 27 28 21 19 10 9 12 4 1
1850.0 7 18 23 32 33 38 50 57 60 64
1890.0 68 75 85 86 75 70 53 39 30 28
1930.0 25 19 15 11 11 14 14 14 14 10
1970.0 9 6 5 4 5 3 5 10 11 11
2010.0 11 9 11 17 28 40 58 78 100 115
2050.0 121 114 102 88 84 81 85 87 86 80
2090.0 68 56 44 31 23 17 12 9 7 6
2130.0 5 5 6 6 5 4 6 6 6 4
2170.0 5 7 7 11 12 15 18 17 17 15
2210.0 12 8 4 2 2 1 2 5 10 15
2250.0 23 30 30 29 22 18 12 7 6 7
2290.0 6 6 6 7 4 2 2 0 0 4
2330.0 7 5 5 5 8 5 8 9 16 18
2370.0 16 15 17 15 16 20 27 31 35 41
2410.0 46 50 52 46 40 32 26 20 19 17
2450.0 18 20 19 20 20 20 20 18 18 17
2490.0 16 14 13 14 13 14 21 24 28 34
2530.0 38 43 46 52 57 63 63 62 58 56
2570.0 52 54 56 58 61 60 63 63 65 65
2610.0 65 61 61 60 61 64 65 67 69 71
2650.0 76 78 82 84 85 87 87 86 87 85
2690.0 82 83 87 95 110 140 190 267 370 479
2730.0 543 571 565 507 432 370 323 293 274 261
2770.0 246 237 236 239 252 271 301 346 407 494
2810.0 619 787 1002 1259 1538 1795 1988 2086 2013 1767
2850.0 1432 1057 749 547 430 366 336 320 320 327
2890.0 346 372 406 452 515 586 650 688 684 672
2930.0 672 698 783 916 1031 1093 1115 1059 874 720
2970.0 601 508 440 403 387 398 441 542 722 942
3010.0 1041 992 835 593 423 379 382 409 447 476
3050.0 477 456 408 354 317 303 302 303 303 295
3090.0 273 253 228 208 200 193 190 186 187 185
3130.0 187 182 183 187 193 203 215 234 256 276
3170.0 298 317 340 364 388 417 445 472 502 535
3210.0 561 589 612 631 649 667 675 683 687 690
3250.0 685 672 653 626 610 589 569 555 540 529
3290.0 515 504 494 483 468 451 438 428 418 417
3330.0 420 430 449 465 466 455 428 404 378 356
3370.0 344 328 321 304 295 283 269 256 246 237
3410.0 229 223 218 214 209 207 201 197 196 189
3450.0 182 179 177 173 166 161 159 156 150 145
3490.0 143 139 133 130 126 127 119 113 112 107
3530.0 105 98 89 85 80 77 82 74 75 67
3570.0 63 59 55 51 48 47 45 41 40 33
3610.0 37 33 27 27 22 28 21 17 19 20
3650.0 23 21 20 15 13 9 4 9 4 3
3690.0 5 1 0 1 3 6 5 0 4 0
3730.0 0 1 4 0 7 0 3 0 0 1
3770.0 0 0 0 0 0 0 0 0 0 0
3810.0 0 0 0 2 0 0 0 0 0 0
3850.0 0 7 4 0 0 2 0 0 0 0
3890.0 0 0 0 0 0 0 0 0 0 0
3930.0 0 0 1 0 0 0 0 0 3 0
##END=
