##TITLE=m-Toluidine, 2,6-diethyl-,
##JCAMP-DX=4.24
##DATA TYPE=INFRARED SPECTRUM
##ORIGIN=Sadtler Research Labs Under US-EPA Contract
##OWNER=NIST Standard Reference Data Program
##CAS REGISTRY NO=67330-61-4
##MOLFORM=C 11 H 17 N
##XUNITS=1/CM
##YUNITS=ABSORBANCE
##XFACTOR=1.0
##YFACTOR=0.000088278
##DELTAX=4.0
##FIRSTX=450.0
##LASTX=3966.0
##FIRSTY=0.241706
##MAXX=3966
##MINX=450
##MAXY=0.88278
##MINY=0
##NPOINTS=880
##XYDATA=(X++(Y..Y))
450.0 2738 856 1170 737 560 1302 702 733 796 623
490.0 772 804 788 660 831 712 797 643 649 639
530.0 681 640 588 647 585 640 611 636 622 655
570.0 629 622 361 769 753 685 779 752 802 791
610.0 848 851 871 884 812 805 809 826 799 790
650.0 737 812 779 783 778 765 757 738 735 707
690.0 703 671 664 614 601 580 558 494 440 437
730.0 426 395 376 371 380 383 435 531 637 804
770.0 951 980 1012 1166 1290 1466 1618 1708 1690 1430
810.0 1089 871 671 496 365 279 218 219 241 267
850.0 289 298 300 240 195 154 136 108 103 91
890.0 80 76 69 68 73 82 87 129 162 221
930.0 280 318 325 303 264 225 215 208 248 211
970.0 188 181 181 173 146 119 93 80 74 62
1010.0 40 80 119 142 168 190 232 267 349 496
1050.0 705 945 1075 1036 847 601 404 328 345 441
1090.0 580 676 670 602 451 296 189 129 104 97
1130.0 108 122 165 226 283 307 286 252 222 213
1170.0 204 183 132 74 37 27 27 51 59 117
1210.0 158 169 173 181 220 257 289 302 302 299
1250.0 313 371 474 615 784 1006 1213 1416 1515 1485
1290.0 1350 1118 925 808 775 794 837 830 754 615
1330.0 443 340 291 273 258 269 294 316 344 363
1370.0 424 535 692 774 714 608 512 448 471 580
1410.0 790 1105 1522 1927 2177 2254 2149 1932 1828 1937
1450.0 2186 2423 2562 2591 2499 2347 2188 2048 1996 2046
1490.0 2011 1796 1406 898 594 431 360 323 306 298
1530.0 284 286 284 304 299 322 333 380 419 471
1570.0 548 615 689 739 795 846 960 1113 1322 1592
1610.0 1968 2499 3126 3673 3844 3610 3022 2243 1624 1155
1650.0 877 711 614 529 468 394 312 245 201 182
1690.0 164 163 157 152 144 154 172 198 205 199
1730.0 189 164 127 86 72 62 61 46 49 40
1770.0 45 38 32 37 33 37 33 27 25 27
1810.0 21 20 21 24 23 25 29 37 65 113
1850.0 160 194 198 179 136 82 42 32 23 19
1890.0 19 15 10 11 9 10 7 7 9 5
1930.0 0 2 7 4 5 1 8 6 7 1
1970.0 7 5 5 5 5 8 7 13 13 11
2010.0 16 22 21 18 20 19 23 22 25 20
2050.0 29 32 29 31 28 29 31 31 32 35
2090.0 41 40 35 39 39 42 41 38 38 41
2130.0 38 39 38 38 39 39 38 37 36 40
2170.0 38 39 38 39 37 35 35 35 37 41
2210.0 39 38 38 41 42 41 36 44 47 46
2250.0 44 48 51 50 51 48 59 65 69 67
2290.0 69 71 70 68 70 68 71 73 75 72
2330.0 71 65 61 58 54 65 65 63 39 45
2370.0 44 33 44 44 48 48 52 50 50 53
2410.0 58 55 52 56 59 69 67 68 67 65
2450.0 59 52 50 46 54 52 52 47 50 54
2490.0 53 53 49 50 48 49 48 54 49 55
2530.0 53 56 58 66 68 61 54 58 62 56
2570.0 57 54 59 62 58 56 53 60 63 66
2610.0 75 93 99 106 110 115 116 106 92 87
2650.0 75 80 76 72 76 75 78 76 79 80
2690.0 88 97 90 96 100 102 103 111 118 139
2730.0 168 203 244 262 253 230 198 178 181 190
2770.0 198 209 226 242 254 260 271 276 289 303
2810.0 315 332 351 392 431 478 546 652 775 929
2850.0 1097 1306 1561 1902 2355 2926 3612 4360 4932 5112
2890.0 4857 4331 3743 3270 2975 2866 2922 3119 3465 3930
2930.0 4520 5150 5693 5972 5891 5534 5199 5184 5855 7432
2970.0 9275 10000 9462 7533 5220 3483 2411 1788 1468 1337
3010.0 1350 1420 1546 1665 1729 1751 1733 1724 1677 1599
3050.0 1494 1364 1241 1157 1104 1031 962 875 766 656
3090.0 566 490 422 373 348 298 273 244 214 227
3130.0 217 209 215 209 207 212 201 206 190 181
3170.0 172 156 159 135 132 110 110 111 110 102
3210.0 99 96 95 90 93 100 86 83 88 80
3250.0 81 80 80 83 77 69 79 61 75 75
3290.0 63 78 80 82 77 68 94 74 76 70
3330.0 87 102 86 79 76 63 84 78 63 78
3370.0 73 42 62 72 67 71 82 110 133 181
3410.0 247 287 310 327 302 259 178 154 139 120
3450.0 131 116 138 140 165 191 221 291 376 528
3490.0 696 808 896 894 739 598 439 338 252 192
3530.0 154 136 137 96 67 74 82 109 77 83
3570.0 110 58 84 126 88 73 38 56 73 87
3610.0 68 56 63 88 83 50 54 41 48 65
3650.0 65 67 53 55 57 69 60 47 37 44
3690.0 49 81 53 59 62 52 57 93 85 48
3730.0 77 61 73 91 82 75 80 87 58 72
3770.0 72 48 40 51 134 65 83 52 42 66
3810.0 77 25 83 93 92 74 62 59 73 90
3850.0 60 81 74 79 84 45 91 65 62 91
3890.0 97 67 79 98 56 100 89 70 70 102
3930.0 71 126 56 135 116 116 101 111 73 116
##END=
