##TITLE=1,1'-Biphenyl, 2-phenoxy-
##JCAMP-DX=4.24
##DATA TYPE=INFRARED SPECTRUM
##ORIGIN=Sadtler Research Labs Under US-EPA Contract
##OWNER=NIST Standard Reference Data Program
##CAS REGISTRY NO=6738-04-1
##MOLFORM=C 18 H 14 O
##XUNITS=1/CM
##YUNITS=ABSORBANCE
##XFACTOR=1.0
##YFACTOR=0.000075809
##DELTAX=4.0
##FIRSTX=450.0
##LASTX=3966.0
##FIRSTY=0.019028
##MAXX=3966
##MINX=450
##MAXY=0.75809
##MINY=0
##NPOINTS=880
##XYDATA=(X++(Y..Y))
450.0 251 283 157 342 725 483 644 755 701 482
490.0 652 615 648 481 320 501 689 355 420 571
530.0 351 482 873 627 541 464 294 246 330 381
570.0 314 233 276 123 288 242 403 290 351 384
610.0 422 520 526 330 346 282 271 318 241 327
650.0 400 384 547 547 531 700 719 862 1104 1729
690.0 2588 3064 3142 2343 1498 1026 778 877 902 1021
730.0 1474 2306 3000 3726 4242 4276 3664 2583 1842 1470
770.0 1074 718 442 234 141 65 96 79 108 149
810.0 32 84 79 95 160 114 126 176 184 174
850.0 232 382 517 884 1443 1967 2010 1483 805 363
890.0 492 451 345 249 248 281 269 252 248 279
930.0 225 226 253 274 247 179 157 174 137 139
970.0 148 126 118 104 117 145 178 160 186 337
1010.0 504 382 241 71 61 25 30 167 355 508
1050.0 541 459 370 421 558 695 691 493 372 322
1090.0 312 364 459 600 888 1039 1015 850 656 583
1130.0 567 558 581 579 633 691 804 1014 1245 1255
1170.0 990 740 682 681 715 712 759 908 1166 1600
1210.0 2389 3631 5318 7105 8634 9674 10000 9258 7591 6211
1250.0 5634 5138 4106 2670 1827 1534 1498 1450 1413 1333
1290.0 1214 1075 974 875 799 737 685 679 663 704
1330.0 759 710 607 498 432 399 351 359 360 347
1370.0 357 379 427 416 426 406 407 436 474 563
1410.0 646 723 816 1026 1334 1785 2232 2407 2307 2152
1450.0 2089 2276 2294 2448 2757 3719 5064 6046 5979 6015
1490.0 6787 6683 4938 3062 1972 1399 924 760 708 643
1530.0 602 606 662 724 798 839 1035 1282 1607 1924
1570.0 2336 2681 2788 3070 3155 3459 3764 3137 2766 2098
1610.0 1523 1250 962 796 657 606 532 525 484 447
1650.0 514 484 450 325 354 289 294 273 293 283
1690.0 242 236 295 318 239 212 213 250 212 180
1730.0 249 205 276 224 227 228 220 242 261 262
1770.0 318 355 296 284 301 305 338 331 313 290
1810.0 259 236 218 226 228 250 221 243 224 234
1850.0 214 206 207 202 226 257 267 248 241 246
1890.0 237 225 207 237 257 294 279 281 288 301
1930.0 306 329 365 380 343 273 243 240 183 169
1970.0 156 158 144 141 141 136 142 137 134 142
2010.0 145 166 181 193 192 196 206 194 192 179
2050.0 170 167 164 167 155 145 139 132 118 113
2090.0 101 93 113 107 109 102 98 91 85 95
2130.0 95 90 89 80 92 85 82 77 96 89
2170.0 89 83 86 91 86 89 85 86 87 88
2210.0 82 84 84 80 81 81 76 79 79 77
2250.0 84 79 78 83 84 80 82 76 74 85
2290.0 83 84 80 96 97 104 134 112 137 123
2330.0 121 132 138 135 132 127 155 151 173 122
2370.0 129 111 102 105 103 109 120 131 127 127
2410.0 135 148 158 159 152 157 140 133 124 109
2450.0 102 100 103 94 88 80 79 75 72 69
2490.0 66 59 53 58 55 62 48 59 63 54
2530.0 51 49 45 52 54 56 60 57 56 56
2570.0 62 61 61 50 52 45 42 48 48 43
2610.0 39 49 49 44 40 37 45 31 29 30
2650.0 26 30 31 30 24 30 24 27 31 29
2690.0 40 39 26 30 45 32 35 34 31 35
2730.0 33 38 38 34 34 14 16 15 32 30
2770.0 33 33 45 41 47 53 54 56 59 67
2810.0 83 92 103 121 135 161 195 251 342 486
2850.0 677 832 829 684 540 452 410 392 379 390
2890.0 429 482 541 621 710 840 1034 1287 1533 1678
2930.0 1607 1384 1091 837 642 505 414 328 251 172
2970.0 134 117 117 105 103 105 117 125 132 169
3010.0 223 302 433 613 849 1111 1324 1423 1425 1381
3050.0 1306 1286 1400 1716 2165 2525 2630 2496 2181 1813
3090.0 1431 1130 912 716 547 398 284 199 145 125
3130.0 88 78 74 65 75 61 55 45 31 28
3170.0 26 19 16 19 22 15 21 9 13 21
3210.0 14 12 4 0 1 3 14 13 5 15
3250.0 13 21 10 11 16 15 14 14 15 32
3290.0 21 28 25 31 22 27 20 25 30 41
3330.0 29 40 45 47 36 40 43 45 38 49
3370.0 54 52 40 39 59 44 56 72 52 63
3410.0 46 52 55 47 64 49 60 51 46 60
3450.0 43 58 52 31 40 40 51 48 36 53
3490.0 43 30 27 12 23 32 31 24 36 29
3530.0 23 36 24 27 30 17 71 40 50 18
3570.0 48 59 62 67 33 52 51 56 51 65
3610.0 48 40 72 49 76 67 75 62 81 62
3650.0 95 74 110 59 77 65 102 110 76 95
3690.0 76 117 55 69 73 83 81 52 67 63
3730.0 55 80 81 74 135 91 94 43 64 67
3770.0 83 81 39 61 63 84 80 67 123 105
3810.0 96 61 129 76 78 76 126 100 100 110
3850.0 99 147 141 97 91 108 90 102 97 57
3890.0 62 152 69 86 119 86 127 107 92 96
3930.0 140 52 98 129 130 97 127 114 111 97
##END=
