##TITLE=Benzene, undecyl-
##JCAMP-DX=4.24
##DATA TYPE=INFRARED SPECTRUM
##ORIGIN=Sadtler Research Labs Under US-EPA Contract
##OWNER=NIST Standard Reference Data Program
##CAS REGISTRY NO=6742-54-7
##MOLFORM=C 17 H 28
##XUNITS=1/CM
##YUNITS=ABSORBANCE
##XFACTOR=1.0
##YFACTOR=0.000124438
##DELTAX=4.0
##FIRSTX=450.0
##LASTX=3966.0
##FIRSTY=0.000000
##MAXX=3966
##MINX=450
##MAXY=1.24438
##MINY=0
##NPOINTS=880
##XYDATA=(X++(Y..Y))
450.0 0 74 132 142 112 104 109 153 141 144
490.0 176 170 164 141 154 151 143 127 145 131
530.0 128 116 107 74 73 86 93 121 144 139
570.0 158 154 144 119 107 97 93 95 97 73
610.0 83 77 71 62 74 89 79 72 82 89
650.0 100 110 122 137 131 212 218 276 352 479
690.0 708 1095 1318 1107 803 672 630 605 617 636
730.0 697 779 874 903 807 622 475 376 309 249
770.0 211 185 164 150 143 134 128 116 118 119
810.0 112 117 125 125 119 127 127 111 104 103
850.0 106 100 95 98 98 102 101 101 112 114
890.0 122 128 133 149 164 162 154 149 145 143
930.0 141 141 140 136 131 128 134 132 136 134
970.0 126 122 114 110 111 109 111 121 125 125
1010.0 131 136 148 171 220 275 256 180 147 139
1050.0 144 158 168 167 171 173 166 159 150 137
1090.0 126 121 116 112 114 116 118 117 107 95
1130.0 88 83 83 85 86 95 103 107 107 112
1170.0 114 122 136 142 135 133 137 147 159 163
1210.0 158 152 160 172 173 164 164 170 158 140
1250.0 132 132 138 145 157 161 163 165 167 172
1290.0 179 184 200 211 221 222 222 215 204 200
1330.0 203 219 247 279 310 342 357 341 320 305
1370.0 298 276 258 258 245 203 167 147 132 132
1410.0 128 135 141 151 166 195 246 336 417 566
1450.0 718 821 888 887 837 720 570 418 324 302
1490.0 364 502 611 492 283 174 127 109 104 95
1530.0 92 93 89 88 81 78 75 81 85 82
1570.0 89 98 118 136 157 184 218 262 316 348
1610.0 300 199 137 104 87 82 79 83 78 83
1650.0 77 89 78 75 71 76 77 83 93 116
1690.0 138 179 221 252 253 252 258 273 266 264
1730.0 266 257 191 145 124 114 105 97 90 87
1770.0 89 86 85 86 92 104 124 122 106 90
1810.0 82 77 74 68 66 63 63 63 63 67
1850.0 68 74 78 83 85 89 86 88 83 76
1890.0 74 68 64 60 60 61 63 68 71 78
1930.0 88 99 109 106 102 105 108 95 75 67
1970.0 60 61 59 59 59 59 59 59 59 60
2010.0 61 60 64 63 67 67 68 65 66 63
2050.0 64 66 63 61 62 63 62 63 60 62
2090.0 62 59 60 61 60 63 62 59 60 59
2130.0 61 61 62 62 62 64 65 64 68 66
2170.0 68 66 66 67 66 64 65 63 62 64
2210.0 65 65 64 63 64 63 66 66 65 66
2250.0 67 69 69 69 68 67 67 67 65 64
2290.0 66 63 69 71 67 69 71 70 66 64
2330.0 67 79 77 84 89 76 78 72 89 93
2370.0 97 94 93 83 76 76 75 71 69 71
2410.0 71 71 68 67 65 66 66 70 67 68
2450.0 70 70 66 69 67 68 69 70 70 70
2490.0 71 71 69 71 73 73 75 75 78 80
2530.0 80 82 83 84 82 84 82 84 85 87
2570.0 88 89 90 92 94 95 96 99 101 103
2610.0 105 107 105 110 111 115 116 119 120 122
2650.0 126 128 130 134 137 139 146 153 156 154
2690.0 157 156 155 152 153 152 156 161 169 167
2730.0 166 171 175 171 166 163 161 160 162 166
2770.0 165 174 181 195 208 224 245 261 279 293
2810.0 307 326 352 379 412 456 512 591 713 925
2850.0 1300 1958 2910 3762 3928 3442 2768 2242 1984 1844
2890.0 1713 1668 1773 2026 2404 2863 3409 4180 5379 7167
2930.0 9091 10000 9420 7885 6017 4386 3285 2758 2674 2775
2970.0 2728 2273 1617 1142 869 706 604 542 510 510
3010.0 513 513 546 638 803 1013 1161 1081 826 621
3050.0 515 480 503 584 733 929 962 772 620 559
3090.0 528 470 393 334 301 276 245 202 169 146
3130.0 130 119 111 110 106 105 106 103 105 105
3170.0 101 100 94 91 90 89 89 83 83 81
3210.0 81 78 80 77 73 76 75 73 72 73
3250.0 71 70 71 72 76 71 79 73 71 67
3290.0 65 65 69 70 69 64 66 66 69 70
3330.0 71 71 68 71 70 71 73 69 74 76
3370.0 77 76 76 69 71 72 72 73 71 72
3410.0 74 76 73 73 72 76 71 74 68 76
3450.0 71 69 67 69 72 71 74 70 70 69
3490.0 65 70 71 75 75 76 72 67 64 66
3530.0 71 66 65 70 67 65 70 71 65 66
3570.0 70 70 71 71 67 71 71 71 71 69
3610.0 72 77 72 79 74 80 74 73 76 80
3650.0 84 85 82 79 79 76 71 73 74 69
3690.0 65 68 66 69 70 72 68 75 70 70
3730.0 70 69 73 63 76 63 70 64 65 70
3770.0 59 60 68 73 66 70 70 59 74 70
3810.0 74 66 70 75 62 64 64 66 69 64
3850.0 65 80 71 72 74 71 70 63 76 74
3890.0 68 69 66 59 72 68 70 77 73 74
3930.0 73 67 69 65 73 69 77 75 67 76
##END=
