##TITLE=2,5-Dimethyl-para-anisaldehyde
##JCAMP-DX=4.24
##DATA TYPE=INFRARED SPECTRUM
##ORIGIN=Sadtler Research Labs Under US-EPA Contract
##OWNER=NIST Standard Reference Data Program
##CAS REGISTRY NO=6745-75-1
##MOLFORM=C 10 H 12 O 2
##XUNITS=1/CM
##YUNITS=ABSORBANCE
##XFACTOR=1.0
##YFACTOR=0.000159659
##DELTAX=4.0
##FIRSTX=450.0
##LASTX=3966.0
##FIRSTY=0.043747
##MAXX=3966
##MINX=450
##MAXY=1.59659
##MINY=0
##NPOINTS=880
##XYDATA=(X++(Y..Y))
450.0 274 258 228 207 155 76 55 80 53 53
490.0 51 57 70 76 109 149 186 216 246 255
530.0 290 384 474 537 534 457 306 168 101 80
570.0 52 36 39 37 44 82 151 171 190 173
610.0 155 148 156 151 133 82 43 28 17 9
650.0 6 21 26 59 73 147 165 147 131 80
690.0 46 40 39 42 42 33 36 42 51 60
730.0 69 92 125 198 258 299 305 302 344 469
770.0 713 892 934 845 629 422 336 298 268 241
810.0 215 197 172 155 160 198 248 343 451 506
850.0 515 426 345 255 184 168 195 239 304 388
890.0 383 320 282 242 205 157 112 83 57 43
930.0 36 28 29 32 40 47 62 77 94 113
970.0 133 150 171 204 238 284 324 354 379 404
1010.0 429 448 455 440 402 357 318 290 272 266
1050.0 278 297 335 398 506 682 958 1413 2113 3044
1090.0 4041 4965 5638 5803 5186 4181 2819 1592 909 584
1130.0 408 311 261 237 229 232 241 241 237 234
1170.0 228 232 241 254 274 296 339 401 481 551
1210.0 614 679 713 722 743 764 868 1169 1768 2846
1250.0 4434 5951 6593 6328 4973 3571 2885 2605 2321 2056
1290.0 1750 1540 1596 1863 2248 2647 2929 2941 2674 2157
1330.0 1581 1103 777 636 574 524 503 519 582 690
1370.0 750 740 720 702 652 610 551 467 442 443
1410.0 441 488 413 456 455 504 534 654 818 927
1450.0 1005 1077 1166 1402 1639 1653 1497 1293 1051 886
1490.0 946 1256 1655 2069 2203 2053 1700 1201 839 710
1530.0 654 678 724 787 990 1240 1504 1713 2040 2268
1570.0 2362 2309 2134 1857 1608 1455 1527 1864 2480 3165
1610.0 3546 3415 2773 1917 1178 776 507 375 330 287
1650.0 227 224 286 316 364 416 453 602 707 1014
1690.0 1584 2442 3547 5460 8013 10000 9201 7717 3554 1343
1730.0 567 311 230 192 136 113 129 125 130 145
1770.0 128 111 141 116 117 98 90 94 77 106
1810.0 94 91 96 90 77 66 70 74 45 28
1850.0 49 64 60 60 45 25 49 53 52 44
1890.0 31 29 26 27 20 19 13 12 3 15
1930.0 19 16 19 5 10 14 17 12 15 11
1970.0 17 27 32 36 40 35 36 44 45 47
2010.0 47 44 39 41 44 41 43 38 36 36
2050.0 37 37 42 45 44 55 56 59 57 61
2090.0 60 65 71 74 78 76 73 63 51 38
2130.0 29 20 14 10 5 3 2 3 1 2
2170.0 0 1 0 0 3 0 2 1 1 0
2210.0 0 0 0 1 2 3 5 8 8 9
2250.0 9 11 14 14 18 19 22 24 28 29
2290.0 32 37 36 34 38 46 40 42 44 39
2330.0 39 40 36 25 60 33 44 24 22 18
2370.0 26 14 19 18 21 17 17 19 18 20
2410.0 21 21 22 25 23 24 24 26 26 23
2450.0 26 23 21 20 22 17 17 18 17 17
2490.0 16 18 18 20 22 26 25 26 24 23
2530.0 23 22 23 21 27 29 34 41 48 56
2570.0 65 72 80 88 91 98 98 100 100 95
2610.0 88 82 77 75 75 75 79 77 79 78
2650.0 76 79 79 85 89 101 109 125 142 179
2690.0 237 347 552 875 1308 1572 1628 1561 1218 873
2730.0 686 601 600 641 688 710 689 626 536 451
2770.0 387 346 332 338 362 392 413 436 452 458
2810.0 462 469 491 532 620 766 967 1172 1313 1371
2850.0 1319 1189 1071 982 931 900 856 805 746 691
2890.0 656 645 661 694 747 814 897 1000 1106 1238
2930.0 1451 1722 1933 2087 2090 1918 1758 1607 1530 1494
2970.0 1363 1229 1124 1027 944 875 833 847 959 1134
3010.0 1239 1217 1083 850 663 544 449 394 364 351
3050.0 345 342 337 341 337 325 302 268 237 203
3090.0 181 160 148 142 140 137 133 133 126 120
3130.0 106 90 75 61 52 48 44 43 42 41
3170.0 40 41 40 39 35 36 28 23 18 17
3210.0 14 12 10 8 10 8 8 6 10 10
3250.0 8 9 8 11 9 12 12 12 11 8
3290.0 8 11 12 13 15 11 11 13 14 16
3330.0 12 12 11 10 12 12 13 16 17 21
3370.0 27 38 46 53 61 64 72 86 106 109
3410.0 106 74 35 16 4 2 1 4 0 6
3450.0 4 8 10 11 12 9 4 6 11 9
3490.0 7 9 9 7 7 9 8 7 10 10
3530.0 4 11 3 2 10 9 9 7 8 13
3570.0 13 10 9 7 12 14 10 8 7 6
3610.0 10 12 4 6 5 9 5 7 9 10
3650.0 22 13 14 9 10 14 6 15 7 13
3690.0 7 14 7 11 8 10 11 7 12 7
3730.0 11 14 18 11 14 6 17 10 12 10
3770.0 11 8 7 6 0 7 4 10 5 14
3810.0 5 5 10 15 9 1 7 14 10 18
3850.0 12 16 17 17 16 16 13 9 6 14
3890.0 8 12 7 7 10 13 15 15 18 10
3930.0 11 9 7 7 18 11 7 15 13 8
##END=
