##TITLE=2-Piperidinone
##JCAMP-DX=4.24
##DATA TYPE=INFRARED SPECTRUM
##ORIGIN=Sadtler Research Labs Under US-EPA Contract
##OWNER=NIST Standard Reference Data Program
##CAS REGISTRY NO=675-20-7
##MOLFORM=C 5 H 9 N O
##XUNITS=1/CM
##YUNITS=ABSORBANCE
##XFACTOR=1.0
##YFACTOR=0.000217392
##DELTAX=4.0
##FIRSTX=450.0
##LASTX=3966.0
##FIRSTY=0.077174
##MAXX=3966
##MINX=450
##MAXY=2.17392
##MINY=0
##NPOINTS=880
##XYDATA=(X++(Y..Y))
450.0 355 291 225 161 356 413 329 420 327 454
490.0 590 400 396 503 493 459 512 502 507 502
530.0 437 302 328 225 269 188 143 200 159 129
570.0 174 152 200 160 179 212 230 271 326 388
610.0 459 546 648 782 850 959 954 984 913 842
650.0 806 714 628 519 462 385 309 268 198 191
690.0 171 147 131 131 126 120 107 114 117 105
730.0 130 146 155 184 204 136 195 199 165 172
770.0 163 175 142 115 116 98 91 90 92 109
810.0 122 123 123 123 140 112 103 123 91 70
850.0 65 28 45 4 20 69 53 109 45 101
890.0 101 88 89 58 108 144 201 252 314 360
930.0 379 354 334 323 292 227 155 117 111 108
970.0 96 122 139 136 154 159 179 161 137 121
1010.0 99 82 66 60 63 71 91 108 140 195
1050.0 221 256 259 282 306 296 239 193 193 239
1090.0 341 382 465 508 482 459 432 445 380 329
1130.0 297 296 366 446 568 721 831 914 915 930
1170.0 912 850 701 501 387 290 234 178 133 126
1210.0 124 140 139 167 189 224 252 300 339 393
1250.0 420 444 496 529 578 683 805 957 1138 1292
1290.0 1494 1583 1537 1499 1460 1406 1269 1121 1005 991
1330.0 1117 1335 1576 1625 1520 1461 1442 1363 1203 906
1370.0 712 590 500 477 454 435 391 356 329 311
1410.0 387 450 606 660 696 763 870 1002 983 977
1450.0 1014 1088 1125 1105 896 778 843 828 703 643
1490.0 558 435 438 401 334 369 216 194 155 127
1530.0 129 117 98 79 88 98 53 78 50 51
1570.0 45 39 65 46 63 65 66 83 90 111
1610.0 117 129 149 174 176 172 163 180 178 174
1650.0 199 210 290 297 354 494 527 808 1111 1625
1690.0 2654 3465 5346 6512 7198 9796 8227 10000 8427 7509
1730.0 6362 4577 3546 2292 1562 1142 830 632 482 362
1770.0 298 262 236 249 247 237 251 258 269 256
1810.0 223 242 193 191 166 149 116 96 95 101
1850.0 81 56 58 62 52 65 39 31 33 32
1890.0 31 34 24 28 24 34 31 36 46 33
1930.0 26 25 26 30 34 13 19 24 7 24
1970.0 18 14 13 12 15 21 22 12 6 12
2010.0 5 11 15 11 9 13 13 14 19 18
2050.0 14 19 17 17 27 15 14 14 13 18
2090.0 19 19 17 14 15 12 17 9 7 6
2130.0 2 2 6 1 2 0 2 1 2 2
2170.0 0 6 6 6 9 8 9 13 15 17
2210.0 14 15 15 13 12 9 8 6 8 7
2250.0 7 7 9 9 11 11 11 12 12 11
2290.0 8 8 9 6 7 6 9 9 8 12
2330.0 12 7 18 11 8 11 9 12 20 14
2370.0 14 12 8 6 7 5 4 4 4 2
2410.0 2 0 4 1 1 2 5 5 6 5
2450.0 6 8 9 11 12 11 12 13 12 11
2490.0 11 11 12 8 7 8 6 5 7 8
2530.0 7 7 7 6 6 8 11 9 9 8
2570.0 7 9 9 9 9 13 12 12 14 13
2610.0 17 15 15 20 19 21 17 22 24 24
2650.0 22 25 24 28 27 26 30 33 30 33
2690.0 36 34 36 34 33 36 33 36 37 37
2730.0 38 38 43 43 46 47 49 57 60 69
2770.0 78 90 103 114 124 141 153 161 168 178
2810.0 187 195 204 216 230 245 272 308 371 464
2850.0 591 740 894 1055 1237 1323 1342 1303 1258 1149
2890.0 1014 880 790 737 728 764 853 1007 1173 1366
2930.0 1564 1813 2216 2629 2783 2866 2890 2848 2503 2237
2970.0 1941 1505 1105 831 655 534 439 345 268 193
3010.0 143 111 92 82 71 71 65 62 58 56
3050.0 56 53 56 52 50 46 43 45 41 38
3090.0 33 33 32 26 26 21 26 25 28 22
3130.0 25 30 30 33 33 36 43 39 41 40
3170.0 38 39 33 34 27 31 31 22 28 27
3210.0 30 28 26 28 25 25 26 26 24 27
3250.0 26 22 26 26 27 27 26 21 28 20
3290.0 21 20 18 17 22 19 21 18 21 18
3330.0 24 24 24 18 24 22 24 21 32 26
3370.0 27 28 33 44 53 65 82 101 126 147
3410.0 188 240 311 406 500 545 540 516 522 512
3450.0 430 315 224 166 115 86 62 53 53 47
3490.0 24 32 18 50 32 40 21 26 31 62
3530.0 32 33 30 36 41 53 17 32 7 73
3570.0 50 28 11 26 41 49 30 20 38 15
3610.0 39 20 40 24 19 26 26 15 25 25
3650.0 28 26 15 14 11 19 2 27 15 25
3690.0 11 18 20 28 24 27 49 33 33 63
3730.0 28 56 41 34 40 5 24 25 31 26
3770.0 24 20 6 24 25 28 22 21 18 27
3810.0 19 24 0 39 22 34 27 28 39 30
3850.0 26 18 46 34 25 38 26 47 50 51
3890.0 24 47 45 85 58 19 36 44 67 37
3930.0 66 53 57 58 66 49 45 34 56 45
##END=
