##TITLE=Propionic acid, 3-(p-chlorophenoxy)-, ethyl ester
##JCAMP-DX=4.24
##DATA TYPE=INFRARED SPECTRUM
##ORIGIN=Sadtler Research Labs Under US-EPA Contract
##OWNER=NIST Standard Reference Data Program
##CAS REGISTRY NO=67829-74-7
##MOLFORM=C 11 H 13 Cl O 3
##XUNITS=1/CM
##YUNITS=ABSORBANCE
##XFACTOR=1.0
##YFACTOR=0.000106342
##DELTAX=4.0
##FIRSTX=450.0
##LASTX=3966.0
##FIRSTY=0.013612
##MAXX=3966
##MINX=450
##MAXY=1.06342
##MINY=0
##NPOINTS=880
##XYDATA=(X++(Y..Y))
450.0 128 204 119 167 167 267 464 119 315 253
490.0 445 285 296 734 557 332 455 359 326 356
530.0 395 345 288 224 206 156 161 173 189 242
570.0 88 146 107 146 151 136 161 118 145 178
610.0 252 298 333 463 588 664 831 834 722 680
650.0 630 775 855 916 959 848 692 494 416 403
690.0 379 357 324 266 298 274 263 225 250 251
730.0 147 149 167 126 29 224 188 159 163 159
770.0 171 207 273 296 340 384 471 509 543 633
810.0 794 1010 1400 1836 2056 1877 1584 1248 981 696
850.0 637 674 553 269 327 294 351 226 268 211
890.0 275 328 321 321 377 420 454 444 423 401
930.0 372 383 362 335 309 279 234 213 221 226
970.0 247 263 311 342 404 459 561 729 1032 1641
1010.0 2039 1990 1919 2480 3173 3920 4549 4738 4692 4102
1050.0 3314 2612 2075 1823 1724 1688 1681 1631 1618 1778
1090.0 2390 3106 3377 2926 2052 1454 1211 1076 896 834
1130.0 793 807 904 1024 1262 1583 2114 2944 4345 6074
1170.0 7290 7419 7422 7935 7666 6810 5850 4966 4399 4129
1210.0 4186 4523 5130 6020 6796 7704 8346 8365 8033 6865
1250.0 5664 4855 4298 4125 4030 3961 3919 3749 3635 3279
1290.0 2911 2567 2295 2115 1964 1942 1901 1880 1849 1718
1330.0 1550 1354 1254 1240 1243 1261 1210 1090 1010 1098
1370.0 1293 1466 1483 1459 1581 1714 1717 1601 1392 1209
1410.0 1086 972 978 930 876 819 754 767 727 759
1450.0 805 820 1017 1240 1715 2403 2725 3031 3642 5174
1490.0 7803 10000 7578 4061 2084 1167 863 661 618 472
1530.0 400 366 299 334 337 263 294 350 292 340
1570.0 368 504 652 845 971 1063 1269 1229 1146 905
1610.0 530 390 280 252 236 189 221 193 172 186
1650.0 165 237 153 174 163 168 179 181 214 254
1690.0 245 269 351 399 454 496 614 761 875 1072
1730.0 1339 1763 2367 3103 3994 5223 5792 6739 6540 5300
1770.0 4127 2686 1925 1389 1014 792 608 496 397 314
1810.0 271 224 205 182 174 176 155 146 176 167
1850.0 169 152 161 180 198 219 189 183 160 153
1890.0 156 129 125 100 91 97 94 86 95 88
1930.0 84 85 84 82 77 80 77 75 70 64
1970.0 67 52 52 51 47 53 53 60 59 63
2010.0 72 77 95 94 100 110 115 124 125 120
2050.0 121 110 108 109 111 112 105 105 97 95
2090.0 83 78 71 64 55 49 44 42 38 31
2130.0 31 27 20 15 11 13 13 12 6 5
2170.0 5 1 5 4 1 3 2 4 5 5
2210.0 7 14 11 10 16 15 16 19 20 18
2250.0 20 26 28 32 29 37 36 38 41 42
2290.0 41 40 37 34 36 33 27 26 21 22
2330.0 20 24 8 26 2 37 1 21 2 22
2370.0 29 34 39 40 45 47 44 46 46 42
2410.0 46 43 43 44 39 40 39 43 39 39
2450.0 40 41 44 44 48 47 46 48 47 47
2490.0 49 49 51 53 57 59 58 57 56 52
2530.0 58 53 50 41 41 40 35 31 29 29
2570.0 31 29 26 28 24 22 20 22 19 17
2610.0 17 19 18 16 18 18 16 13 14 17
2650.0 19 20 18 27 25 21 24 18 22 22
2690.0 31 29 27 30 27 28 31 34 38 40
2730.0 47 51 56 61 61 63 64 67 71 71
2770.0 71 71 71 67 66 65 66 71 76 82
2810.0 94 101 110 118 127 124 127 128 132 137
2850.0 153 171 184 205 236 273 328 408 514 627
2890.0 703 739 742 724 707 696 700 690 693 729
2930.0 818 961 1133 1278 1338 1295 1179 1076 1045 1069
2970.0 1138 1232 1379 1629 1899 1980 1780 1486 1224 1007
3010.0 817 660 525 419 354 313 298 303 323 352
3050.0 345 316 252 223 201 200 203 201 217 225
3090.0 232 256 274 281 254 213 167 117 80 78
3130.0 70 59 53 49 50 50 48 43 44 40
3170.0 33 42 40 37 35 38 38 27 32 31
3210.0 34 32 34 28 30 22 29 27 25 22
3250.0 16 25 15 22 19 17 30 24 19 18
3290.0 14 24 24 16 24 18 15 30 22 20
3330.0 21 22 18 25 30 13 20 29 24 21
3370.0 26 16 24 14 16 16 20 24 22 22
3410.0 17 19 25 18 21 19 27 25 20 33
3450.0 28 38 33 38 31 46 46 43 59 67
3490.0 72 68 71 64 55 57 50 46 37 22
3530.0 31 18 26 22 28 21 28 22 27 27
3570.0 26 24 32 15 39 5 40 18 39 17
3610.0 25 41 25 42 11 46 36 31 28 68
3650.0 38 101 41 65 28 61 32 30 42 15
3690.0 53 27 37 30 40 27 52 36 53 24
3730.0 44 49 36 68 3 90 0 60 21 55
3770.0 32 27 29 31 30 45 25 49 3 67
3810.0 3 66 30 54 41 33 41 60 37 41
3850.0 29 78 53 26 57 29 36 32 29 60
3890.0 79 55 43 46 81 34 35 33 14 41
3930.0 27 56 67 30 59 48 70 32 54 63
##END=
