##TITLE=Acetic acid, mercapto-
##JCAMP-DX=4.24
##DATA TYPE=INFRARED SPECTRUM
##ORIGIN=Sadtler Research Labs Under US-EPA Contract
##OWNER=NIST Standard Reference Data Program
##CAS REGISTRY NO=68-11-1
##MOLFORM=C 2 H 4 O 2 S
##XUNITS=1/CM
##YUNITS=ABSORBANCE
##XFACTOR=1.0
##YFACTOR=0.000063284
##DELTAX=4.0
##FIRSTX=450.0
##LASTX=3966.0
##FIRSTY=0.023352
##MAXX=3966
##MINX=450
##MAXY=0.63284
##MINY=0
##NPOINTS=880
##XYDATA=(X++(Y..Y))
450.0 369 317 211 345 168 577 443 608 488 486
490.0 840 794 793 759 904 1062 996 1133 1344 1402
530.0 1208 1324 1422 1376 1341 1306 1298 1356 1485 1615
570.0 1841 1859 1979 2222 2358 2361 2398 2446 2447 2356
610.0 2207 2152 2088 1977 1841 1796 1638 1588 1572 1489
650.0 1490 1555 1770 1667 1691 1696 1544 1467 1328 1226
690.0 988 951 871 687 530 438 465 496 497 474
730.0 378 402 463 288 270 528 423 392 357 303
770.0 356 263 230 279 228 265 199 216 215 268
810.0 194 145 289 235 163 241 294 228 246 220
850.0 249 237 247 229 223 271 288 301 252 222
890.0 213 263 201 205 194 218 191 172 173 172
930.0 177 164 185 196 212 199 241 245 282 304
970.0 335 346 404 438 450 451 488 482 463 449
1010.0 411 365 375 352 357 367 358 374 398 423
1050.0 453 519 579 648 768 889 1097 1384 1734 2248
1090.0 2888 3648 4572 5590 6667 7537 8000 8219 8249 7862
1130.0 7352 6214 4898 3865 3164 2721 2384 2158 1986 1856
1170.0 1804 1766 1777 1804 1868 1940 1971 2002 1986 1871
1210.0 1766 1640 1493 1355 1211 1127 1085 1051 1046 1043
1250.0 1040 1036 1039 1036 1008 980 949 896 865 834
1290.0 813 826 844 895 957 1054 1166 1270 1392 1531
1330.0 1672 1809 1925 1993 2001 1969 1912 1762 1614 1391
1370.0 1204 1034 845 703 578 520 498 495 526 563
1410.0 649 733 807 819 840 825 767 694 543 439
1450.0 365 326 278 238 211 182 179 163 147 143
1490.0 176 138 99 117 74 160 138 110 91 85
1530.0 98 102 36 52 81 117 73 18 55 60
1570.0 62 63 53 89 86 89 77 78 87 70
1610.0 91 60 56 56 73 70 55 57 69 63
1650.0 55 3 75 92 88 101 95 146 134 143
1690.0 184 236 224 337 462 560 675 759 919 1048
1730.0 1167 1352 1538 1796 2096 2491 3057 3726 4638 5739
1770.0 7025 8324 9374 10000 9942 9849 9997 9802 8402 6393
1810.0 4721 3446 2451 1679 1112 788 543 423 325 253
1850.0 220 169 155 144 120 122 101 95 86 79
1890.0 85 77 70 72 61 71 63 64 79 67
1930.0 67 69 67 70 72 68 69 78 77 82
1970.0 86 88 91 91 91 101 105 95 83 81
2010.0 77 66 67 52 49 51 43 45 39 33
2050.0 36 39 35 35 38 33 30 30 34 30
2090.0 34 34 33 31 28 40 39 36 35 31
2130.0 30 31 33 30 28 28 28 30 27 26
2170.0 34 33 34 41 41 41 45 46 53 52
2210.0 53 54 51 56 59 60 53 49 52 47
2250.0 49 45 39 38 33 34 38 40 43 44
2290.0 52 57 69 72 77 77 75 55 45 39
2330.0 34 28 26 27 56 44 44 30 29 39
2370.0 27 51 63 64 54 52 47 39 39 43
2410.0 43 46 50 55 52 61 61 58 64 70
2450.0 65 64 69 66 69 64 67 61 59 67
2490.0 58 56 57 51 56 56 54 49 47 50
2530.0 43 49 51 58 58 55 52 53 49 60
2570.0 59 62 65 73 90 98 97 97 100 101
2610.0 91 78 64 62 58 60 56 58 67 63
2650.0 60 71 63 67 74 68 72 70 71 65
2690.0 61 59 65 60 57 51 62 59 58 62
2730.0 61 59 57 57 62 58 62 62 60 63
2770.0 61 70 74 67 73 73 74 82 80 81
2810.0 80 76 80 94 85 86 91 90 96 90
2850.0 82 85 89 97 93 98 87 105 108 111
2890.0 115 122 129 141 141 148 156 171 199 224
2930.0 240 259 295 317 348 353 348 352 342 332
2970.0 309 277 249 238 221 200 193 191 182 176
3010.0 164 165 162 152 153 157 151 144 133 156
3050.0 141 126 136 130 130 124 129 124 111 118
3090.0 117 121 118 111 116 122 113 117 118 115
3130.0 118 109 115 116 123 106 115 116 115 113
3170.0 114 114 113 106 113 103 109 112 98 112
3210.0 107 109 110 98 102 103 114 116 104 115
3250.0 100 109 103 94 96 93 110 115 96 94
3290.0 102 94 104 104 96 106 99 104 101 106
3330.0 97 98 104 104 103 96 102 109 102 101
3370.0 105 104 104 108 119 102 113 118 114 113
3410.0 120 122 120 103 114 123 122 142 146 172
3450.0 176 187 195 206 207 206 190 208 188 180
3490.0 174 153 163 168 166 176 162 177 202 215
3530.0 245 255 296 316 389 464 546 902 1418 2433
3570.0 3422 3450 3782 3635 3707 3389 2669 1514 831 499
3610.0 356 305 217 194 157 130 173 119 110 107
3650.0 74 122 97 91 117 39 33 74 93 98
3690.0 34 85 91 94 93 61 59 87 94 93
3730.0 72 71 54 78 56 2 14 65 85 111
3770.0 56 89 79 68 89 106 99 62 55 42
3810.0 63 51 35 3 69 94 51 23 17 92
3850.0 72 0 32 79 43 17 42 111 75 87
3890.0 63 93 77 52 82 86 118 78 84 73
3930.0 92 80 103 84 121 78 77 98 137 93
##END=
