##TITLE=Formamide, N,N-dimethyl-
##JCAMP-DX=4.24
##DATA TYPE=INFRARED SPECTRUM
##ORIGIN=Sadtler Research Labs Under US-EPA Contract
##OWNER=NIST Standard Reference Data Program
##CAS REGISTRY NO=68-12-2
##MOLFORM=C 3 H 7 N O
##XUNITS=1/CM
##YUNITS=ABSORBANCE
##XFACTOR=1.0
##YFACTOR=0.000063205
##DELTAX=4.0
##FIRSTX=450.0
##LASTX=3966.0
##FIRSTY=0.000000
##MAXX=3966
##MINX=450
##MAXY=0.63205
##MINY=0
##NPOINTS=880
##XYDATA=(X++(Y..Y))
450.0 0 553 592 779 527 700 553 735 446 634
490.0 601 638 573 649 756 505 701 664 720 608
530.0 743 617 743 735 604 665 547 662 566 628
570.0 596 676 569 582 506 623 805 622 692 627
610.0 598 630 593 611 564 610 575 714 754 732
650.0 646 710 725 645 739 809 743 586 663 549
690.0 573 561 588 607 546 555 507 586 585 604
730.0 497 521 580 568 584 560 605 532 583 561
770.0 583 540 593 558 624 564 529 595 536 614
810.0 555 581 595 586 607 554 605 568 612 610
850.0 659 630 643 650 628 665 642 688 596 618
890.0 574 587 563 564 569 544 591 565 579 551
930.0 588 577 572 576 588 589 570 606 571 596
970.0 575 600 600 599 607 588 619 604 629 593
1010.0 638 650 653 663 688 738 739 811 857 972
1050.0 1064 1271 1500 1772 2078 2279 2377 2445 2535 2364
1090.0 2363 2302 1957 1503 1166 994 864 817 760 758
1130.0 710 710 703 685 700 700 714 673 707 689
1170.0 700 683 688 692 681 688 665 673 660 674
1210.0 658 680 699 694 721 731 804 814 900 936
1250.0 1016 1043 1063 1052 1037 1093 1095 1054 941 880
1290.0 786 758 717 702 695 682 709 706 714 718
1330.0 749 762 832 888 959 1112 1318 1630 1951 2274
1370.0 2468 2553 2560 2595 2560 2522 2482 2182 1848 1583
1410.0 1431 1279 1274 1212 1140 1016 948 917 869 897
1450.0 910 929 964 968 963 939 979 970 979 1007
1490.0 1056 1027 1029 998 997 1011 938 911 880 793
1530.0 741 717 711 714 697 656 663 689 680 639
1570.0 656 648 653 640 627 636 610 620 598 601
1610.0 582 590 595 577 589 568 592 596 601 604
1650.0 657 693 716 721 781 818 946 1081 1404 2080
1690.0 3000 4546 6250 7672 7668 8310 9739 8649 9247 10000
1730.0 7807 5090 3352 2899 2391 1825 1245 922 726 641
1770.0 639 599 585 561 578 547 566 538 559 529
1810.0 532 538 508 534 523 542 515 517 522 526
1850.0 517 510 518 505 537 531 522 508 516 512
1890.0 518 532 515 522 515 531 518 537 546 545
1930.0 546 546 546 542 549 531 530 527 530 520
1970.0 507 509 496 509 494 523 520 528 526 535
2010.0 530 528 548 541 551 542 551 544 551 546
2050.0 531 519 503 489 483 506 505 513 512 510
2090.0 513 497 501 496 505 501 516 503 510 506
2130.0 506 505 503 505 494 510 501 511 498 498
2170.0 504 505 510 495 506 500 507 500 510 497
2210.0 505 512 502 517 503 514 515 516 513 513
2250.0 514 507 508 512 515 502 517 511 508 498
2290.0 496 494 476 484 465 462 472 477 465 483
2330.0 490 524 554 552 622 522 460 460 538 615
2370.0 618 671 645 597 558 538 520 517 517 515
2410.0 520 517 517 506 517 523 528 523 533 532
2450.0 522 532 520 529 518 532 517 515 524 522
2490.0 530 524 526 521 537 518 529 525 533 537
2530.0 536 538 535 538 530 541 530 528 544 534
2570.0 542 538 546 535 537 545 538 536 535 537
2610.0 527 529 530 543 535 545 550 557 556 546
2650.0 553 537 548 549 568 572 579 571 550 559
2690.0 548 561 559 576 580 591 597 608 619 636
2730.0 646 662 706 738 765 782 805 833 856 888
2770.0 905 912 905 934 931 935 943 959 971 993
2810.0 1046 1089 1179 1281 1406 1504 1602 1640 1681 1772
2850.0 1842 1817 1733 1666 1621 1536 1406 1298 1262 1250
2890.0 1260 1262 1327 1414 1542 1642 1732 1836 1925 1985
2930.0 2036 2042 2045 2065 1915 1806 1679 1522 1414 1305
2970.0 1238 1162 1112 1067 1010 962 920 909 871 855
3010.0 784 759 703 711 676 675 677 676 682 667
3050.0 685 646 671 661 652 641 642 629 623 643
3090.0 622 631 603 642 615 610 604 593 606 591
3130.0 586 584 599 565 568 587 574 554 550 555
3170.0 546 556 543 581 546 543 576 554 540 563
3210.0 537 562 564 529 521 546 530 539 540 542
3250.0 527 523 515 540 522 526 514 523 537 518
3290.0 528 532 532 512 539 522 519 546 505 536
3330.0 494 534 502 533 523 523 532 538 553 528
3370.0 543 518 516 534 518 541 548 566 588 591
3410.0 577 625 600 576 579 579 565 543 543 507
3450.0 542 534 516 532 520 557 546 548 538 512
3490.0 526 492 480 515 512 537 543 536 552 542
3530.0 524 551 566 554 544 531 544 553 510 546
3570.0 556 561 561 574 575 573 557 560 595 575
3610.0 571 567 596 561 534 600 581 616 573 572
3650.0 570 582 543 593 601 537 543 567 578 587
3690.0 609 582 571 600 595 601 603 582 582 579
3730.0 602 603 568 645 617 608 590 569 658 570
3770.0 548 546 577 570 608 549 597 561 563 577
3810.0 542 596 575 541 596 594 567 607 553 553
3850.0 543 595 638 634 571 592 570 589 596 602
3890.0 569 529 648 548 646 582 596 536 555 584
3930.0 609 549 596 572 536 635 622 591 571 599
##END=
