##TITLE=Hexamethylphosphoric triamide
##JCAMP-DX=4.24
##DATA TYPE=INFRARED SPECTRUM
##ORIGIN=Sadtler Research Labs Under US-EPA Contract
##OWNER=NIST Standard Reference Data Program
##CAS REGISTRY NO=680-31-9
##MOLFORM=C 6 H 18 N 3 O P
##XUNITS=1/CM
##YUNITS=ABSORBANCE
##XFACTOR=1.0
##YFACTOR=0.000055905
##DELTAX=4.0
##FIRSTX=450.0
##LASTX=3966.0
##FIRSTY=0.003242
##MAXX=3966
##MINX=450
##MAXY=0.55905
##MINY=0
##NPOINTS=880
##XYDATA=(X++(Y..Y))
450.0 58 173 28 209 579 416 1024 1383 2029 1928
490.0 1785 1244 705 446 331 222 142 236 138 142
530.0 102 157 121 84 94 107 95 92 144 100
570.0 102 69 91 108 119 64 142 104 73 103
610.0 40 86 101 132 182 208 199 161 149 85
650.0 108 76 86 71 38 95 73 104 101 133
690.0 155 176 206 245 312 379 529 754 1198 1966
730.0 3402 5463 6670 6858 5090 3025 1595 856 451 265
770.0 170 141 56 34 0 105 91 58 54 45
810.0 79 64 77 57 64 48 62 64 49 57
850.0 60 69 71 66 63 72 79 91 89 91
890.0 96 99 109 121 130 146 168 194 236 291
930.0 357 471 629 865 1213 1712 2503 3602 5110 6754
970.0 8342 9458 9975 10000 9218 8164 6645 5117 3572 2452
1010.0 1709 1220 937 757 655 575 553 541 550 589
1050.0 666 763 887 1011 1075 1090 1007 848 688 558
1090.0 463 409 373 354 353 333 341 330 339 346
1130.0 381 418 499 623 773 950 1117 1315 1478 1641
1170.0 1751 1809 1786 1738 1697 1652 1623 1557 1516 1447
1210.0 1494 1622 1895 2308 2974 3872 4566 5551 5231 4100
1250.0 3180 2148 1618 1486 1575 1861 2339 2968 3669 4313
1290.0 4774 4943 4727 4167 3310 2501 1794 1309 978 785
1330.0 656 568 510 461 412 396 377 361 349 335
1370.0 321 301 279 259 249 241 243 245 242 256
1410.0 245 256 277 305 339 417 538 665 784 860
1450.0 967 1041 1192 1303 1356 1371 1317 1268 1182 1115
1490.0 1001 852 694 521 433 348 289 264 238 227
1530.0 204 213 202 207 208 202 213 201 210 193
1570.0 198 193 193 187 188 190 186 192 184 186
1610.0 176 178 157 158 131 132 107 112 98 94
1650.0 78 88 63 73 64 55 61 64 59 73
1690.0 65 74 83 96 103 108 118 118 108 102
1730.0 99 106 97 76 75 66 48 55 43 45
1770.0 46 54 50 56 48 52 40 46 47 31
1810.0 30 26 23 25 22 20 26 17 24 19
1850.0 19 13 8 17 19 21 17 19 17 23
1890.0 24 31 33 39 45 49 58 57 66 62
1930.0 52 46 43 36 32 27 26 24 20 23
1970.0 23 18 14 21 14 14 20 18 20 27
2010.0 26 34 33 43 41 48 45 44 42 36
2050.0 32 24 29 22 22 18 18 17 15 17
2090.0 20 20 16 19 18 21 17 27 29 31
2130.0 31 33 36 38 41 36 37 36 36 36
2170.0 38 35 31 36 32 27 28 25 25 25
2210.0 28 25 26 23 25 23 22 21 20 19
2250.0 20 22 19 18 17 18 15 12 15 13
2290.0 13 11 10 13 16 7 7 8 3 1
2330.0 5 9 8 27 35 14 26 28 21 40
2370.0 49 42 48 41 41 41 38 35 36 38
2410.0 39 34 32 37 34 34 34 37 37 33
2450.0 37 37 41 43 45 37 44 44 47 44
2490.0 48 48 46 46 47 51 44 46 46 49
2530.0 48 48 46 40 44 44 39 41 40 41
2570.0 46 48 50 45 46 46 46 53 50 51
2610.0 52 53 51 53 56 52 54 56 56 55
2650.0 59 55 59 59 61 62 65 66 69 72
2690.0 78 77 82 89 91 94 104 113 120 127
2730.0 139 155 169 187 202 222 245 268 292 326
2770.0 364 415 481 568 690 870 1165 1571 2042 2452
2810.0 2649 2564 2242 1854 1550 1400 1422 1626 2016 2525
2850.0 3020 3327 3371 3227 3066 3051 3269 3660 4156 4659
2890.0 5085 5355 5428 5321 5054 4728 4379 4105 3902 3791
2930.0 3733 3663 3507 3231 2874 2455 2067 1726 1459 1247
2970.0 1093 988 928 925 982 1108 1258 1388 1435 1354
3010.0 1175 970 785 631 528 457 401 362 340 312
3050.0 294 273 260 246 239 230 218 211 199 188
3090.0 181 170 169 150 147 137 131 119 116 104
3130.0 99 88 85 79 80 73 70 67 66 61
3170.0 55 59 57 60 51 43 51 41 41 37
3210.0 39 36 34 29 38 44 41 40 35 34
3250.0 29 24 26 21 24 30 21 17 20 22
3290.0 19 25 20 15 15 14 21 21 13 15
3330.0 15 24 31 26 30 23 30 26 31 25
3370.0 36 28 30 25 29 36 28 32 18 33
3410.0 22 31 22 29 32 35 31 32 32 29
3450.0 36 33 30 27 40 32 30 37 41 47
3490.0 44 30 22 37 41 28 33 34 38 33
3530.0 34 28 35 27 38 26 28 28 21 27
3570.0 36 28 21 31 22 24 35 43 32 29
3610.0 17 42 35 19 26 2 34 23 30 29
3650.0 25 43 23 38 21 37 10 21 37 16
3690.0 38 21 31 30 30 41 21 30 29 22
3730.0 28 24 37 26 34 15 20 35 28 22
3770.0 31 32 21 22 38 39 25 49 19 39
3810.0 12 22 20 23 25 31 24 12 16 17
3850.0 37 27 39 50 24 40 51 35 16 49
3890.0 29 48 33 48 24 36 35 39 49 45
3930.0 49 28 34 45 60 50 57 42 60 47
##END=
