##TITLE=Diethyl isopropylidenemalonate
##JCAMP-DX=4.24
##DATA TYPE=INFRARED SPECTRUM
##ORIGIN=Sadtler Research Labs Under US-EPA Contract
##OWNER=NIST Standard Reference Data Program
##CAS REGISTRY NO=6802-75-1
##MOLFORM=C 10 H 16 O 4
##XUNITS=1/CM
##YUNITS=ABSORBANCE
##XFACTOR=1.0
##YFACTOR=0.000119495
##DELTAX=4.0
##FIRSTX=450.0
##LASTX=3966.0
##FIRSTY=0.024257
##MAXX=3966
##MINX=450
##MAXY=1.19495
##MINY=0
##NPOINTS=880
##XYDATA=(X++(Y..Y))
450.0 203 253 392 161 149 139 0 183 66 119
490.0 124 118 111 193 61 81 125 88 119 95
530.0 86 108 101 101 115 84 116 154 190 170
570.0 174 150 133 116 144 114 114 136 145 121
610.0 83 85 103 102 95 86 80 93 102 93
650.0 104 90 65 85 95 147 111 105 127 129
690.0 93 139 172 183 198 214 206 199 280 308
730.0 321 278 197 268 309 324 297 327 336 304
770.0 314 295 343 325 355 350 357 347 301 269
810.0 255 240 238 292 260 239 280 256 221 237
850.0 281 255 276 329 373 453 440 397 317 270
890.0 228 227 230 232 194 237 265 285 292 285
930.0 280 266 244 221 217 209 231 242 271 324
970.0 367 389 395 368 351 357 400 441 479 525
1010.0 568 688 783 915 1051 1173 1336 1537 1817 2392
1050.0 3163 4178 5012 5218 4535 3441 2541 2029 1879 1902
1090.0 2118 2465 2918 3459 3946 4145 3956 3273 2506 1896
1130.0 1504 1283 1177 1093 1051 1035 1031 1058 1045 1059
1170.0 1135 1211 1335 1524 1842 2310 3106 3993 4720 5172
1210.0 4964 4623 4441 4839 6036 7234 8824 10000 9478 8688
1250.0 6707 4873 3580 2740 2383 2318 2601 3057 3466 3613
1290.0 3374 3086 2811 2620 2587 2440 2235 1908 1495 1146
1330.0 885 713 637 544 503 496 521 592 797 1054
1370.0 1248 1420 1430 1329 1228 1051 886 764 657 590
1410.0 578 527 539 488 534 569 601 663 703 788
1450.0 816 824 798 823 820 834 784 723 623 521
1490.0 430 328 310 265 240 215 241 225 192 186
1530.0 246 189 208 133 217 239 216 196 151 226
1570.0 220 178 228 164 233 220 213 254 215 279
1610.0 279 330 358 414 549 650 849 1005 1166 1182
1650.0 1115 983 807 738 603 500 519 449 500 461
1690.0 566 631 696 830 990 1253 1550 2065 2801 3825
1730.0 5652 6957 8723 9080 7738 6680 5148 4122 3111 2272
1770.0 1746 1265 1061 874 715 638 537 475 488 427
1810.0 460 471 458 432 335 289 223 207 174 127
1850.0 129 106 107 112 81 97 85 86 84 81
1890.0 84 87 88 96 89 99 87 92 90 89
1930.0 95 87 88 85 69 71 63 66 67 72
1970.0 68 74 72 67 59 61 56 57 54 49
2010.0 55 51 43 50 44 46 45 47 51 49
2050.0 51 49 55 53 57 64 66 66 69 67
2090.0 71 72 68 72 73 69 67 62 59 53
2130.0 51 51 50 50 47 44 43 42 42 39
2170.0 37 37 39 41 37 37 35 39 41 38
2210.0 44 45 47 48 40 42 40 41 43 48
2250.0 43 42 45 45 41 46 48 56 63 73
2290.0 89 100 119 129 141 158 141 125 122 100
2330.0 74 66 61 69 113 123 131 88 96 74
2370.0 67 72 89 103 81 48 34 30 28 29
2410.0 29 33 32 36 34 31 32 28 26 28
2450.0 30 31 30 33 30 27 24 24 21 23
2490.0 24 24 21 19 17 18 18 18 20 20
2530.0 18 16 14 15 11 10 13 15 17 18
2570.0 15 13 13 17 16 22 24 20 16 19
2610.0 17 21 16 21 20 20 22 16 16 17
2650.0 17 21 21 22 25 24 23 22 24 25
2690.0 28 30 31 30 33 33 37 39 48 61
2730.0 65 73 75 81 79 74 73 72 76 77
2770.0 79 83 81 83 77 73 84 87 93 98
2810.0 105 114 120 128 137 146 154 160 173 187
2850.0 211 245 284 327 370 407 449 500 561 602
2890.0 616 622 628 671 743 829 915 1000 1105 1211
2930.0 1315 1394 1476 1548 1563 1487 1352 1217 1184 1223
2970.0 1312 1463 1739 2115 2393 2385 2106 1731 1439 1228
3010.0 1024 856 708 586 485 415 358 321 294 267
3050.0 248 236 215 201 197 187 185 176 172 165
3090.0 152 141 128 117 116 114 111 101 95 92
3130.0 79 80 77 81 83 81 76 76 69 65
3170.0 64 69 73 73 77 77 66 61 62 66
3210.0 59 59 58 57 55 54 51 46 48 53
3250.0 54 51 51 46 39 41 49 43 48 51
3290.0 49 50 49 40 42 50 52 48 53 59
3330.0 56 53 48 49 51 56 53 60 62 60
3370.0 52 55 64 62 57 69 66 65 60 60
3410.0 62 75 68 74 76 81 82 83 70 87
3450.0 95 103 117 118 121 119 109 111 107 97
3490.0 95 79 81 75 79 67 67 58 70 84
3530.0 72 61 67 53 69 55 62 67 77 65
3570.0 84 51 76 63 72 64 60 80 73 72
3610.0 61 58 41 72 53 63 40 77 61 70
3650.0 36 43 43 74 80 44 68 10 89 58
3690.0 61 51 80 78 78 72 50 66 70 56
3730.0 73 59 55 82 12 93 8 88 50 63
3770.0 78 68 118 70 69 96 54 72 48 83
3810.0 79 78 60 26 81 63 80 66 54 115
3850.0 91 70 49 68 74 60 93 76 94 44
3890.0 110 70 93 52 85 116 120 109 77 87
3930.0 58 96 103 109 110 137 109 78 116 113
##END=
