##TITLE=Diethyl vinylphosphonate
##JCAMP-DX=4.24
##DATA TYPE=INFRARED SPECTRUM
##ORIGIN=Sadtler Research Labs Under US-EPA Contract
##OWNER=NIST Standard Reference Data Program
##CAS REGISTRY NO=682-30-4
##MOLFORM=C 6 H 13 O 3 P
##XUNITS=1/CM
##YUNITS=ABSORBANCE
##XFACTOR=1.0
##YFACTOR=0.000056445
##DELTAX=4.0
##FIRSTX=450.0
##LASTX=3966.0
##FIRSTY=0.007846
##MAXX=3966
##MINX=450
##MAXY=0.56445
##MINY=0
##NPOINTS=880
##XYDATA=(X++(Y..Y))
450.0 139 193 224 307 483 587 598 550 351 307
490.0 244 326 500 583 720 731 638 688 654 626
530.0 643 486 393 284 217 247 149 157 233 31
570.0 123 57 224 375 463 766 678 575 606 410
610.0 444 379 327 332 211 204 131 73 133 94
650.0 94 142 20 129 88 102 159 42 202 122
690.0 128 231 330 477 571 536 547 465 418 407
730.0 296 399 324 269 319 235 312 408 519 918
770.0 1262 1852 2496 3094 3607 3600 3359 2813 2220 1880
810.0 1431 1075 912 690 566 439 294 262 203 220
850.0 238 189 251 165 169 164 120 186 185 229
890.0 257 238 328 388 439 536 615 757 970 1250
930.0 1700 2268 2956 3645 4144 4530 4619 4555 4343 3954
970.0 3548 3049 2587 2325 2009 1880 1733 1540 1452 1572
1010.0 1939 2586 3446 4791 6315 8091 9360 9688 10000 8902
1050.0 7683 6928 6263 6048 5635 4998 4351 3513 2838 2420
1090.0 2167 2159 2054 1942 1756 1486 1286 1084 946 861
1130.0 803 768 794 731 763 745 743 744 694 758
1170.0 770 705 686 562 481 424 331 336 307 258
1210.0 274 248 214 242 263 303 356 447 623 873
1250.0 1253 1652 2228 2706 3022 3390 3475 3213 2897 2517
1290.0 2130 1730 1402 1129 848 671 550 440 367 291
1330.0 202 179 171 169 165 165 211 206 264 290
1370.0 332 442 424 524 699 917 1175 1328 1295 1187
1410.0 929 680 499 366 319 282 297 314 263 276
1450.0 248 242 256 211 220 205 205 197 159 153
1490.0 186 135 128 98 98 124 98 104 100 78
1530.0 66 48 29 40 47 95 73 89 55 26
1570.0 44 39 48 51 58 76 65 51 86 88
1610.0 135 140 114 108 72 69 69 44 50 42
1650.0 34 23 24 50 59 65 73 36 35 18
1690.0 24 43 35 52 62 36 59 55 43 65
1730.0 68 94 71 79 107 117 117 108 88 74
1770.0 69 64 78 80 103 85 67 58 48 56
1810.0 66 85 104 96 113 103 91 110 108 117
1850.0 113 86 103 103 94 121 82 70 71 36
1890.0 54 50 63 68 54 60 43 35 61 52
1930.0 65 86 72 101 73 77 80 62 71 54
1970.0 53 53 46 48 42 40 42 23 14 18
2010.0 17 26 39 28 28 10 19 12 14 29
2050.0 25 25 23 14 21 21 21 22 21 30
2090.0 22 21 31 30 42 25 23 22 15 23
2130.0 31 33 50 31 24 24 14 25 25 29
2170.0 45 26 35 26 26 35 27 27 27 20
2210.0 27 28 34 38 28 28 21 11 29 29
2250.0 42 39 29 30 17 17 31 30 48 43
2290.0 41 33 23 24 24 19 33 16 16 24
2330.0 35 58 39 34 28 18 18 7 29 98
2370.0 96 92 58 38 39 40 37 38 39 56
2410.0 38 31 41 29 41 41 29 42 35 40
2450.0 41 43 43 42 34 31 14 39 43 43
2490.0 44 38 27 19 10 45 46 46 55 46
2530.0 46 44 42 47 47 47 47 40 57 48
2570.0 49 57 42 50 36 30 53 47 62 55
2610.0 51 52 16 34 33 45 51 52 52 49
2650.0 28 42 35 39 46 45 53 53 46 53
2690.0 52 49 41 31 43 46 51 71 64 81
2730.0 63 56 55 55 72 87 85 102 81 70
2770.0 77 73 101 102 102 101 73 87 82 86
2810.0 99 79 80 88 81 111 120 120 138 111
2850.0 111 130 129 184 209 277 331 362 414 426
2890.0 459 497 516 610 674 738 788 783 784 782
2930.0 840 1008 1127 1224 1254 1188 1105 1018 981 1035
2970.0 1130 1370 1641 1919 2128 2094 1953 1674 1360 1158
3010.0 968 866 776 669 580 463 373 322 266 261
3050.0 211 173 154 137 140 145 117 139 119 150
3090.0 194 207 235 198 148 121 75 70 66 74
3130.0 96 81 87 84 77 86 82 84 87 69
3170.0 70 70 74 99 86 107 85 57 61 27
3210.0 60 72 88 99 78 54 48 17 53 44
3250.0 60 74 57 37 57 46 46 46 41 44
3290.0 22 56 61 65 87 69 55 33 13 57
3330.0 67 85 91 75 76 45 49 74 47 75
3370.0 78 57 77 59 70 69 52 73 44 47
3410.0 62 56 75 78 78 63 17 24 16 40
3450.0 80 66 76 64 18 40 20 41 79 54
3490.0 72 61 38 76 55 81 63 44 61 62
3530.0 71 92 74 90 82 54 58 38 72 95
3570.0 116 106 71 67 57 58 65 67 76 83
3610.0 74 70 70 62 78 62 48 57 30 66
3650.0 77 69 84 60 53 36 20 53 61 88
3690.0 91 73 71 36 43 61 54 89 87 88
3730.0 95 90 78 90 79 90 72 79 89 81
3770.0 102 88 83 84 50 48 42 67 91 91
3810.0 90 83 47 38 19 44 74 51 68 51
3850.0 49 56 41 57 50 31 29 31 44 77
3890.0 76 87 59 31 11 8 45 94 130 158
3930.0 111 92 57 35 69 101 0 8 8 8
##END=
