##TITLE=Ethane, 1,2-dibromo-1,2-dichloro-
##JCAMP-DX=4.24
##DATA TYPE=INFRARED SPECTRUM
##ORIGIN=Sadtler Research Labs Under US-EPA Contract
##OWNER=NIST Standard Reference Data Program
##CAS REGISTRY NO=683-68-1
##MOLFORM=C 2 H 2 Br 2 Cl 2
##XUNITS=1/CM
##YUNITS=ABSORBANCE
##XFACTOR=1.0
##YFACTOR=0.000064307
##DELTAX=4.0
##FIRSTX=450.0
##LASTX=3966.0
##FIRSTY=0.026880
##MAXX=3966
##MINX=450
##MAXY=0.64307
##MINY=0
##NPOINTS=880
##XYDATA=(X++(Y..Y))
450.0 418 275 428 434 587 541 451 494 558 750
490.0 778 579 266 22 15 48 24 65 117 242
530.0 506 630 696 732 615 507 426 277 191 120
570.0 24 84 125 175 307 481 675 927 1183 1614
610.0 2347 3003 3702 3925 3546 3387 2698 1457 1368 1612
650.0 1752 1862 1727 2172 3004 4699 5225 4763 3020 1356
690.0 500 355 557 671 823 825 831 909 1199 1921
730.0 2770 3900 5172 6699 8039 9311 10000 9700 8348 6888
770.0 5486 4457 4161 4342 4735 5854 6789 6074 4439 2752
810.0 1439 726 295 179 227 178 214 203 159 181
850.0 163 171 178 189 185 162 144 129 90 77
890.0 78 119 130 130 125 106 114 46 67 61
930.0 76 76 110 58 119 114 92 106 87 86
970.0 85 80 108 123 133 139 171 240 335 533
1010.0 737 939 953 784 574 345 192 124 103 80
1050.0 50 55 69 69 81 100 108 125 119 120
1090.0 104 88 94 88 92 99 126 139 169 240
1130.0 254 330 485 875 1451 1968 2371 2630 2825 2807
1170.0 2479 2167 1987 2039 2151 1735 1253 729 349 221
1210.0 173 160 252 320 394 443 466 516 425 457
1250.0 606 820 1019 1249 1403 1402 1284 1038 746 516
1290.0 342 188 163 141 138 140 134 125 121 122
1330.0 128 114 129 107 87 130 95 129 142 140
1370.0 145 117 130 90 118 104 107 110 89 97
1410.0 101 85 83 96 103 114 104 93 95 84
1450.0 77 106 54 98 72 77 52 61 77 51
1490.0 86 62 83 63 30 102 34 89 52 89
1530.0 89 77 91 49 92 83 104 53 73 72
1570.0 93 72 76 82 56 69 87 49 85 60
1610.0 53 42 73 34 63 65 25 61 73 36
1650.0 101 8 104 46 53 27 45 40 54 62
1690.0 69 74 61 43 45 82 80 81 98 81
1730.0 76 86 99 99 97 101 108 92 75 94
1770.0 76 102 70 93 67 59 53 62 43 58
1810.0 56 62 63 38 52 58 34 64 19 51
1850.0 31 49 40 35 46 14 54 44 39 29
1890.0 43 33 25 38 40 53 42 30 31 30
1930.0 47 40 31 44 33 37 35 41 44 40
1970.0 20 46 42 26 42 41 10 23 23 34
2010.0 37 36 31 30 25 44 52 23 25 33
2050.0 26 34 29 8 20 29 20 30 39 22
2090.0 22 12 18 24 28 33 27 22 30 15
2130.0 22 12 11 9 3 27 20 19 14 28
2170.0 34 25 28 41 31 31 22 23 22 18
2210.0 28 19 26 16 23 24 31 27 19 15
2250.0 16 21 21 17 22 16 12 9 11 10
2290.0 20 15 22 29 35 41 42 40 19 24
2330.0 3 21 14 0 2 24 0 1 1 1
2370.0 10 9 18 34 37 44 44 45 44 43
2410.0 51 50 61 52 58 54 68 68 71 69
2450.0 67 58 45 42 48 47 52 59 71 86
2490.0 86 78 57 42 32 31 25 28 31 24
2530.0 32 35 31 34 29 35 30 31 31 33
2570.0 31 30 30 35 32 25 24 29 34 28
2610.0 32 31 31 32 24 35 34 27 28 29
2650.0 35 37 31 37 33 33 36 32 34 34
2690.0 36 37 35 37 37 38 35 37 41 34
2730.0 37 39 33 38 41 37 40 35 40 39
2770.0 33 33 37 40 39 43 48 42 42 42
2810.0 46 40 42 44 40 47 40 42 49 50
2850.0 43 50 53 51 54 58 54 54 51 52
2890.0 54 46 49 53 44 55 49 57 53 61
2930.0 66 74 77 83 78 69 62 70 66 71
2970.0 75 78 78 100 151 282 458 655 789 748
3010.0 630 506 416 429 299 209 128 77 59 45
3050.0 50 62 60 65 59 53 62 60 61 55
3090.0 59 57 57 62 50 44 43 56 64 48
3130.0 45 55 54 48 63 56 54 49 53 56
3170.0 48 38 50 68 58 59 56 55 50 50
3210.0 45 53 51 52 52 56 52 53 58 50
3250.0 58 55 53 59 52 44 50 51 60 66
3290.0 52 44 49 68 56 62 54 55 71 61
3330.0 51 62 60 54 52 58 64 60 66 57
3370.0 63 64 60 45 52 69 47 53 45 48
3410.0 63 66 52 52 62 61 67 61 53 58
3450.0 56 67 70 72 63 73 68 70 78 65
3490.0 60 75 67 80 72 68 55 57 67 71
3530.0 63 77 76 66 73 78 60 95 53 104
3570.0 85 74 58 70 78 78 71 51 72 43
3610.0 77 98 64 69 84 26 92 35 73 55
3650.0 61 61 48 75 21 106 15 112 13 73
3690.0 74 43 67 43 69 60 73 95 44 95
3730.0 38 49 121 42 118 37 147 43 84 97
3770.0 67 94 67 69 98 46 107 67 90 92
3810.0 68 95 80 124 65 92 96 83 122 31
3850.0 139 28 132 54 104 99 55 121 83 111
3890.0 49 102 62 102 90 45 102 81 77 72
3930.0 130 81 101 79 77 113 64 91 88 33
##END=
