##TITLE=Cyclohexane, 1-dodecyl-4-octyl-,
##JCAMP-DX=4.24
##DATA TYPE=INFRARED SPECTRUM
##ORIGIN=Sadtler Research Labs Under US-EPA Contract
##OWNER=NIST Standard Reference Data Program
##CAS REGISTRY NO=6836-35-7
##MOLFORM=C 26 H 52
##XUNITS=1/CM
##YUNITS=ABSORBANCE
##XFACTOR=1.0
##YFACTOR=0.000085681
##DELTAX=4.0
##FIRSTX=450.0
##LASTX=3966.0
##FIRSTY=0.015765
##MAXX=3966
##MINX=450
##MAXY=0.85681
##MINY=0
##NPOINTS=880
##XYDATA=(X++(Y..Y))
450.0 184 187 94 84 119 128 28 23 58 76
490.0 71 41 67 83 31 56 45 60 53 61
530.0 45 56 32 29 41 26 36 18 31 55
570.0 42 47 52 40 53 12 26 20 27 26
610.0 18 8 19 5 16 21 17 25 32 25
650.0 24 17 18 21 32 129 38 46 51 69
690.0 84 90 147 184 254 349 430 492 499 436
730.0 367 306 259 219 193 163 152 128 126 114
770.0 97 97 75 66 61 39 42 44 67 76
810.0 72 61 55 46 42 33 27 28 20 30
850.0 24 24 33 34 42 46 56 70 90 122
890.0 162 224 218 154 91 53 40 29 29 37
930.0 54 63 76 106 114 112 88 63 50 33
970.0 23 22 12 5 3 8 10 16 19 42
1010.0 48 49 48 52 52 48 52 47 47 48
1050.0 54 54 61 63 66 69 75 76 80 80
1090.0 97 114 119 113 104 98 85 80 61 35
1130.0 20 15 15 8 5 3 6 3 5 17
1170.0 15 23 20 20 23 22 30 31 39 52
1210.0 67 93 108 107 97 87 92 105 120 132
1250.0 150 171 201 227 217 209 220 241 260 276
1290.0 293 309 327 337 337 326 313 293 280 282
1330.0 308 357 433 480 505 546 558 551 547 535
1370.0 518 544 622 552 410 333 297 286 286 300
1410.0 318 346 379 435 510 626 797 1078 1426 1849
1450.0 2044 2031 2059 1974 1771 1331 882 587 431 337
1490.0 317 283 245 199 179 160 129 114 105 87
1530.0 71 74 59 58 51 48 44 47 42 30
1570.0 33 28 34 26 32 28 36 35 39 38
1610.0 34 30 29 27 20 26 22 23 15 23
1650.0 12 37 13 19 12 15 8 14 9 17
1690.0 7 13 15 25 14 17 25 37 34 41
1730.0 46 66 56 59 58 58 55 52 55 54
1770.0 66 65 65 68 73 62 64 56 63 52
1810.0 49 45 45 40 40 35 29 30 28 32
1850.0 27 27 24 25 23 29 21 22 21 17
1890.0 17 16 17 18 16 17 14 22 14 12
1930.0 14 12 10 13 9 10 11 7 10 11
1970.0 3 6 5 4 8 4 8 5 4 6
2010.0 10 16 16 20 20 22 23 21 20 21
2050.0 21 16 18 13 13 10 12 7 8 5
2090.0 3 3 3 0 0 3 0 2 2 3
2130.0 1 4 3 6 7 8 7 7 8 8
2170.0 5 8 6 9 9 8 10 8 4 8
2210.0 3 6 7 6 3 6 2 1 5 4
2250.0 6 6 6 7 7 9 14 19 27 34
2290.0 46 59 71 84 99 103 101 89 99 74
2330.0 84 63 64 79 87 109 121 88 94 68
2370.0 63 62 71 86 65 45 38 35 35 35
2410.0 35 32 37 33 33 35 34 35 34 35
2450.0 35 35 37 36 34 36 38 42 41 45
2490.0 46 55 58 60 68 71 81 86 91 97
2530.0 106 108 109 113 114 118 123 128 130 134
2570.0 144 151 159 165 173 178 189 199 211 223
2610.0 231 241 250 261 270 280 290 299 308 318
2650.0 334 345 352 363 377 391 398 404 402 401
2690.0 389 379 375 368 373 377 388 397 409 412
2730.0 424 434 444 446 445 453 465 478 495 514
2770.0 544 584 629 685 745 816 886 959 1036 1124
2810.0 1219 1329 1468 1633 1832 2096 2476 3028 3790 4595
2850.0 5328 5893 6018 5728 5131 4570 4209 3995 3943 4092
2890.0 4356 4688 5087 5530 6067 6711 7450 8316 9161 9815
2930.0 10000 9391 8152 6765 5564 4735 4319 4144 3981 3657
2970.0 3149 2576 2060 1678 1397 1191 1030 903 800 709
3010.0 637 576 518 469 431 397 364 333 303 282
3050.0 261 237 228 215 204 192 178 173 167 151
3090.0 138 134 127 122 116 109 107 107 104 97
3130.0 99 101 101 97 98 96 91 89 82 78
3170.0 74 72 67 63 60 56 59 53 46 43
3210.0 36 33 33 28 21 22 18 22 23 23
3250.0 25 22 18 20 18 19 22 16 20 30
3290.0 23 21 23 19 22 24 33 34 35 29
3330.0 33 37 38 36 35 37 43 46 33 41
3370.0 43 33 38 32 30 37 35 36 36 23
3410.0 22 21 26 22 29 22 22 20 29 23
3450.0 22 17 22 20 22 17 12 9 10 20
3490.0 16 11 12 21 9 9 12 10 19 14
3530.0 6 6 2 11 19 4 10 3 13 18
3570.0 21 23 20 22 23 25 28 29 37 36
3610.0 45 40 54 53 52 64 45 36 47 45
3650.0 55 44 37 27 31 37 38 45 33 46
3690.0 42 37 40 49 29 39 24 38 40 38
3730.0 42 49 43 37 58 36 39 23 25 31
3770.0 18 31 35 35 19 27 30 25 21 27
3810.0 28 27 24 25 25 38 28 15 12 27
3850.0 30 36 26 32 22 30 19 17 49 52
3890.0 23 21 19 20 11 22 20 34 3 22
3930.0 5 26 24 28 26 3 18 27 26 34
##END=
