##TITLE=7-Methoxy-1-tetralone
##JCAMP-DX=4.24
##DATA TYPE=INFRARED SPECTRUM
##ORIGIN=Sadtler Research Labs Under US-EPA Contract
##OWNER=NIST Standard Reference Data Program
##CAS REGISTRY NO=6836-19-7
##MOLFORM=C 11 H 12 O 2
##XUNITS=1/CM
##YUNITS=ABSORBANCE
##XFACTOR=1.0
##YFACTOR=0.000079346
##DELTAX=4.0
##FIRSTX=450.0
##LASTX=3966.0
##FIRSTY=0.049988
##MAXX=3966
##MINX=450
##MAXY=0.79346
##MINY=0
##NPOINTS=880
##XYDATA=(X++(Y..Y))
450.0 630 652 578 540 510 415 307 282 301 353
490.0 371 376 386 417 416 397 375 326 286 301
530.0 266 276 226 269 252 256 288 317 244 227
570.0 192 211 214 264 273 278 237 184 125 135
610.0 93 54 78 81 79 111 133 130 117 136
650.0 98 80 166 99 169 104 113 201 198 337
690.0 455 503 442 378 247 194 134 196 237 230
730.0 264 312 283 334 330 278 254 257 255 260
770.0 245 218 232 227 346 428 585 725 964 1061
810.0 1189 1266 1281 1013 886 732 636 532 475 455
850.0 388 390 406 413 538 665 789 896 944 899
890.0 776 686 549 463 357 320 219 211 156 169
930.0 192 235 277 250 218 178 175 169 165 188
970.0 333 419 480 442 377 310 305 303 371 391
1010.0 484 560 779 969 1214 1553 1996 2414 2658 2581
1050.0 2218 1672 1113 777 552 499 471 484 481 514
1090.0 588 736 1031 1452 1761 1989 2067 2035 1850 1659
1130.0 1528 1648 2040 2755 3663 4126 4194 3721 3216 2756
1170.0 2371 1981 1700 1447 1342 1292 1430 1663 1921 2028
1210.0 1958 1726 1580 1528 1725 1916 2256 2903 3742 4825
1250.0 6120 7450 8358 8165 6818 4931 3235 2376 1913 1891
1290.0 2077 2460 2902 3250 3326 3205 2806 2334 1820 1471
1330.0 1362 1552 1762 1722 1483 1060 784 599 568 491
1370.0 527 528 599 609 670 646 708 735 808 895
1410.0 1046 1144 1335 1454 1512 1558 1466 1455 1392 1509
1450.0 1605 1730 1850 1919 2123 2189 2130 1943 1821 2113
1490.0 2916 4440 6303 7258 6814 5188 3104 1854 1206 800
1530.0 631 558 534 503 456 386 440 501 578 616
1570.0 901 1093 1435 1515 1687 1704 1799 2004 2490 3192
1610.0 3867 4205 4112 3470 2774 2208 1812 1569 1163 892
1650.0 643 647 421 417 385 436 399 445 450 606
1690.0 628 763 947 1125 1209 1378 1734 2338 3129 4394
1730.0 6147 8174 9758 10000 8801 6496 4304 2763 1904 1394
1770.0 1166 1010 827 657 577 444 392 324 310 276
1810.0 219 234 210 187 178 166 150 179 155 215
1850.0 152 179 157 169 149 205 157 180 179 187
1890.0 165 130 150 119 109 92 113 108 126 113
1930.0 118 104 139 108 149 88 121 124 113 121
1970.0 115 101 119 114 117 119 125 146 116 140
2010.0 112 130 117 122 105 118 100 137 109 140
2050.0 127 160 131 163 155 163 157 169 149 154
2090.0 144 140 138 94 109 67 97 55 95 86
2130.0 87 94 105 90 125 99 126 83 120 127
2170.0 102 123 130 128 152 152 129 136 118 143
2210.0 97 112 105 106 87 78 105 107 90 98
2250.0 103 102 105 112 126 81 128 114 137 122
2290.0 129 122 168 147 176 166 182 129 196 165
2330.0 204 202 207 176 237 174 188 219 224 249
2370.0 239 242 175 166 102 103 82 123 85 112
2410.0 86 93 50 108 83 108 96 116 113 92
2450.0 100 92 125 107 114 84 105 72 113 70
2490.0 102 72 130 84 137 93 80 69 100 97
2530.0 106 109 109 118 105 116 115 144 133 146
2570.0 122 133 76 122 70 105 94 112 95 139
2610.0 109 95 76 103 113 104 124 104 111 82
2650.0 114 102 118 95 112 81 103 46 97 52
2690.0 78 47 112 80 103 81 83 82 82 117
2730.0 91 121 90 91 72 119 93 134 121 131
2770.0 115 157 142 152 152 209 194 242 242 276
2810.0 306 328 352 433 511 630 843 1108 1435 1649
2850.0 1800 1768 1786 1700 1583 1360 1258 1109 1058 978
2890.0 947 942 1086 1276 1528 1812 2043 2138 2029 1879
2930.0 1775 1833 2084 2555 3019 3328 3348 3393 3164 2758
2970.0 2260 1754 1279 1030 916 967 1059 1301 1594 1987
3010.0 2028 1855 1522 1256 1177 1126 1107 924 787 604
3050.0 519 434 468 482 542 599 616 566 527 483
3090.0 441 404 353 281 249 228 223 208 207 195
3130.0 176 169 130 125 105 133 112 104 80 95
3170.0 62 103 73 94 81 79 70 64 68 68
3210.0 66 52 66 54 65 51 59 54 61 60
3250.0 45 38 62 23 45 34 40 25 30 54
3290.0 27 48 42 10 38 47 27 40 52 25
3330.0 0 35 25 39 32 49 28 40 49 59
3370.0 49 47 57 58 90 58 70 73 59 65
3410.0 71 68 73 71 96 54 107 102 131 125
3450.0 181 204 218 232 206 185 141 111 95 132
3490.0 100 111 72 56 65 47 65 69 76 76
3530.0 49 56 50 59 66 72 85 79 77 77
3570.0 126 80 57 88 98 107 109 99 92 113
3610.0 122 104 85 93 63 145 102 73 94 83
3650.0 133 116 98 57 73 106 113 121 73 86
3690.0 106 105 78 87 76 83 122 90 101 102
3730.0 117 134 144 132 182 152 147 133 120 115
3770.0 111 98 86 100 111 114 111 110 140 152
3810.0 145 144 157 159 133 127 142 138 144 136
3850.0 146 174 164 161 142 155 132 132 132 119
3890.0 88 92 80 109 111 109 102 103 104 72
3930.0 93 94 81 97 102 102 76 78 79 81
##END=
