##TITLE=Cyclohexane, 1-hexyl-4-tetradecyl
##JCAMP-DX=4.24
##DATA TYPE=INFRARED SPECTRUM
##ORIGIN=Sadtler Research Labs Under US-EPA Contract
##OWNER=NIST Standard Reference Data Program
##CAS REGISTRY NO=6836-34-6
##MOLFORM=C 26 H 52
##XUNITS=1/CM
##YUNITS=ABSORBANCE
##XFACTOR=1.0
##YFACTOR=0.000059607
##DELTAX=4.0
##FIRSTX=450.0
##LASTX=3966.0
##FIRSTY=0.010789
##MAXX=3966
##MINX=450
##MAXY=0.59607
##MINY=0
##NPOINTS=880
##XYDATA=(X++(Y..Y))
450.0 181 159 75 88 94 99 45 98 24 58
490.0 97 108 99 90 63 45 70 86 66 31
530.0 34 71 70 63 64 44 88 80 70 56
570.0 69 72 67 41 33 15 49 48 77 74
610.0 69 47 83 58 46 70 71 42 69 92
650.0 52 65 56 75 58 140 85 91 89 104
690.0 112 90 89 70 142 218 278 304 309 267
730.0 236 213 180 142 137 132 133 140 128 112
770.0 91 100 89 76 75 66 63 49 68 79
810.0 70 83 76 67 40 53 54 71 93 90
850.0 102 97 113 98 99 96 106 120 128 130
890.0 152 171 166 149 121 106 94 90 99 85
930.0 96 106 108 120 123 119 123 125 132 137
970.0 124 125 121 115 118 120 108 95 90 92
1010.0 89 94 85 79 80 78 85 87 114 120
1050.0 130 138 141 147 143 149 166 179 181 202
1090.0 211 211 213 202 191 193 190 185 165 151
1130.0 127 126 117 118 116 117 114 110 111 107
1170.0 108 111 124 118 114 120 116 116 127 139
1210.0 158 170 171 188 192 190 188 186 195 205
1250.0 213 223 243 254 231 203 205 217 220 226
1290.0 241 250 264 270 277 267 265 255 242 245
1330.0 259 284 323 345 372 391 401 404 399 382
1370.0 367 369 394 363 297 254 236 224 219 228
1410.0 239 250 269 285 316 372 462 612 826 1082
1450.0 1222 1250 1259 1185 1032 754 498 330 250 176
1490.0 113 86 98 91 90 84 78 65 63 52
1530.0 45 47 45 46 45 44 44 51 46 43
1570.0 45 44 47 40 42 35 29 24 31 31
1610.0 30 27 26 19 14 16 17 13 10 13
1650.0 7 27 10 20 20 26 20 30 34 43
1690.0 37 37 35 36 36 42 44 57 60 60
1730.0 60 62 52 47 40 31 19 8 3 0
1770.0 11 15 17 20 23 16 26 20 23 18
1810.0 21 23 24 18 20 21 13 14 16 20
1850.0 17 14 13 15 17 16 17 17 18 15
1890.0 16 19 15 15 17 18 12 14 6 9
1930.0 9 10 6 9 8 7 7 7 12 7
1970.0 5 12 12 9 9 14 10 13 13 10
2010.0 12 17 14 13 19 20 19 17 17 21
2050.0 14 14 14 13 15 12 13 10 15 16
2090.0 11 9 11 14 14 12 10 11 9 13
2130.0 12 7 11 9 11 10 14 14 14 20
2170.0 18 15 18 18 20 16 16 16 22 20
2210.0 17 15 13 14 16 14 14 16 16 16
2250.0 19 19 16 17 19 21 28 28 29 36
2290.0 48 52 62 69 74 78 88 82 96 90
2330.0 86 82 93 101 90 97 146 111 121 73
2370.0 52 55 63 68 59 43 39 42 44 41
2410.0 41 36 43 38 44 45 39 41 44 40
2450.0 35 40 42 44 44 46 46 50 53 53
2490.0 54 57 63 66 67 69 70 81 82 86
2530.0 86 88 93 91 93 99 102 98 105 104
2570.0 113 119 122 124 130 132 140 141 148 159
2610.0 162 163 170 181 185 191 199 201 208 213
2650.0 218 225 229 239 245 252 255 263 263 257
2690.0 256 254 254 257 260 267 269 269 279 285
2730.0 287 296 303 311 316 324 335 337 351 366
2770.0 381 408 427 464 503 540 588 631 671 733
2810.0 790 867 951 1064 1202 1382 1647 2061 2645 3331
2850.0 4069 4680 4953 4849 4315 3700 3243 2979 2921 3037
2890.0 3233 3522 3907 4356 4929 5613 6473 7536 8641 9568
2930.0 10000 9357 7833 6130 4662 3632 3080 2823 2695 2505
2970.0 2190 1706 1224 900 690 544 434 359 301 258
3010.0 220 183 165 137 122 108 98 90 64 56
3050.0 50 46 48 37 42 35 39 34 31 37
3090.0 29 34 29 20 26 23 20 26 25 22
3130.0 24 32 41 41 39 37 33 38 33 36
3170.0 31 29 27 34 29 32 26 17 16 28
3210.0 22 20 24 21 19 14 19 21 17 22
3250.0 28 31 24 20 29 23 25 22 26 26
3290.0 29 30 31 39 40 37 38 50 45 40
3330.0 33 44 36 47 46 47 41 56 47 50
3370.0 52 43 45 53 50 42 47 38 39 36
3410.0 43 30 27 36 39 37 31 42 40 38
3450.0 35 32 32 38 39 38 41 36 31 38
3490.0 28 24 20 29 25 21 22 24 23 14
3530.0 30 28 27 33 27 25 26 13 18 33
3570.0 43 26 21 22 31 24 40 42 41 28
3610.0 36 43 49 27 51 66 39 38 45 59
3650.0 51 51 36 29 32 61 40 49 46 45
3690.0 39 36 50 53 43 46 37 40 54 47
3730.0 26 61 52 54 75 39 26 39 42 48
3770.0 37 36 41 26 36 49 37 37 25 36
3810.0 28 34 34 51 24 28 24 31 23 21
3850.0 35 34 38 47 26 43 51 45 36 51
3890.0 35 33 41 35 29 43 53 58 24 42
3930.0 33 31 32 34 65 64 29 48 29 19
##END=
