##TITLE=2-Propanone, 1,1,1,3,3,3-hexafluoro-
##JCAMP-DX=4.24
##DATA TYPE=INFRARED SPECTRUM
##ORIGIN=Sadtler Research Labs Under US-EPA Contract
##OWNER=NIST Standard Reference Data Program
##CAS REGISTRY NO=684-16-2
##MOLFORM=C 3 F 6 O
##XUNITS=1/CM
##YUNITS=ABSORBANCE
##XFACTOR=1.0
##YFACTOR=0.000169348
##DELTAX=4.0
##FIRSTX=450.0
##LASTX=3966.0
##FIRSTY=0.007113
##MAXX=3966
##MINX=450
##MAXY=1.69348
##MINY=0
##NPOINTS=880
##XYDATA=(X++(Y..Y))
450.0 42 81 72 139 123 123 132 126 118 127
490.0 125 138 135 163 164 173 164 166 176 181
530.0 184 165 171 135 129 101 90 78 55 61
570.0 37 46 35 24 21 28 25 18 28 26
610.0 33 24 52 42 63 59 64 48 35 44
650.0 24 30 19 41 4 38 36 27 26 23
690.0 39 4 58 96 535 997 1510 1458 1563 1118
730.0 447 149 131 56 87 54 69 57 96 124
770.0 156 196 222 192 130 123 68 51 31 41
810.0 30 31 35 30 36 26 41 25 28 25
850.0 24 21 19 28 20 26 19 32 25 29
890.0 21 24 23 20 24 15 26 21 29 18
930.0 35 38 61 102 186 430 1096 2514 4036 4865
970.0 5041 4346 2602 838 196 111 84 86 71 82
1010.0 87 106 121 132 131 114 95 63 48 39
1050.0 35 33 28 24 27 27 26 28 28 31
1090.0 29 30 31 27 31 29 32 35 39 43
1130.0 51 60 69 78 84 89 100 119 142 176
1170.0 227 297 399 556 807 1228 1918 2938 4297 5972
1210.0 7654 9328 10000 9462 8117 6302 4672 3894 3695 3715
1250.0 3878 4120 4677 5402 6157 6481 5962 4982 3675 2344
1290.0 1348 792 516 400 370 420 556 823 1291 1977
1330.0 2764 3232 3254 2735 1951 1028 378 156 87 62
1370.0 56 44 47 48 50 55 59 59 65 63
1410.0 56 54 40 44 42 49 44 43 44 38
1450.0 31 24 18 21 22 26 19 19 24 21
1490.0 16 24 22 24 16 10 15 14 9 13
1530.0 12 17 17 12 17 24 20 14 20 19
1570.0 17 16 20 19 25 31 37 38 38 32
1610.0 25 19 15 13 10 12 11 9 13 10
1650.0 6 7 14 12 12 12 10 14 11 13
1690.0 15 16 10 7 10 12 10 4 12 12
1730.0 11 9 14 15 12 13 21 25 29 37
1770.0 43 57 87 133 217 350 532 725 883 944
1810.0 885 702 465 255 129 70 47 37 29 23
1850.0 23 24 24 25 23 26 29 31 32 29
1890.0 25 22 22 19 21 20 20 18 19 21
1930.0 18 17 19 16 16 17 15 18 18 17
1970.0 22 22 23 26 27 24 21 19 17 14
2010.0 14 14 14 13 16 19 20 21 19 19
2050.0 16 15 13 11 10 9 10 7 10 9
2090.0 10 12 13 16 18 20 20 23 23 23
2130.0 25 25 23 20 19 16 18 20 20 20
2170.0 21 19 17 13 12 11 11 13 15 17
2210.0 20 23 21 19 18 16 16 16 12 13
2250.0 11 9 9 9 8 11 11 9 10 7
2290.0 9 9 10 12 12 14 15 15 15 16
2330.0 16 18 20 19 23 24 23 26 30 26
2370.0 31 34 35 28 26 27 25 23 25 21
2410.0 22 22 23 23 25 24 26 29 30 30
2450.0 32 34 35 34 32 31 27 24 21 20
2490.0 19 19 19 20 21 21 22 23 21 21
2530.0 18 16 15 14 11 10 10 9 10 11
2570.0 10 14 13 15 15 14 14 14 15 16
2610.0 16 13 10 8 7 4 1 2 2 1
2650.0 1 0 0 0 0 0 2 0 1 1
2690.0 1 3 3 6 4 4 4 6 6 1
2730.0 4 4 2 4 7 6 9 14 17 19
2770.0 19 15 11 9 5 3 3 3 1 3
2810.0 2 4 2 3 4 4 3 1 2 2
2850.0 3 4 4 4 3 3 3 4 4 4
2890.0 3 2 1 3 5 3 5 4 4 2
2930.0 3 1 3 1 3 4 2 5 5 6
2970.0 3 3 3 3 2 5 7 6 5 3
3010.0 4 5 5 5 4 2 4 4 7 6
3050.0 5 7 7 7 6 7 5 5 6 7
3090.0 5 5 6 6 5 7 6 6 9 12
3130.0 12 15 17 17 16 13 10 5 7 3
3170.0 4 3 3 3 5 3 4 3 5 5
3210.0 2 4 3 3 5 1 2 3 5 3
3250.0 5 2 3 6 2 2 3 1 1 1
3290.0 2 5 2 2 1 3 3 4 2 0
3330.0 2 4 6 4 3 2 3 4 3 3
3370.0 2 5 1 1 2 3 3 7 2 3
3410.0 7 4 7 3 1 4 3 2 3 2
3450.0 3 1 2 6 2 1 5 2 2 4
3490.0 5 5 6 4 3 2 4 7 5 6
3530.0 1 2 7 7 3 4 4 7 13 12
3570.0 21 27 33 41 49 51 45 35 27 19
3610.0 12 3 4 6 0 2 7 7 7 5
3650.0 5 6 2 5 5 6 4 9 1 5
3690.0 4 3 2 9 4 6 7 0 1 2
3730.0 4 5 8 8 9 0 8 6 2 6
3770.0 4 3 2 9 5 3 0 3 6 4
3810.0 0 8 5 8 6 3 2 9 9 3
3850.0 5 11 7 4 2 3 6 6 0 8
3890.0 3 3 4 1 4 3 0 6 1 5
3930.0 4 0 6 0 5 5 4 7 0 9
##END=
