##TITLE=1,3-Butanediol, 2-methyl-
##JCAMP-DX=4.24
##DATA TYPE=INFRARED SPECTRUM
##ORIGIN=Sadtler Research Labs Under US-EPA Contract
##OWNER=NIST Standard Reference Data Program
##CAS REGISTRY NO=684-84-4
##MOLFORM=C 5 H 12 O 2
##XUNITS=1/CM
##YUNITS=ABSORBANCE
##XFACTOR=1.0
##YFACTOR=0.000085394
##DELTAX=4.0
##FIRSTX=450.0
##LASTX=3966.0
##FIRSTY=0.041843
##MAXX=3966
##MINX=450
##MAXY=0.85394
##MINY=0
##NPOINTS=880
##XYDATA=(X++(Y..Y))
450.0 490 360 108 197 103 273 351 189 319 98
490.0 270 428 176 268 255 193 261 317 209 127
530.0 321 203 155 244 100 114 160 12 15 46
570.0 70 57 80 144 54 113 170 97 195 159
610.0 175 221 182 224 204 171 200 132 139 118
650.0 100 124 138 144 84 167 115 135 154 131
690.0 142 132 102 105 88 64 71 78 94 109
730.0 126 112 82 144 64 133 182 153 188 176
770.0 199 207 181 208 213 189 172 170 209 176
810.0 188 178 146 165 178 193 211 183 225 251
850.0 278 365 458 575 656 758 850 896 963 990
890.0 994 1016 1066 1216 1396 1588 1844 2041 2206 2283
930.0 2281 2183 1990 1788 1608 1519 1516 1576 1718 1903
970.0 2079 2277 2428 2594 2759 2924 3132 3365 3667 4048
1010.0 4519 5192 5882 6556 7136 7514 7681 7450 6935 6414
1050.0 5820 5331 4795 4448 4190 4054 3966 3955 3984 4063
1090.0 4187 4365 4508 4637 4750 4708 4571 4438 4165 3884
1130.0 3598 3306 3073 2840 2667 2490 2325 2159 2022 1887
1170.0 1768 1676 1594 1542 1548 1581 1647 1722 1802 1854
1210.0 1929 2000 2042 2102 2166 2167 2180 2219 2253 2288
1250.0 2270 2240 2207 2148 2090 2058 2025 1981 1954 1926
1290.0 1903 1842 1799 1750 1706 1661 1632 1631 1585 1561
1330.0 1543 1575 1693 1726 1724 1789 1883 2041 2266 2583
1370.0 2843 3312 3659 3842 4170 4036 3912 3715 3348 3201
1410.0 2870 2697 2494 2259 2028 1786 1661 1648 1627 1717
1450.0 1855 2092 2170 2322 2216 2176 2013 1824 1542 1290
1490.0 1074 774 593 462 427 476 328 303 298 258
1530.0 216 225 201 177 243 187 159 157 152 105
1570.0 108 111 103 108 117 67 139 56 130 107
1610.0 64 128 34 115 66 114 63 108 86 79
1650.0 119 89 174 32 134 82 115 77 127 67
1690.0 106 54 70 163 82 85 77 116 90 46
1730.0 129 65 128 75 90 139 84 100 80 61
1770.0 105 50 49 74 78 67 70 83 69 71
1810.0 33 52 52 30 60 68 31 52 18 105
1850.0 35 28 37 23 78 44 60 28 36 36
1890.0 46 50 44 34 29 54 30 75 40 62
1930.0 27 36 45 35 60 16 36 34 23 40
1970.0 32 35 21 35 34 32 51 17 34 47
2010.0 32 40 55 53 44 53 58 52 65 48
2050.0 52 64 56 57 51 44 46 47 46 41
2090.0 45 32 27 25 28 20 25 18 21 27
2130.0 14 29 23 9 26 23 10 18 25 13
2170.0 16 6 13 3 10 14 11 11 18 13
2210.0 12 10 20 26 23 17 32 34 21 21
2250.0 26 33 38 45 28 33 34 36 35 36
2290.0 42 38 48 42 34 34 11 27 33 38
2330.0 43 5 3 3 95 3 85 29 49 54
2370.0 25 34 59 64 67 76 73 80 73 78
2410.0 78 82 85 88 87 101 87 89 86 87
2450.0 83 82 78 81 67 69 71 71 71 68
2490.0 56 61 65 62 63 66 68 67 68 72
2530.0 78 78 84 87 90 92 99 94 103 108
2570.0 113 113 121 123 124 138 142 138 151 163
2610.0 165 171 174 188 199 206 211 207 221 226
2650.0 233 234 231 243 245 248 245 259 269 270
2690.0 279 281 290 301 310 316 318 344 366 384
2730.0 411 431 457 476 494 502 511 510 524 543
2770.0 569 582 601 622 650 680 709 742 773 805
2810.0 857 897 946 1011 1081 1171 1269 1405 1563 1762
2850.0 1997 2269 2607 3030 3558 4242 5049 5945 6816 7459
2890.0 7949 8270 8192 7847 7446 7133 6949 6866 6910 7012
2930.0 7111 7097 7043 6906 6712 6593 6635 6923 7493 8366
2970.0 9356 9900 10000 9672 8628 7075 5550 4119 2836 1861
3010.0 1223 834 617 493 413 372 342 322 296 284
3050.0 276 261 245 236 225 216 208 210 200 192
3090.0 195 192 183 191 170 172 172 173 168 156
3130.0 163 160 159 150 159 159 159 157 165 165
3170.0 174 159 157 147 147 145 137 129 120 106
3210.0 108 100 86 79 61 68 52 51 42 40
3250.0 30 31 30 27 31 25 23 17 15 22
3290.0 18 17 15 15 10 10 19 7 13 11
3330.0 13 10 15 9 14 14 17 29 27 24
3370.0 21 24 11 24 22 13 31 23 20 18
3410.0 30 34 34 48 42 62 76 79 99 95
3450.0 87 100 93 93 81 78 85 65 90 62
3490.0 76 74 75 85 114 58 132 51 115 127
3530.0 119 111 125 123 196 163 239 218 429 493
3570.0 890 989 1420 1849 2312 2741 2948 2990 2859 2601
3610.0 2275 1848 1506 1235 990 1041 916 1055 1168 1374
3650.0 1614 1964 2124 2362 2424 2251 2215 1767 1545 1107
3690.0 764 564 311 264 169 112 147 79 93 80
3730.0 96 84 30 151 8 139 6 83 5 44
3770.0 63 16 25 14 0 21 2 3 3 5
3810.0 7 3 3 3 3 3 3 3 3 19
3850.0 2 3 2 5 3 3 3 3 11 7
3890.0 2 3 5 3 10 3 3 23 3 3
3930.0 3 3 3 3 15 0 8 3 3 3
##END=
