##TITLE=Silane, dimethoxydiphenyl-
##JCAMP-DX=4.24
##DATA TYPE=INFRARED SPECTRUM
##ORIGIN=Sadtler Research Labs Under US-EPA Contract
##OWNER=NIST Standard Reference Data Program
##CAS REGISTRY NO=6843-66-9
##MOLFORM=C 14 H 16 O 2 Si
##XUNITS=1/CM
##YUNITS=ABSORBANCE
##XFACTOR=1.0
##YFACTOR=0.000072531
##DELTAX=4.0
##FIRSTX=450.0
##LASTX=3966.0
##FIRSTY=0.042431
##MAXX=3966
##MINX=450
##MAXY=0.72531
##MINY=0
##NPOINTS=880
##XYDATA=(X++(Y..Y))
450.0 585 502 473 348 463 476 675 747 906 987
490.0 1094 1052 943 962 1112 1594 2450 4243 5821 6361
530.0 4562 2295 956 479 289 201 155 102 94 77
570.0 13 35 27 6 26 30 32 11 7 0
610.0 25 31 65 57 36 28 46 45 58 106
650.0 146 242 339 464 452 470 504 536 574 708
690.0 1162 1941 2829 2930 2684 2698 3719 4825 4696 3575
730.0 2849 3278 3599 2955 2001 1692 2242 2957 3058 2316
770.0 1370 822 653 590 616 760 1055 1530 2126 2563
810.0 2635 2160 1434 842 506 316 236 185 150 132
850.0 100 86 54 48 44 36 47 37 34 21
890.0 31 31 20 27 28 32 47 39 46 42
930.0 40 46 46 52 50 46 48 58 58 60
970.0 70 85 99 118 143 200 305 394 401 335
1010.0 292 301 319 361 426 485 497 419 408 448
1050.0 528 641 785 989 1278 1689 2260 3076 4186 5674
1090.0 7479 9210 10000 9536 8384 7735 8107 9143 9955 9645
1130.0 7957 5764 4263 3480 2937 2533 2231 2003 1832 1732
1170.0 1694 1730 1868 2102 2403 2629 2643 2460 2195 1944
1210.0 1701 1475 1256 1062 900 776 675 596 519 465
1250.0 431 409 393 370 342 324 298 278 257 229
1290.0 218 214 214 217 201 180 153 144 150 157
1330.0 155 146 127 118 118 126 129 139 152 166
1370.0 181 183 169 146 140 136 134 142 153 179
1410.0 208 245 301 451 742 1031 1019 688 376 245
1450.0 221 217 209 195 194 198 193 182 185 196
1490.0 203 170 132 111 107 104 109 109 110 111
1530.0 112 109 117 118 128 129 134 128 118 124
1570.0 129 135 140 172 237 318 334 259 150 82
1610.0 70 74 76 58 43 35 31 36 41 65
1650.0 85 104 104 79 50 31 24 23 19 19
1690.0 18 23 22 26 28 39 51 58 57 59
1730.0 63 67 72 72 74 77 81 84 89 92
1770.0 97 94 80 62 44 38 38 34 45 61
1810.0 97 150 197 207 172 141 120 110 92 85
1850.0 84 83 90 92 93 96 105 129 158 191
1890.0 217 232 241 230 192 143 108 89 78 70
1930.0 62 62 66 75 100 129 156 164 159 151
1970.0 131 89 56 34 27 23 22 19 17 18
2010.0 19 17 14 12 13 5 4 6 6 5
2050.0 3 5 3 3 3 3 5 1 4 4
2090.0 1 3 3 7 2 6 6 7 9 8
2130.0 9 6 8 16 16 19 24 22 23 31
2170.0 32 37 36 36 34 29 24 25 21 20
2210.0 17 20 25 21 23 23 22 29 24 29
2250.0 26 25 21 19 17 14 15 16 19 19
2290.0 20 19 21 25 30 38 42 39 33 16
2330.0 0 9 0 0 15 14 16 12 0 0
2370.0 0 1 8 9 5 4 6 4 5 0
2410.0 3 3 7 2 4 2 3 6 1 0
2450.0 1 3 8 2 7 5 7 7 2 3
2490.0 4 6 4 5 7 8 7 8 8 10
2530.0 9 8 9 7 8 12 17 17 18 13
2570.0 16 19 19 23 30 29 29 28 29 33
2610.0 30 34 41 41 33 34 30 30 29 29
2650.0 20 22 23 21 21 25 22 24 22 21
2690.0 21 27 29 40 41 42 44 37 29 28
2730.0 24 19 24 21 23 30 28 34 34 39
2770.0 47 53 57 62 70 76 81 98 114 140
2810.0 169 209 246 288 349 442 619 1102 1961 2732
2850.0 2620 1797 1054 710 573 507 481 473 475 482
2890.0 507 533 560 602 650 703 779 848 918 980
2930.0 1033 1103 1269 1626 2157 2542 2462 2020 1594 1358
2970.0 1249 1199 1173 1148 1114 1047 1001 989 1034 1103
3010.0 1191 1259 1310 1258 1116 996 936 878 833 892
3050.0 1116 1666 2396 2716 2399 1942 1888 1918 1553 1101
3090.0 828 739 647 496 317 204 152 124 112 106
3130.0 120 133 153 159 138 89 47 36 34 30
3170.0 18 18 19 19 21 19 17 12 20 15
3210.0 20 19 12 10 9 4 13 10 13 5
3250.0 2 12 3 9 10 11 8 17 12 7
3290.0 10 13 8 5 3 3 11 10 10 4
3330.0 6 8 10 8 14 14 3 11 11 8
3370.0 9 15 15 11 13 7 11 7 11 4
3410.0 5 7 10 12 13 7 15 19 10 12
3450.0 5 7 12 6 6 14 10 7 16 15
3490.0 15 11 10 9 3 4 2 8 7 10
3530.0 14 17 0 10 15 26 8 14 9 1
3570.0 7 9 12 5 16 16 12 5 10 2
3610.0 8 12 16 7 11 29 31 21 30 9
3650.0 17 0 17 9 6 17 11 16 5 20
3690.0 18 31 40 13 22 27 36 29 30 37
3730.0 25 39 16 19 26 22 6 15 18 25
3770.0 18 24 14 20 15 11 6 9 11 23
3810.0 10 8 30 23 19 5 15 0 19 23
3850.0 17 0 14 16 18 30 8 17 11 17
3890.0 9 10 18 8 32 34 26 17 11 10
3930.0 20 32 34 11 40 25 18 2 7 25
##END=
