##TITLE=Acetamide, N,N-diethyl-
##JCAMP-DX=4.24
##DATA TYPE=INFRARED SPECTRUM
##ORIGIN=Sadtler Research Labs Under US-EPA Contract
##OWNER=NIST Standard Reference Data Program
##CAS REGISTRY NO=685-91-6
##MOLFORM=C 6 H 13 N O
##XUNITS=1/CM
##YUNITS=ABSORBANCE
##XFACTOR=1.0
##YFACTOR=0.000124213
##DELTAX=4.0
##FIRSTX=450.0
##LASTX=3966.0
##FIRSTY=0.014036
##MAXX=3966
##MINX=450
##MAXY=1.24213
##MINY=0
##NPOINTS=880
##XYDATA=(X++(Y..Y))
450.0 113 92 32 29 56 58 82 108 114 127
490.0 129 139 123 132 99 61 57 57 47 49
530.0 46 43 64 32 39 49 41 45 81 110
570.0 151 197 253 293 293 307 315 294 272 294
610.0 255 204 162 119 82 50 38 38 29 28
650.0 23 21 28 20 18 16 12 22 30 28
690.0 40 54 66 70 69 60 48 34 30 24
730.0 22 23 19 18 14 25 22 27 31 54
770.0 80 134 214 279 328 343 325 280 215 144
810.0 84 55 32 19 21 19 11 18 9 13
850.0 13 7 7 9 8 12 10 11 14 19
890.0 26 38 56 68 73 77 74 66 50 43
930.0 40 48 51 57 59 60 66 75 91 117
970.0 160 211 268 318 353 366 348 315 273 238
1010.0 215 236 286 382 516 638 717 731 707 642
1050.0 536 441 408 433 477 543 578 593 591 574
1090.0 565 536 517 482 428 358 274 210 164 135
1130.0 122 116 124 145 196 285 416 555 644 685
1170.0 670 597 468 316 219 181 175 186 218 281
1210.0 387 535 709 855 947 960 908 779 619 525
1250.0 568 771 1158 1711 2272 2681 2891 2850 2558 2026
1290.0 1442 1027 823 775 799 828 829 783 698 580
1330.0 474 451 513 661 841 1036 1241 1439 1556 1601
1370.0 1675 1756 1803 1815 1791 1715 1661 1640 1782 2186
1410.0 2753 3346 3757 3931 3815 3400 2861 2283 1871 1679
1450.0 1600 1552 1475 1415 1389 1308 1187 1174 1086 965
1490.0 836 687 517 393 305 231 209 176 155 153
1530.0 139 137 118 99 92 111 101 88 104 119
1570.0 120 126 138 139 155 152 161 158 168 165
1610.0 172 178 186 221 246 326 379 459 540 642
1650.0 737 932 1288 1992 3314 5398 7769 8851 10000 9382
1690.0 8492 5815 3269 1609 899 561 392 278 248 225
1730.0 196 173 182 179 164 154 152 144 135 146
1770.0 140 141 144 128 110 91 90 89 77 81
1810.0 68 52 42 28 19 10 13 13 7 2
1850.0 9 15 15 16 11 4 13 13 11 7
1890.0 5 5 6 8 8 8 6 9 5 13
1930.0 15 17 18 13 15 17 17 17 23 20
1970.0 25 25 26 22 19 12 7 8 8 7
2010.0 8 4 4 5 3 1 2 0 1 1
2050.0 5 6 7 8 10 13 13 12 9 11
2090.0 11 14 16 18 21 26 29 33 34 33
2130.0 30 28 23 20 18 16 14 15 17 15
2170.0 12 12 12 12 10 9 8 8 7 7
2210.0 8 6 9 8 10 11 10 10 11 13
2250.0 16 18 16 18 19 19 17 17 16 15
2290.0 14 12 15 14 17 19 17 17 23 26
2330.0 23 22 21 23 26 27 27 25 28 21
2370.0 19 25 27 24 25 26 25 22 21 19
2410.0 18 17 15 17 17 17 17 20 20 21
2450.0 22 21 18 19 16 16 13 13 14 12
2490.0 11 12 11 9 10 11 13 14 16 19
2530.0 20 23 24 24 23 21 18 17 15 13
2570.0 13 13 14 17 18 18 16 15 15 15
2610.0 15 15 19 19 20 20 18 19 18 19
2650.0 19 22 22 22 23 25 27 32 35 37
2690.0 44 47 47 49 50 47 45 44 45 46
2730.0 46 47 50 52 52 54 52 53 55 53
2770.0 56 56 60 64 70 75 81 90 95 102
2810.0 113 124 133 144 157 171 184 195 210 227
2850.0 243 265 297 339 409 509 639 773 894 990
2890.0 1028 1039 1033 1022 1015 1015 1013 1042 1107 1227
2930.0 1407 1614 1781 1864 1826 1709 1559 1446 1441 1644
2970.0 2017 2332 2752 3107 3004 2806 2448 1978 1539 1153
3010.0 844 640 515 435 379 332 296 262 239 221
3050.0 207 195 185 175 164 156 149 143 137 131
3090.0 125 120 111 108 104 97 93 90 86 80
3130.0 77 76 69 69 69 68 66 65 63 63
3170.0 59 59 58 51 51 47 41 38 33 30
3210.0 27 26 24 19 16 17 17 16 14 15
3250.0 16 14 15 13 14 19 16 16 13 18
3290.0 19 19 21 21 23 22 26 27 35 40
3330.0 50 65 78 85 91 91 80 66 52 36
3370.0 23 16 9 9 14 13 14 17 17 22
3410.0 23 16 16 20 16 16 13 10 12 16
3450.0 13 14 14 17 17 18 15 14 14 11
3490.0 11 15 10 10 10 9 9 10 10 9
3530.0 10 11 12 10 16 15 13 22 20 21
3570.0 20 19 17 24 18 22 20 19 16 15
3610.0 14 12 10 10 14 12 8 10 5 16
3650.0 13 9 12 15 11 12 11 14 16 15
3690.0 17 14 11 11 16 16 9 17 11 9
3730.0 12 16 18 16 18 16 15 15 13 11
3770.0 13 10 8 15 10 8 12 11 13 15
3810.0 11 15 17 15 8 8 10 10 15 13
3850.0 12 11 11 18 19 7 13 6 11 13
3890.0 11 16 10 6 18 18 10 18 15 3
3930.0 10 7 23 7 14 13 15 19 11 15
##END=
