##TITLE=Propanedioic acid, bromo-, diethyl ester
##JCAMP-DX=4.24
##DATA TYPE=INFRARED SPECTRUM
##ORIGIN=Sadtler Research Labs Under US-EPA Contract
##OWNER=NIST Standard Reference Data Program
##CAS REGISTRY NO=685-87-0
##MOLFORM=C 7 H 11 Br O 4
##XUNITS=1/CM
##YUNITS=ABSORBANCE
##XFACTOR=1.0
##YFACTOR=0.000086050
##DELTAX=4.0
##FIRSTX=450.0
##LASTX=3966.0
##FIRSTY=0.011359
##MAXX=3966
##MINX=450
##MAXY=0.8605
##MINY=0
##NPOINTS=880
##XYDATA=(X++(Y..Y))
450.0 132 171 143 112 104 77 85 73 28 65
490.0 24 45 48 25 30 15 28 12 4 9
530.0 32 36 38 62 65 91 102 121 140 147
570.0 151 176 194 211 173 191 175 171 182 191
610.0 206 233 248 250 264 308 354 399 438 462
650.0 491 450 394 303 271 255 255 251 253 220
690.0 210 213 224 256 293 293 314 321 279 232
730.0 186 159 157 140 147 132 152 160 181 210
770.0 218 244 263 272 272 264 258 255 241 259
810.0 263 284 274 250 204 176 157 135 146 170
850.0 218 294 420 556 663 691 621 499 357 219
890.0 142 111 82 74 73 75 87 103 140 176
930.0 230 286 317 332 328 309 290 270 249 220
970.0 200 178 165 167 172 186 219 257 324 414
1010.0 551 786 1129 1653 2372 3246 4116 4702 4675 4009
1050.0 2981 2051 1429 1074 876 753 686 685 710 808
1090.0 988 1266 1535 1687 1691 1669 1753 1970 2316 2821
1130.0 3506 4384 5314 6057 6192 5578 4607 3686 3018 2602
1170.0 2365 2245 2191 2197 2303 2550 2906 3256 3420 3390
1210.0 3238 3153 3225 3458 3810 4249 4762 5186 5429 5488
1250.0 5517 5527 5564 5557 5594 5667 5709 5622 5330 4942
1290.0 4547 4360 4435 4692 4842 4590 3893 3013 2236 1708
1330.0 1359 1082 857 646 495 409 362 383 527 947
1370.0 1406 1543 1304 861 623 581 598 605 567 510
1410.0 450 389 380 340 328 317 348 370 407 472
1450.0 549 577 587 583 648 742 780 698 537 408
1490.0 296 193 149 106 98 96 68 66 73 49
1530.0 47 39 46 63 54 31 36 51 34 17
1570.0 26 24 24 25 12 23 19 20 14 20
1610.0 20 19 33 20 38 16 40 41 35 36
1650.0 59 56 49 45 52 67 80 74 108 136
1690.0 134 158 217 264 315 369 473 590 703 834
1730.0 1094 1464 2037 2879 4172 5727 7622 9263 10000 9455
1770.0 7633 5966 4925 4589 4373 3796 2600 1584 981 697
1810.0 541 439 351 294 250 207 171 139 129 115
1850.0 94 72 69 58 62 66 55 57 61 65
1890.0 72 76 73 71 66 63 54 46 45 32
1930.0 24 17 15 14 13 8 12 12 12 15
1970.0 11 8 11 12 9 16 15 18 16 17
2010.0 19 18 19 13 11 8 7 6 8 7
2050.0 7 7 10 12 16 18 17 21 18 20
2090.0 21 18 23 25 23 20 21 23 18 21
2130.0 19 16 20 17 13 13 12 9 5 7
2170.0 2 5 8 3 2 1 3 3 2 2
2210.0 2 4 2 5 7 7 12 11 11 11
2250.0 10 8 7 5 5 4 5 6 8 8
2290.0 14 21 28 38 40 53 50 44 52 44
2330.0 36 37 26 21 50 52 47 33 40 31
2370.0 40 47 56 50 31 17 11 12 15 15
2410.0 17 18 18 23 21 22 19 19 13 17
2450.0 15 14 13 13 14 17 12 13 13 12
2490.0 15 16 8 12 9 11 9 12 10 8
2530.0 9 7 6 7 5 8 9 7 7 3
2570.0 5 6 8 5 0 1 4 0 3 4
2610.0 2 2 3 9 3 6 6 4 3 6
2650.0 5 1 2 3 1 8 5 10 7 8
2690.0 10 10 6 10 11 12 10 15 15 14
2730.0 21 27 25 27 28 28 29 33 30 33
2770.0 40 43 48 54 52 46 44 44 41 41
2810.0 48 52 57 67 78 88 88 92 92 93
2850.0 98 113 126 146 168 187 224 276 361 429
2890.0 450 435 424 454 510 576 634 650 623 578
2930.0 568 630 769 970 1153 1188 1069 903 823 884
2970.0 1031 1215 1433 1871 2535 2989 2847 2288 1801 1525
3010.0 1289 1048 805 599 442 342 272 219 180 159
3050.0 141 119 102 91 82 73 74 65 59 56
3090.0 56 52 50 50 47 41 40 38 49 48
3130.0 46 41 41 44 39 36 38 39 38 42
3170.0 37 34 34 36 34 31 36 29 30 32
3210.0 30 27 27 22 21 16 17 17 17 18
3250.0 18 16 11 11 12 6 8 15 7 12
3290.0 12 11 12 11 17 10 9 6 14 11
3330.0 13 14 13 11 10 6 9 11 4 6
3370.0 5 12 10 7 11 13 11 13 17 16
3410.0 11 8 17 16 9 15 11 14 16 14
3450.0 10 9 14 18 24 27 24 29 30 41
3490.0 48 42 43 52 53 44 45 41 32 25
3530.0 17 25 24 28 28 20 24 13 10 7
3570.0 11 8 13 5 13 14 15 12 24 3
3610.0 9 3 6 0 11 16 23 15 16 14
3650.0 26 25 26 24 27 38 36 37 42 39
3690.0 27 26 22 14 18 20 16 18 15 12
3730.0 16 32 23 12 22 17 29 15 24 20
3770.0 24 25 10 4 10 10 16 30 10 14
3810.0 23 19 30 33 34 16 21 22 22 17
3850.0 18 16 17 23 30 26 16 20 20 34
3890.0 17 4 0 39 4 23 18 16 13 16
3930.0 21 18 6 29 24 29 30 38 28 28
##END=
