##TITLE=Propanenitrile, 3-(tetradecyloxy)-
##JCAMP-DX=4.24
##DATA TYPE=INFRARED SPECTRUM
##ORIGIN=Sadtler Research Labs Under US-EPA Contract
##OWNER=NIST Standard Reference Data Program
##CAS REGISTRY NO=68527-83-3
##MOLFORM=C 17 H 33 N O
##XUNITS=1/CM
##YUNITS=ABSORBANCE
##XFACTOR=1.0
##YFACTOR=0.000147308
##DELTAX=4.0
##FIRSTX=450.0
##LASTX=3966.0
##FIRSTY=0.006040
##MAXX=3966
##MINX=450
##MAXY=1.47308
##MINY=0
##NPOINTS=880
##XYDATA=(X++(Y..Y))
450.0 41 3 138 142 266 191 175 268 158 173
490.0 157 165 204 179 173 82 64 168 142 94
530.0 96 8 97 141 147 182 114 186 132 189
570.0 210 156 207 179 137 129 131 106 98 121
610.0 141 124 157 119 129 143 119 99 90 129
650.0 139 131 183 102 139 174 139 195 130 200
690.0 176 81 168 192 208 253 253 271 276 277
730.0 270 226 210 228 215 241 235 198 174 164
770.0 215 163 187 199 164 186 205 154 191 198
810.0 166 189 167 189 202 212 185 161 174 208
850.0 187 189 189 180 167 145 161 180 184 212
890.0 193 184 193 198 205 181 207 178 184 204
930.0 196 173 215 206 211 265 222 224 226 229
970.0 271 280 265 285 272 283 306 292 302 305
1010.0 310 329 324 309 304 311 312 335 367 355
1050.0 373 366 389 433 475 521 522 543 591 660
1090.0 753 887 1102 1437 1839 2385 2860 3213 3427 3368
1130.0 2834 2304 1761 1302 1010 804 662 605 522 460
1170.0 422 393 382 348 319 331 295 305 267 303
1210.0 270 285 279 249 230 273 256 283 261 275
1250.0 300 321 321 313 313 312 313 305 303 309
1290.0 304 313 323 334 343 344 336 331 320 318
1330.0 333 344 372 411 469 536 617 684 751 828
1370.0 848 827 720 591 467 367 304 274 266 271
1410.0 278 288 311 332 352 377 390 420 488 550
1450.0 626 709 808 861 846 779 653 512 414 339
1490.0 275 224 186 162 146 132 120 114 107 100
1530.0 98 91 93 84 85 81 81 85 74 75
1570.0 70 75 72 72 73 70 69 64 62 61
1610.0 61 65 61 60 58 60 59 57 51 52
1650.0 56 57 54 50 53 52 50 49 52 52
1690.0 48 50 46 50 49 49 48 51 53 51
1730.0 55 55 61 64 65 60 67 71 68 65
1770.0 59 58 52 46 42 39 37 34 36 31
1810.0 30 31 27 27 26 25 23 26 28 26
1850.0 27 24 25 30 27 27 22 23 22 21
1890.0 21 23 24 24 23 21 23 22 22 25
1930.0 25 20 20 21 22 23 21 21 24 22
1970.0 19 20 17 17 18 19 17 16 18 18
2010.0 19 20 19 22 22 24 25 25 26 22
2050.0 22 24 21 21 24 22 22 25 21 20
2090.0 21 18 18 17 16 15 19 16 19 17
2130.0 15 12 12 12 17 14 16 14 14 12
2170.0 13 13 11 8 9 8 11 8 4 9
2210.0 9 8 10 9 8 12 16 20 23 31
2250.0 42 55 56 49 32 23 15 14 13 10
2290.0 9 13 13 11 9 14 17 20 21 13
2330.0 16 15 23 17 23 18 23 16 26 27
2370.0 18 22 19 14 13 11 10 10 9 9
2410.0 11 12 12 12 15 12 11 13 11 8
2450.0 11 14 15 11 11 13 14 14 16 13
2490.0 16 14 20 16 16 20 23 23 27 25
2530.0 26 34 34 33 33 34 34 34 32 36
2570.0 37 39 42 40 42 47 49 49 53 63
2610.0 63 60 64 65 68 74 76 78 82 81
2650.0 87 95 95 99 103 105 114 115 120 124
2690.0 126 128 129 130 129 134 134 142 144 149
2730.0 157 160 165 171 175 175 172 175 176 183
2770.0 188 200 211 229 249 272 297 321 344 360
2810.0 376 399 424 464 518 577 660 776 954 1229
2850.0 1676 2372 3347 4235 4532 4267 3801 3404 3110 2867
2890.0 2646 2494 2503 2664 2970 3430 3994 4766 5886 7510
2930.0 9286 10000 9472 8157 6625 5224 4117 3421 3059 2869
2970.0 2632 2208 1675 1233 939 739 605 509 430 376
3010.0 327 291 263 235 211 197 185 165 152 139
3050.0 125 120 115 103 100 90 88 79 74 80
3090.0 67 71 65 65 60 63 54 61 54 52
3130.0 51 51 46 45 50 46 38 46 44 40
3170.0 39 45 45 35 37 38 30 33 38 25
3210.0 32 26 29 25 21 26 19 18 21 20
3250.0 24 14 19 23 23 23 19 19 16 20
3290.0 15 18 18 22 18 27 22 13 19 17
3330.0 13 25 18 24 21 24 15 19 16 20
3370.0 24 10 22 19 19 22 20 16 11 16
3410.0 21 19 20 13 20 16 16 15 13 24
3450.0 15 13 6 20 4 19 19 17 11 10
3490.0 18 16 16 13 7 19 8 9 23 18
3530.0 16 16 16 14 12 16 19 18 27 27
3570.0 15 17 23 28 26 11 22 19 21 18
3610.0 30 27 27 24 25 29 23 21 38 29
3650.0 16 24 24 27 18 32 15 30 23 22
3690.0 17 22 14 30 26 27 30 14 23 29
3730.0 30 24 25 17 33 37 23 13 20 26
3770.0 29 24 31 16 23 15 23 22 27 20
3810.0 0 19 33 46 25 13 15 13 23 28
3850.0 30 35 37 10 17 8 35 39 30 32
3890.0 31 35 13 25 30 19 36 35 29 57
3930.0 23 11 33 34 49 35 12 13 50 49
##END=
