##TITLE=1,2-Ethanediamine, N,N,N',N'-tetrapropyl-
##JCAMP-DX=4.24
##DATA TYPE=INFRARED SPECTRUM
##ORIGIN=Sadtler Research Labs Under US-EPA Contract
##OWNER=NIST Standard Reference Data Program
##CAS REGISTRY NO=68555-41-9
##MOLFORM=C 14 H 32 N 2
##XUNITS=1/CM
##YUNITS=ABSORBANCE
##XFACTOR=1.0
##YFACTOR=0.000070557
##DELTAX=4.0
##FIRSTX=450.0
##LASTX=3966.0
##FIRSTY=0.005151
##MAXX=3966
##MINX=450
##MAXY=0.70557
##MINY=0
##NPOINTS=880
##XYDATA=(X++(Y..Y))
450.0 73 73 118 101 84 56 69 60 53 51
490.0 43 78 79 107 93 78 73 92 118 107
530.0 113 107 124 110 128 106 156 114 129 131
570.0 149 118 94 53 92 114 99 77 50 7
610.0 71 87 44 62 68 52 66 69 60 61
650.0 43 49 8 35 58 80 63 70 107 105
690.0 115 89 114 93 117 112 137 134 141 179
730.0 206 221 261 307 309 303 267 209 196 185
770.0 197 176 161 165 192 133 141 175 155 164
810.0 178 169 209 200 229 251 296 306 298 298
850.0 276 270 270 280 287 313 334 367 405 414
890.0 426 402 356 307 286 272 255 243 249 231
930.0 227 219 248 262 271 285 289 279 287 280
970.0 266 301 304 329 397 430 525 610 684 738
1010.0 785 825 855 870 918 913 896 859 799 818
1050.0 906 1050 1283 1614 2018 2371 2572 2476 2241 1988
1090.0 1786 1608 1425 1271 1102 964 865 784 721 634
1130.0 624 595 597 637 681 680 660 603 549 515
1170.0 505 543 664 822 1027 1174 1179 971 702 522
1210.0 410 344 323 316 320 329 345 373 405 441
1250.0 469 510 561 620 672 736 785 802 819 835
1290.0 852 875 871 852 803 751 712 690 683 705
1330.0 728 785 872 939 948 944 935 951 998 996
1370.0 1000 1050 1186 1358 1377 1217 922 697 533 445
1410.0 406 378 362 375 376 389 427 494 594 711
1450.0 853 1067 1323 1641 1802 1754 1448 1036 698 480
1490.0 358 298 258 236 213 187 179 150 130 133
1530.0 138 124 108 101 103 94 86 83 68 77
1570.0 78 80 66 79 71 65 73 79 73 71
1610.0 69 77 62 76 78 78 87 85 85 91
1650.0 92 84 106 115 130 134 145 143 141 133
1690.0 146 187 274 347 388 353 276 198 151 129
1730.0 121 105 96 96 82 82 81 75 80 75
1770.0 66 59 60 51 59 59 51 45 45 45
1810.0 37 31 31 33 29 27 22 21 21 16
1850.0 22 22 22 29 21 21 20 18 21 21
1890.0 21 21 26 19 19 28 20 19 20 20
1930.0 21 17 23 19 18 13 20 11 19 17
1970.0 11 17 11 16 13 18 13 17 13 16
2010.0 16 16 17 17 16 16 16 15 15 12
2050.0 16 16 8 9 7 8 8 8 7 8
2090.0 8 10 5 6 6 6 15 11 8 7
2130.0 5 0 5 12 6 6 6 8 8 7
2170.0 12 12 12 18 18 19 11 17 10 18
2210.0 18 18 14 13 11 10 10 10 9 9
2250.0 10 10 10 10 8 8 3 9 9 10
2290.0 16 9 16 17 18 13 16 16 35 29
2330.0 28 27 27 39 28 34 34 36 42 32
2370.0 33 32 32 34 34 29 29 22 30 31
2410.0 23 23 15 17 20 17 17 17 22 17
2450.0 18 25 25 18 25 19 18 27 27 27
2490.0 18 27 30 34 27 35 36 36 42 50
2530.0 50 52 65 65 69 77 79 80 86 87
2570.0 94 94 104 102 115 125 128 131 144 145
2610.0 153 166 175 176 190 204 214 235 239 250
2650.0 265 281 295 309 332 340 362 376 378 391
2690.0 406 431 469 505 557 608 673 733 792 845
2730.0 904 949 991 1024 1041 1056 1087 1139 1211 1293
2770.0 1408 1523 1676 1852 2109 2438 2880 3336 3732 3952
2810.0 3976 3776 3495 3188 2869 2546 2299 2071 1895 1780
2850.0 1707 1694 1765 1943 2248 2675 3203 3885 4445 4451
2890.0 4007 3457 3225 3203 3308 3455 3602 3813 4083 4477
2930.0 4953 5656 6499 7254 7252 6765 6346 6877 8531 10000
2970.0 9860 8102 6173 4447 3059 2093 1525 1186 986 834
3010.0 738 667 599 553 504 472 431 390 356 320
3050.0 296 268 252 233 211 207 196 184 177 171
3090.0 162 157 157 143 149 135 128 129 128 112
3130.0 111 107 108 109 102 93 102 96 89 103
3170.0 89 83 83 79 81 75 68 55 67 46
3210.0 50 48 41 42 43 43 43 35 37 33
3250.0 28 32 30 30 30 30 23 23 22 31
3290.0 25 18 21 22 16 26 26 26 18 18
3330.0 19 19 12 22 28 19 19 29 12 22
3370.0 13 20 22 15 15 21 22 17 20 19
3410.0 18 25 16 17 17 16 16 17 11 26
3450.0 17 18 10 12 12 14 12 9 7 6
3490.0 5 13 13 6 4 11 10 9 10 12
3530.0 9 14 14 9 1 17 21 16 15 21
3570.0 12 16 17 17 14 25 18 11 18 18
3610.0 19 19 10 16 19 29 30 34 35 27
3650.0 27 28 36 36 27 35 32 36 28 30
3690.0 23 31 30 23 31 30 32 33 28 32
3730.0 39 40 43 43 37 39 40 40 47 47
3770.0 47 46 41 49 49 45 53 56 48 64
3810.0 57 57 50 58 64 65 67 61 55 52
3850.0 56 52 53 59 66 60 59 60 58 61
3890.0 60 69 60 60 69 69 68 62 55 56
3930.0 55 48 56 58 56 64 18 21 21 22
##END=
