##TITLE=Thiazolo[5,4,3-ij]quinolin-2-one, 2H,4H-,5,6-dihydro-,
##JCAMP-DX=4.24
##DATA TYPE=INFRARED SPECTRUM
##ORIGIN=Sadtler Research Labs Under US-EPA Contract
##OWNER=NIST Standard Reference Data Program
##CAS REGISTRY NO=68729-18-0
##MOLFORM=C 10 H 9 N O S
##XUNITS=1/CM
##YUNITS=ABSORBANCE
##XFACTOR=1.0
##YFACTOR=0.000184717
##DELTAX=4.0
##FIRSTX=450.0
##LASTX=3966.0
##FIRSTY=0.004248
##MAXX=3966
##MINX=450
##MAXY=1.84717
##MINY=0
##NPOINTS=880
##XYDATA=(X++(Y..Y))
450.0 23 96 132 83 121 89 82 23 22 29
490.0 24 31 54 89 95 81 66 78 121 163
530.0 162 126 93 78 76 75 74 41 29 15
570.0 19 16 16 19 13 24 14 47 56 74
610.0 70 92 61 49 37 29 34 37 57 86
650.0 128 68 62 29 29 28 3 11 2 15
690.0 0 22 15 37 48 113 195 257 357 405
730.0 578 560 331 290 316 389 586 934 768 418
770.0 338 116 65 10 33 12 9 12 10 13
810.0 8 38 44 77 115 204 284 366 393 350
850.0 284 194 125 102 131 132 126 95 66 47
890.0 57 74 112 166 207 230 202 151 118 110
930.0 102 90 68 42 31 28 27 15 16 10
970.0 11 6 8 7 5 6 5 8 9 18
1010.0 27 47 83 107 110 105 96 83 79 65
1050.0 55 50 60 78 108 142 177 211 220 205
1090.0 169 114 61 32 25 22 23 27 38 47
1130.0 61 70 89 115 173 271 450 728 963 1012
1170.0 913 640 376 299 354 425 444 423 352 292
1210.0 281 334 492 795 1148 1315 1304 1011 559 285
1250.0 161 98 74 66 65 70 82 114 182 269
1290.0 353 425 483 525 601 762 1075 1438 1569 1422
1330.0 1106 689 415 296 222 182 147 120 121 131
1370.0 163 203 194 158 128 85 66 60 45 39
1410.0 39 28 63 60 92 148 244 317 420 584
1450.0 783 945 1004 899 756 627 654 886 1243 1465
1490.0 1395 1145 755 363 179 133 103 103 111 78
1530.0 69 59 68 80 73 59 71 101 104 114
1570.0 166 241 362 472 486 471 402 342 296 272
1610.0 245 217 201 188 201 181 195 200 216 248
1650.0 305 342 384 445 554 667 812 921 1051 1151
1690.0 1205 1269 1418 1756 2655 4762 7800 10000 9619 8888
1730.0 4986 2694 1865 1644 1546 1469 1310 1100 860 616
1770.0 446 321 239 187 155 131 120 109 115 112
1810.0 127 141 146 149 148 147 123 106 99 86
1850.0 60 36 30 23 26 31 23 22 25 29
1890.0 40 49 54 51 41 30 19 16 18 11
1930.0 9 8 8 13 11 6 5 2 1 2
1970.0 2 2 2 4 4 10 10 9 7 7
2010.0 5 7 6 4 3 3 3 3 4 2
2050.0 0 2 3 4 6 8 7 7 4 4
2090.0 5 3 3 2 2 2 3 3 5 4
2130.0 7 9 9 8 10 9 7 7 6 5
2170.0 4 4 3 3 4 5 6 8 9 8
2210.0 10 10 10 10 12 11 12 12 11 13
2250.0 14 13 14 15 15 16 16 14 14 15
2290.0 19 25 31 35 35 37 34 33 33 29
2330.0 29 24 15 24 29 33 31 23 15 21
2370.0 21 20 25 26 23 16 14 11 9 6
2410.0 4 4 2 2 1 2 0 1 2 2
2450.0 2 5 7 10 11 11 13 14 14 13
2490.0 12 11 9 7 8 11 11 11 11 12
2530.0 11 11 13 13 12 11 10 9 8 6
2570.0 4 4 6 6 7 7 9 12 16 21
2610.0 24 26 26 30 31 31 32 32 31 29
2650.0 24 23 22 19 18 15 16 15 13 14
2690.0 12 12 11 10 6 8 6 7 8 7
2730.0 9 11 14 19 22 24 25 23 22 20
2770.0 20 21 24 26 25 25 25 25 22 24
2810.0 22 25 27 31 37 43 51 62 91 137
2850.0 198 240 250 232 200 195 218 268 335 422
2890.0 487 498 466 394 334 287 239 204 190 199
2930.0 243 306 451 616 736 863 954 1001 997 895
2970.0 689 393 212 170 170 163 137 100 60 41
3010.0 39 44 49 67 92 124 148 164 174 177
3050.0 182 190 212 224 240 248 250 235 212 182
3090.0 149 112 76 50 32 21 14 12 12 9
3130.0 11 9 9 10 10 9 8 11 12 11
3170.0 13 14 13 13 13 11 12 10 10 10
3210.0 11 9 9 8 10 8 10 10 10 9
3250.0 9 13 12 9 12 13 10 11 11 12
3290.0 12 10 11 10 12 11 10 12 12 12
3330.0 9 11 12 12 13 11 13 12 14 12
3370.0 11 13 14 12 15 18 22 24 26 32
3410.0 42 57 69 83 84 74 54 35 21 15
3450.0 13 15 12 12 14 13 10 9 7 5
3490.0 0 4 3 1 0 3 6 3 4 2
3530.0 4 7 3 3 3 7 5 4 6 8
3570.0 11 12 18 14 15 13 10 5 3 3
3610.0 4 1 4 0 6 6 6 6 5 5
3650.0 4 8 3 2 2 4 2 3 5 6
3690.0 7 7 6 6 5 5 5 5 5 6
3730.0 6 7 7 10 15 11 11 11 8 5
3770.0 7 6 6 10 8 11 10 11 10 14
3810.0 6 13 14 7 5 7 8 6 6 9
3850.0 12 16 9 9 8 8 9 8 3 9
3890.0 7 11 9 16 13 10 9 12 16 13
3930.0 8 11 9 9 5 11 9 8 9 20
##END=
