##TITLE=Cyclohexane, 1,2-dimethyl-, trans-
##JCAMP-DX=4.24
##DATA TYPE=INFRARED SPECTRUM
##ORIGIN=Sadtler Research Labs Under US-EPA Contract
##OWNER=NIST Standard Reference Data Program
##CAS REGISTRY NO=6876-23-9
##MOLFORM=C 8 H 16
##XUNITS=1/CM
##YUNITS=ABSORBANCE
##XFACTOR=1.0
##YFACTOR=0.000111719
##DELTAX=4.0
##FIRSTX=450.0
##LASTX=3966.0
##FIRSTY=0.000000
##MAXX=3966
##MINX=450
##MAXY=1.11719
##MINY=0
##NPOINTS=880
##XYDATA=(X++(Y..Y))
450.0 0 245 515 288 517 300 527 432 392 378
490.0 364 417 345 433 386 408 333 315 351 336
530.0 373 415 376 388 480 391 449 335 445 217
570.0 322 448 405 402 374 392 396 396 380 402
610.0 381 404 356 388 407 397 405 384 401 390
650.0 393 387 394 388 392 399 391 390 380 387
690.0 380 389 386 391 376 394 394 393 403 383
730.0 392 384 380 377 386 379 375 394 378 391
770.0 383 382 378 377 382 382 379 386 393 397
810.0 375 373 394 384 393 386 378 394 388 387
850.0 392 391 404 426 396 403 407 418 427 424
890.0 427 415 405 386 391 386 389 385 396 398
930.0 405 422 432 450 456 463 469 480 493 508
970.0 504 499 476 448 431 420 427 444 464 444
1010.0 448 437 414 396 383 388 384 392 391 386
1050.0 377 381 378 370 373 369 373 365 371 372
1090.0 378 385 399 404 406 397 387 380 367 361
1130.0 354 353 349 351 347 354 358 356 360 362
1170.0 370 365 368 366 362 347 346 343 342 343
1210.0 341 346 341 346 344 349 349 366 400 438
1250.0 455 466 479 461 441 392 368 360 363 368
1290.0 377 392 405 416 417 424 384 374 367 356
1330.0 358 356 358 362 375 375 390 409 467 539
1370.0 601 691 758 760 731 662 559 468 384 364
1410.0 348 356 356 368 390 442 553 701 878 977
1450.0 1223 1523 1387 1211 1163 1062 903 693 577 479
1490.0 413 373 351 336 325 324 318 317 312 310
1530.0 309 312 309 307 307 310 309 309 312 307
1570.0 309 309 307 308 303 306 302 303 303 305
1610.0 304 308 304 308 304 307 305 305 306 309
1650.0 308 313 308 308 308 304 304 302 294 299
1690.0 292 294 296 298 291 290 289 287 285 285
1730.0 284 284 285 284 282 283 285 282 283 287
1770.0 280 287 281 283 281 282 280 281 281 282
1810.0 279 276 275 271 274 273 272 270 268 270
1850.0 270 271 267 266 265 267 265 267 265 262
1890.0 264 265 263 264 264 259 262 264 260 260
1930.0 261 265 264 263 260 263 264 260 259 258
1970.0 256 257 255 253 255 254 252 251 253 254
2010.0 256 252 253 255 252 255 254 255 249 251
2050.0 249 249 248 248 248 245 245 246 244 245
2090.0 242 241 240 242 242 243 249 246 244 247
2130.0 248 249 246 249 249 247 245 243 247 246
2170.0 248 245 248 245 242 238 239 242 238 239
2210.0 241 241 238 234 235 237 240 242 238 236
2250.0 238 237 239 237 240 243 241 241 241 241
2290.0 241 244 248 249 249 248 250 248 243 250
2330.0 247 240 238 243 254 239 245 239 252 243
2370.0 241 234 238 240 240 246 247 253 258 261
2410.0 262 264 263 262 264 262 261 258 257 257
2450.0 254 257 261 260 258 256 254 260 256 258
2490.0 258 259 261 265 265 265 268 267 266 265
2530.0 264 258 263 263 265 260 257 259 257 263
2570.0 267 268 277 284 295 308 317 312 310 311
2610.0 306 300 301 297 300 299 298 300 300 305
2650.0 311 324 330 339 348 360 366 369 356 341
2690.0 332 320 319 315 317 307 309 309 313 323
2730.0 328 339 338 344 342 337 335 331 321 324
2770.0 322 329 334 336 358 369 387 401 413 420
2810.0 433 442 447 461 476 520 595 785 1104 1585
2850.0 2136 2802 3179 3712 4530 3846 3518 3367 3051 2751
2890.0 2573 2425 2475 2861 3128 3723 4783 5896 6705 8412
2930.0 10000 8503 7983 7221 6067 4987 4062 3812 3634 3175
2970.0 3231 3223 2695 2336 1873 1494 1092 654 454 374
3010.0 350 332 322 326 321 331 325 329 334 332
3050.0 336 325 321 319 311 309 314 315 316 313
3090.0 314 312 322 329 320 320 323 323 321 317
3130.0 310 305 307 311 305 310 313 314 307 310
3170.0 306 306 300 303 296 286 285 281 268 278
3210.0 271 267 276 271 274 275 280 276 278 274
3250.0 282 286 278 281 279 274 270 264 265 272
3290.0 265 260 261 266 256 269 267 271 269 261
3330.0 259 260 257 259 250 260 257 250 256 255
3370.0 256 256 259 248 252 251 254 250 254 260
3410.0 252 255 247 252 269 246 265 269 256 252
3450.0 258 267 256 270 267 260 254 272 278 269
3490.0 259 273 257 252 262 261 261 247 258 252
3530.0 246 257 248 246 246 246 243 242 250 254
3570.0 268 252 246 263 263 262 239 260 267 262
3610.0 269 273 261 259 278 264 275 279 282 259
3650.0 267 268 261 281 262 276 286 272 283 285
3690.0 302 283 269 283 269 284 286 270 279 318
3730.0 295 298 279 286 293 288 302 309 295 305
3770.0 286 318 302 279 295 295 300 294 307 315
3810.0 306 318 305 300 305 293 330 320 299 311
3850.0 308 292 340 307 318 321 338 302 292 332
3890.0 286 309 319 363 364 334 338 314 309 353
3930.0 367 317 313 336 346 339 324 297 341 386
##END=
