##TITLE=p-Isobutyrotoluidide
##JCAMP-DX=4.24
##DATA TYPE=INFRARED SPECTRUM
##ORIGIN=Sadtler Research Labs Under US-EPA Contract
##OWNER=NIST Standard Reference Data Program
##CAS REGISTRY NO=6876-49-9
##MOLFORM=C 11 H 15 N O
##XUNITS=1/CM
##YUNITS=ABSORBANCE
##XFACTOR=1.0
##YFACTOR=0.000054944
##DELTAX=4.0
##FIRSTX=450.0
##LASTX=3966.0
##FIRSTY=0.023076
##MAXX=3966
##MINX=450
##MAXY=0.54944
##MINY=0
##NPOINTS=880
##XYDATA=(X++(Y..Y))
450.0 420 256 179 266 304 304 376 355 384 432
490.0 575 731 818 984 1057 1060 1004 950 881 818
530.0 764 684 571 475 377 342 284 226 187 148
570.0 161 135 121 118 119 89 67 60 71 67
610.0 71 63 56 36 29 44 37 22 12 61
650.0 74 61 77 63 40 23 31 28 31 38
690.0 31 39 41 54 58 68 57 64 55 52
730.0 61 25 59 94 59 81 99 112 95 113
770.0 107 141 184 241 357 476 651 864 1081 1190
810.0 1149 1020 896 785 682 577 496 385 318 272
850.0 222 188 169 152 126 132 117 109 87 74
890.0 71 66 88 88 84 94 126 160 218 289
930.0 361 400 366 309 237 196 168 155 142 133
970.0 137 125 136 142 149 145 143 138 135 143
1010.0 176 250 301 298 279 246 271 301 355 413
1050.0 479 556 604 611 592 540 499 474 472 505
1090.0 542 585 624 666 717 800 921 1037 1091 1089
1130.0 1074 1137 1315 1601 1864 1905 1659 1251 907 722
1170.0 669 792 1032 1227 1282 1109 850 664 568 543
1210.0 539 568 635 792 1075 1502 1920 2083 1920 1508
1250.0 1177 986 895 875 921 1074 1360 1750 2115 2249
1290.0 2034 1621 1286 1289 1583 1790 1688 1288 892 704
1330.0 651 628 606 597 604 604 620 622 627 639
1370.0 654 668 722 858 1083 1360 1696 2092 2486 2637
1410.0 2390 1858 1350 1093 954 911 886 917 959 1022
1450.0 1136 1315 1528 1774 2028 2318 2666 3130 3635 4193
1490.0 4761 5333 5690 5991 6333 7243 8919 10000 9514 7142
1530.0 4484 2745 1859 1336 1050 869 722 611 560 533
1570.0 525 550 617 762 998 1269 1431 1410 1205 1034
1610.0 991 1024 975 823 587 398 288 242 226 207
1650.0 192 202 225 248 284 323 389 486 575 712
1690.0 886 1113 1424 1974 2822 3883 4866 5470 5400 4867
1730.0 3822 2681 1796 1227 856 682 560 468 379 325
1770.0 257 210 194 161 133 101 83 72 60 61
1810.0 52 52 54 46 44 37 48 50 47 43
1850.0 62 71 74 69 65 56 74 85 86 79
1890.0 71 65 58 49 44 41 31 31 21 25
1930.0 21 18 13 8 8 9 7 7 10 8
1970.0 8 12 12 9 15 11 7 9 11 10
2010.0 13 12 10 11 9 12 14 13 14 15
2050.0 16 16 15 14 15 22 20 22 17 11
2090.0 8 11 8 11 9 10 14 11 10 10
2130.0 13 9 13 11 13 9 9 8 6 4
2170.0 2 2 0 0 3 3 0 1 3 0
2210.0 2 6 9 9 10 15 13 12 17 18
2250.0 16 20 26 26 27 33 37 38 43 45
2290.0 46 44 50 51 52 48 40 36 37 34
2330.0 17 4 8 18 3 56 0 24 1 0
2370.0 3 19 33 40 35 31 26 20 24 19
2410.0 18 21 23 27 28 26 27 24 26 28
2450.0 25 26 26 23 21 21 23 21 20 18
2490.0 20 17 18 22 21 25 28 34 32 33
2530.0 26 29 25 25 21 18 18 17 18 17
2570.0 23 24 24 29 27 28 31 25 22 22
2610.0 22 22 22 22 24 28 28 25 29 26
2650.0 28 27 22 26 26 24 23 24 23 26
2690.0 29 32 32 36 40 43 44 47 50 54
2730.0 60 69 85 97 102 96 79 67 55 54
2770.0 54 49 51 50 50 54 58 61 65 72
2810.0 78 86 99 107 115 132 139 151 170 191
2850.0 231 273 346 434 544 712 905 1095 1237 1288
2890.0 1260 1217 1198 1195 1172 1153 1148 1200 1304 1478
2930.0 1717 1902 1955 1879 1718 1578 1530 1559 1719 2028
2970.0 2555 2993 3014 2601 1974 1552 1286 1083 944 843
3010.0 783 778 834 980 1145 1207 1123 940 811 770
3050.0 753 720 654 557 463 362 286 235 201 185
3090.0 184 176 182 185 190 184 180 173 158 136
3130.0 118 107 86 77 65 64 58 54 53 53
3170.0 47 48 47 41 43 52 46 51 38 41
3210.0 40 38 33 36 28 26 23 22 15 17
3250.0 10 14 22 17 16 4 20 15 16 19
3290.0 13 18 4 8 6 17 15 21 17 16
3330.0 16 17 25 16 22 17 10 16 22 24
3370.0 11 19 30 34 44 47 45 57 75 92
3410.0 97 108 119 126 126 127 135 146 175 213
3450.0 274 347 422 472 475 439 366 278 203 157
3490.0 109 79 76 56 43 38 31 27 24 17
3530.0 18 20 10 10 18 24 18 24 18 16
3570.0 14 12 18 16 13 23 2 18 19 6
3610.0 9 14 21 13 8 23 6 12 11 15
3650.0 10 15 22 18 20 21 35 8 29 29
3690.0 26 17 18 13 24 22 14 13 7 16
3730.0 10 25 21 30 20 21 15 15 27 25
3770.0 24 25 18 16 14 21 28 22 18 16
3810.0 24 33 32 35 21 22 27 40 33 39
3850.0 36 38 31 32 31 43 31 38 54 37
3890.0 38 40 32 32 30 23 37 49 31 32
3930.0 56 24 39 26 30 37 47 39 31 32
##END=
