##TITLE=5-Hexen-3-ol
##JCAMP-DX=4.24
##DATA TYPE=INFRARED SPECTRUM
##ORIGIN=Sadtler Research Labs Under US-EPA Contract
##OWNER=NIST Standard Reference Data Program
##CAS REGISTRY NO=688-99-3
##MOLFORM=C 6 H 12 O
##XUNITS=1/CM
##YUNITS=ABSORBANCE
##XFACTOR=1.0
##YFACTOR=0.000064078
##DELTAX=4.0
##FIRSTX=450.0
##LASTX=3966.0
##FIRSTY=0.000000
##MAXX=3966
##MINX=450
##MAXY=0.64078
##MINY=0
##NPOINTS=880
##XYDATA=(X++(Y..Y))
450.0 0 207 335 257 293 242 296 311 296 318
490.0 325 282 223 223 96 126 89 104 92 101
530.0 94 68 102 52 64 56 89 56 57 23
570.0 67 83 76 100 91 141 127 148 144 210
610.0 233 313 371 490 558 608 658 691 659 562
650.0 499 376 305 241 209 129 143 98 75 94
690.0 78 107 123 125 128 120 116 75 45 30
730.0 24 18 16 12 27 28 48 75 152 185
770.0 264 320 342 365 323 300 248 214 178 196
810.0 222 232 292 312 389 449 534 636 715 823
850.0 913 994 1007 1053 1082 1104 1076 1069 1089 1175
890.0 1302 1500 1834 2343 3075 3806 4514 4869 4839 4466
930.0 3823 3073 2441 2063 1884 1883 2062 2428 2936 3510
970.0 4062 4512 4869 5116 5333 5381 5344 5246 5171 4995
1010.0 4711 4372 4059 3777 3484 3182 2863 2648 2496 2417
1050.0 2368 2370 2385 2413 2442 2476 2523 2534 2537 2522
1090.0 2534 2571 2656 2743 2817 2869 2885 2856 2748 2612
1130.0 2458 2293 2090 1893 1677 1489 1318 1162 1062 991
1170.0 964 954 986 1039 1130 1243 1381 1536 1692 1847
1210.0 1982 2113 2191 2264 2315 2345 2339 2318 2285 2226
1250.0 2173 2092 2006 1916 1865 1789 1742 1701 1680 1658
1290.0 1621 1603 1561 1521 1454 1404 1349 1313 1305 1286
1330.0 1274 1283 1300 1375 1530 1681 1857 2023 2202 2327
1370.0 2391 2439 2498 2609 2652 2684 2603 2405 2179 1956
1410.0 1760 1595 1508 1548 1606 1725 1861 2028 2168 2186
1450.0 2186 2177 2129 2079 1963 1866 1663 1423 1155 910
1490.0 689 561 463 383 352 277 278 253 256 260
1530.0 257 261 269 270 234 296 256 295 293 281
1570.0 269 276 281 265 252 251 256 251 271 292
1610.0 324 365 456 556 748 1089 1525 1825 1960 1917
1650.0 1822 1440 877 527 369 296 261 232 227 247
1690.0 247 257 287 258 268 250 243 207 249 227
1730.0 196 190 170 141 112 114 121 123 113 130
1770.0 114 122 115 113 123 129 118 117 112 137
1810.0 149 170 224 273 356 420 492 524 535 496
1850.0 448 380 309 248 189 146 138 128 117 115
1890.0 105 102 105 104 105 93 100 95 84 92
1930.0 90 84 86 77 72 87 80 82 86 85
1970.0 92 98 107 113 112 97 91 87 75 69
2010.0 63 56 44 52 48 51 49 49 46 48
2050.0 51 49 54 52 51 58 60 55 54 51
2090.0 54 55 53 52 48 49 49 52 51 56
2130.0 53 59 56 53 57 58 56 56 56 55
2170.0 56 50 53 55 49 50 51 59 60 65
2210.0 65 66 64 65 66 67 65 65 61 59
2250.0 64 58 63 66 66 60 62 65 55 59
2290.0 48 47 35 36 30 15 7 10 7 12
2330.0 7 7 11 4 9 40 7 7 7 7
2370.0 6 39 44 60 74 78 85 86 94 93
2410.0 97 94 99 98 98 91 94 88 90 91
2450.0 85 84 82 77 78 78 79 75 75 79
2490.0 83 77 88 80 80 82 84 87 82 83
2530.0 81 89 91 94 87 93 94 98 106 111
2570.0 117 125 127 131 135 137 147 150 154 161
2610.0 166 169 178 172 172 177 171 184 183 180
2650.0 187 193 198 199 216 216 232 244 262 269
2690.0 285 293 291 285 281 276 265 262 254 254
2730.0 271 287 301 317 341 353 369 370 381 389
2770.0 396 410 422 431 443 456 461 480 493 524
2810.0 564 613 694 795 909 1067 1264 1494 1772 2094
2850.0 2487 2903 3353 3758 4143 4482 4839 5247 5583 5710
2890.0 5686 5623 5517 5365 5339 5600 6068 6735 7516 8314
2930.0 9111 9668 10000 9825 9316 8588 7844 7353 7469 8156
2970.0 9169 9666 9453 8945 7832 6340 4940 3971 3194 2628
3010.0 2270 1932 1687 1423 1205 1007 867 773 738 725
3050.0 741 807 881 1023 1198 1470 1801 2330 2820 3046
3090.0 2945 2670 2230 1542 918 606 409 318 253 234
3130.0 199 194 192 177 174 167 175 169 174 168
3170.0 157 156 142 129 119 116 104 98 83 73
3210.0 66 63 57 53 45 33 24 34 38 28
3250.0 28 31 36 32 28 37 32 36 30 30
3290.0 26 30 25 26 30 36 27 32 33 33
3330.0 29 42 41 34 36 27 38 39 53 46
3370.0 51 46 40 44 44 48 46 62 64 59
3410.0 61 62 54 49 64 77 65 59 67 41
3450.0 41 60 55 42 40 48 37 45 35 24
3490.0 33 32 28 21 26 38 40 36 47 19
3530.0 33 52 52 51 28 40 42 47 56 13
3570.0 46 69 82 78 84 118 156 225 334 490
3610.0 713 945 1128 1211 1286 1226 1161 1115 1109 1154
3650.0 1205 1266 1226 1129 1047 779 618 392 280 189
3690.0 154 97 99 60 65 32 23 35 12 9
3730.0 7 7 8 33 24 42 7 7 18 7
3770.0 7 8 7 10 7 19 37 8 20 6
3810.0 51 11 30 26 9 20 26 10 15 31
3850.0 15 43 38 17 31 14 10 38 27 15
3890.0 26 26 37 13 14 30 17 7 7 7
3930.0 7 7 7 7 7 7 7 7 7 7
##END=
