##TITLE=Salicylic Acid
##JCAMP-DX=4.24
##DATA TYPE=INFRARED SPECTRUM
##ORIGIN=Sadtler Research Labs Under US-EPA Contract
##OWNER=NIST Standard Reference Data Program
##CAS REGISTRY NO=69-72-7
##MOLFORM=C 7 H 6 O 3
##XUNITS=1/CM
##YUNITS=ABSORBANCE
##XFACTOR=1.0
##YFACTOR=0.000051025
##DELTAX=4.0
##FIRSTX=450.0
##LASTX=3966.0
##FIRSTY=0.001327
##MAXX=3966
##MINX=450
##MAXY=0.51025
##MINY=0
##NPOINTS=880
##XYDATA=(X++(Y..Y))
450.0 26 45 24 7 40 48 100 158 109 121
490.0 154 192 221 314 326 336 459 515 591 746
530.0 745 786 935 978 1086 1292 1418 1527 1685 1881
570.0 2032 1369 1135 887 719 529 365 390 309 404
610.0 421 499 530 587 808 1126 1676 1787 1946 1950
650.0 1873 1376 915 771 856 902 752 882 1020 1317
690.0 1596 1829 1992 2321 2845 1839 1495 1205 923 740
730.0 845 1254 1614 1926 2288 2627 3208 2890 1662 1444
770.0 1128 735 404 328 285 327 257 328 409 354
810.0 339 336 307 296 281 253 277 395 520 604
850.0 583 580 594 534 378 211 177 166 107 125
890.0 108 134 96 126 134 102 136 182 219 198
930.0 233 223 202 233 241 187 172 133 117 89
970.0 74 104 120 124 143 164 154 163 155 178
1010.0 228 319 400 564 722 734 744 743 614 550
1050.0 671 1002 1533 2182 2655 2812 2872 2644 1961 1333
1090.0 1007 883 888 1016 1169 1326 1575 1844 2253 2766
1130.0 2986 3150 3825 5233 6694 6253 6123 6640 5327 3445
1170.0 3071 3798 4700 4633 4492 4434 3515 2273 1621 1442
1210.0 1442 1542 1613 1707 1741 1773 1765 1721 1794 1872
1250.0 2018 2120 2095 2174 2285 2199 2045 1877 1637 1450
1290.0 1255 1168 1122 1168 1319 1469 1553 1575 1514 1442
1330.0 1275 1171 1152 1246 1410 1656 1810 1865 1849 1741
1370.0 1532 1339 1305 1411 1630 1899 2216 2542 2781 2865
1410.0 2773 2541 2125 1624 1160 799 562 437 387 433
1450.0 510 689 917 1173 1480 1825 2233 2649 2835 2669
1490.0 2547 2351 1903 1450 1106 882 763 574 384 305
1530.0 244 213 223 235 264 303 325 379 456 555
1570.0 718 956 1245 1444 1539 1609 1603 1402 1330 1436
1610.0 1626 1749 1758 1618 1375 1072 788 557 465 434
1650.0 415 425 424 441 467 512 568 695 913 1312
1690.0 1974 2933 4262 5758 7399 9201 10000 9722 8745 7436
1730.0 5149 2990 1681 1133 915 889 997 1159 1237 1190
1770.0 1119 957 718 478 365 299 296 295 305 277
1810.0 257 226 216 193 156 124 117 101 90 76
1850.0 65 62 53 53 53 41 41 53 63 66
1890.0 70 75 81 81 69 71 90 110 130 129
1930.0 135 126 104 99 97 102 92 89 71 52
1970.0 50 40 31 20 21 24 25 26 14 21
2010.0 12 21 20 11 10 10 10 8 12 10
2050.0 6 6 10 8 12 10 9 1 9 11
2090.0 19 20 23 28 29 29 16 20 28 29
2130.0 37 37 49 37 38 26 24 23 28 17
2170.0 10 19 16 18 17 17 27 27 27 26
2210.0 26 25 32 28 23 18 17 16 8 7
2250.0 8 16 16 17 20 31 43 54 70 83
2290.0 112 153 173 212 245 273 262 263 286 276
2330.0 254 264 257 277 308 299 329 330 355 307
2370.0 259 206 184 180 113 53 28 27 28 28
2410.0 28 27 35 38 38 31 42 40 44 38
2450.0 47 57 57 57 57 56 50 55 37 38
2490.0 44 38 35 38 27 37 37 48 50 49
2530.0 49 48 48 48 58 59 59 48 49 58
2570.0 59 60 57 58 61 60 59 57 62 59
2610.0 58 58 68 68 67 67 76 68 64 70
2650.0 53 48 45 49 47 39 49 38 38 38
2690.0 38 51 51 42 41 50 40 50 58 59
2730.0 59 69 60 71 67 71 89 90 78 85
2770.0 89 97 88 97 98 87 89 87 83 77
2810.0 80 74 78 72 77 78 79 79 79 80
2850.0 78 72 79 82 94 82 89 107 100 108
2890.0 108 109 98 100 100 94 96 95 89 95
2930.0 98 99 99 88 109 99 99 99 99 101
2970.0 118 125 125 128 148 146 148 177 197 216
3010.0 237 258 277 297 314 317 333 334 329 351
3050.0 370 420 480 520 578 609 612 596 564 536
3090.0 485 447 395 355 315 274 225 182 155 142
3130.0 124 134 130 131 125 121 140 138 129 140
3170.0 149 160 160 162 181 204 225 235 262 293
3210.0 331 343 382 423 494 571 645 737 848 975
3250.0 1111 1244 1374 1482 1573 1633 1645 1633 1562 1508
3290.0 1424 1346 1256 1168 1119 1062 1040 982 918 898
3330.0 867 827 777 749 723 692 654 633 601 561
3370.0 532 501 434 411 390 364 352 326 315 302
3410.0 285 274 274 241 240 229 209 199 209 189
3450.0 190 176 170 176 166 176 177 179 189 200
3490.0 200 170 200 213 207 232 220 270 309 356
3530.0 393 411 414 395 366 341 307 311 422 724
3570.0 1477 2643 3522 3737 3691 3171 2040 833 307 146
3610.0 99 86 77 80 80 86 79 80 83 93
3650.0 94 84 74 67 63 43 29 32 10 6
3690.0 24 18 17 16 1 8 18 15 16 17
3730.0 10 16 18 24 27 16 27 1 1 19
3770.0 15 6 6 1 7 14 0 8 1 27
3810.0 8 1 7 8 1 2 7 9 8 3
3850.0 9 8 1 17 8 18 18 19 25 19
3890.0 18 28 22 29 28 35 28 10 19 8
3930.0 1 1 1 1 1 1 1 1 1 1
##END=
