##TITLE=2-Pentene, 4,4-dimethyl-, (E)-
##JCAMP-DX=4.24
##DATA TYPE=INFRARED SPECTRUM
##ORIGIN=Sadtler Research Labs Under US-EPA Contract
##OWNER=NIST Standard Reference Data Program
##CAS REGISTRY NO=690-08-4
##MOLFORM=C 7 H 14
##XUNITS=1/CM
##YUNITS=ABSORBANCE
##XFACTOR=1.0
##YFACTOR=0.000072052
##DELTAX=4.0
##FIRSTX=450.0
##LASTX=3966.0
##FIRSTY=0.008502
##MAXX=3966
##MINX=450
##MAXY=0.72052
##MINY=0
##NPOINTS=880
##XYDATA=(X++(Y..Y))
450.0 118 124 112 96 72 60 53 28 23 56
490.0 55 49 55 68 55 53 53 53 50 56
530.0 40 5 70 46 36 68 65 67 61 46
570.0 14 32 42 48 141 48 54 47 51 50
610.0 49 55 56 59 64 56 45 50 44 52
650.0 42 45 36 27 9 65 54 43 57 63
690.0 70 76 80 73 82 78 71 70 63 50
730.0 85 68 59 66 63 60 62 60 55 68
770.0 57 56 49 56 61 61 61 67 69 65
810.0 71 68 68 60 60 74 61 67 73 73
850.0 81 79 91 93 94 99 98 113 126 134
890.0 140 155 170 188 184 195 208 232 245 259
930.0 287 315 377 442 541 695 907 1162 1449 1742
970.0 1968 2097 1978 1716 1412 1060 762 509 360 273
1010.0 243 224 226 213 214 204 191 177 162 141
1050.0 127 113 100 93 85 82 82 85 85 93
1090.0 90 98 92 98 92 92 92 84 88 86
1130.0 90 90 98 92 96 90 97 103 104 117
1170.0 132 147 175 227 274 342 412 479 517 511
1210.0 463 392 322 254 225 202 184 185 185 213
1250.0 250 313 369 426 439 428 394 330 251 191
1290.0 163 154 148 145 138 129 119 107 107 103
1330.0 109 118 134 195 294 448 646 871 1086 1302
1370.0 1334 1219 1062 906 754 623 541 439 404 349
1410.0 261 234 214 253 284 337 372 488 567 706
1450.0 834 940 1068 1130 1199 1219 1234 1138 1039 895
1490.0 769 600 427 270 226 159 137 142 125 121
1530.0 97 119 95 114 77 75 71 83 77 59
1570.0 69 53 72 54 56 56 67 63 69 63
1610.0 63 61 69 58 56 72 52 72 58 82
1650.0 52 116 57 68 65 75 50 67 43 66
1690.0 42 47 48 70 48 47 41 56 46 62
1730.0 64 82 84 104 96 116 123 117 110 103
1770.0 90 78 56 47 43 37 42 37 36 36
1810.0 42 39 46 48 60 58 53 60 48 53
1850.0 34 41 31 31 26 24 29 26 25 24
1890.0 24 20 23 19 16 22 22 20 23 21
1930.0 25 23 24 14 20 16 24 24 24 19
1970.0 22 17 23 23 25 25 26 29 34 35
2010.0 37 35 33 28 22 21 16 16 18 14
2050.0 14 14 11 6 12 14 8 15 13 13
2090.0 12 8 13 13 14 18 15 20 20 19
2130.0 19 12 12 13 5 6 8 13 4 4
2170.0 5 6 4 4 4 5 10 11 11 11
2210.0 11 10 10 10 10 9 2 10 10 2
2250.0 7 9 9 9 11 6 14 12 20 16
2290.0 14 20 10 15 5 2 7 3 9 9
2330.0 10 19 16 8 14 4 2 9 26 35
2370.0 39 42 29 28 22 27 23 22 21 22
2410.0 14 16 14 10 14 14 14 15 10 17
2450.0 15 15 8 15 15 15 21 17 26 26
2490.0 26 21 21 30 22 29 22 29 23 23
2530.0 23 25 29 29 29 36 43 37 36 29
2570.0 29 36 28 20 21 23 19 16 23 18
2610.0 22 23 29 23 23 29 29 29 29 30
2650.0 30 30 30 36 36 44 44 43 43 43
2690.0 51 51 51 53 75 83 99 111 117 132
2730.0 147 167 181 188 187 186 161 128 115 105
2770.0 105 113 119 127 120 134 140 150 157 177
2810.0 190 210 225 240 269 291 310 346 375 454
2850.0 588 842 1266 1807 2312 2753 3053 3154 3035 2893
2890.0 2770 2720 2730 2819 2932 3045 3181 3383 3665 3821
2930.0 3965 4095 4337 4615 5201 6192 7351 8469 9615 10000
2970.0 9605 8547 6730 4766 3128 2067 1460 1125 960 897
3010.0 866 882 910 959 998 1031 1042 992 904 803
3050.0 681 560 455 392 342 303 275 257 243 229
3090.0 214 200 190 193 171 170 157 157 151 141
3130.0 140 132 131 131 118 123 110 117 102 104
3170.0 116 113 115 126 128 136 122 120 110 106
3210.0 102 110 104 110 118 124 116 125 122 106
3250.0 100 93 78 88 79 57 57 43 51 49
3290.0 67 71 74 77 75 78 71 63 58 44
3330.0 37 23 31 33 27 32 26 25 43 39
3370.0 19 30 37 38 40 43 38 53 52 47
3410.0 44 38 41 42 34 25 19 18 25 23
3450.0 36 26 25 25 16 33 28 32 17 23
3490.0 19 13 26 10 35 21 18 15 21 39
3530.0 18 13 17 25 6 0 10 13 17 28
3570.0 20 8 21 18 19 24 17 34 32 10
3610.0 21 12 19 23 19 51 46 28 29 15
3650.0 25 26 17 15 7 16 36 45 42 35
3690.0 35 40 22 31 21 17 38 25 16 20
3730.0 21 30 63 37 61 44 53 46 42 31
3770.0 13 15 14 16 19 22 18 20 22 31
3810.0 32 44 33 44 26 26 23 23 34 32
3850.0 29 27 35 48 50 39 48 43 28 29
3890.0 28 47 43 45 44 60 55 38 32 28
3930.0 40 44 38 26 20 13 22 24 21 35
##END=
