##TITLE=1-Pentene, 4-methyl-
##JCAMP-DX=4.24
##DATA TYPE=INFRARED SPECTRUM
##ORIGIN=Sadtler Research Labs Under US-EPA Contract
##OWNER=NIST Standard Reference Data Program
##CAS REGISTRY NO=691-37-2
##MOLFORM=C 6 H 12
##XUNITS=1/CM
##YUNITS=ABSORBANCE
##XFACTOR=1.0
##YFACTOR=0.000133023
##DELTAX=4.0
##FIRSTX=450.0
##LASTX=3966.0
##FIRSTY=0.000000
##MAXX=3966
##MINX=450
##MAXY=1.33023
##MINY=0
##NPOINTS=880
##XYDATA=(X++(Y..Y))
450.0 0 317 289 461 305 571 496 413 337 358
490.0 372 398 373 311 402 370 390 362 378 309
530.0 390 390 371 402 350 413 364 371 370 378
570.0 344 351 374 301 453 430 437 458 536 525
610.0 581 621 652 662 669 681 578 555 501 483
650.0 450 430 410 361 378 337 355 315 336 325
690.0 355 347 358 371 377 401 393 415 397 402
730.0 374 357 338 323 318 301 316 292 311 298
770.0 309 310 331 348 333 338 344 364 354 400
810.0 417 444 465 467 476 466 489 460 457 443
850.0 459 463 475 524 538 574 593 647 695 790
890.0 954 1193 1547 1973 2435 2644 2799 2854 2710 2313
930.0 1831 1398 1105 899 759 689 653 667 698 752
970.0 816 907 1018 1162 1348 1380 1431 1421 1352 1204
1010.0 1006 839 717 641 608 608 599 599 586 574
1050.0 548 518 484 449 430 405 402 391 395 395
1090.0 404 419 432 441 449 468 456 461 449 452
1130.0 435 426 430 440 469 513 582 651 718 737
1170.0 723 701 650 577 492 436 396 378 366 366
1210.0 363 361 372 382 406 420 435 434 447 435
1250.0 421 415 409 417 433 451 454 460 460 459
1290.0 453 430 429 421 429 427 436 444 471 513
1330.0 579 648 691 716 714 714 711 772 873 997
1370.0 1067 1103 1348 1443 1400 1324 1180 1066 921 765
1410.0 698 665 661 678 716 784 870 958 1085 1225
1450.0 1333 1448 1491 1501 1559 1607 1502 1276 1130 993
1490.0 838 701 582 500 439 403 379 376 362 364
1530.0 358 364 359 347 357 344 347 333 346 333
1570.0 333 329 335 331 335 343 345 360 373 393
1610.0 405 442 480 561 685 872 1054 1158 1215 1217
1650.0 1160 1070 819 579 446 399 369 363 343 349
1690.0 341 343 346 354 371 383 382 367 376 359
1730.0 342 332 328 324 319 318 317 315 307 310
1770.0 307 307 308 307 311 309 313 318 324 334
1810.0 351 384 427 485 523 536 541 536 514 461
1850.0 399 356 325 306 304 293 295 291 291 289
1890.0 290 287 283 286 282 283 282 282 280 276
1930.0 280 276 278 275 279 279 280 282 287 291
1970.0 297 301 301 303 295 304 299 295 291 291
2010.0 291 295 293 294 297 296 294 292 301 297
2050.0 288 307 307 298 290 288 276 275 271 274
2090.0 280 279 280 280 284 280 285 283 281 278
2130.0 278 279 274 278 276 279 278 277 282 283
2170.0 282 279 284 285 285 286 291 284 291 290
2210.0 288 286 286 286 283 279 279 281 281 286
2250.0 286 287 288 283 290 284 292 290 292 291
2290.0 291 291 288 289 281 280 270 267 266 266
2330.0 267 274 293 283 325 284 266 266 269 330
2370.0 359 372 365 351 333 319 308 304 301 297
2410.0 296 297 302 300 300 302 307 305 304 306
2450.0 305 305 305 303 306 307 301 300 304 302
2490.0 304 305 308 305 308 309 305 304 304 307
2530.0 303 304 307 310 314 316 316 314 317 315
2570.0 314 313 321 319 319 319 321 324 326 330
2610.0 321 327 327 322 319 323 322 324 320 317
2650.0 345 337 321 319 313 308 303 299 303 321
2690.0 328 341 352 364 372 381 388 403 420 436
2730.0 448 452 462 461 458 449 440 435 425 422
2770.0 423 427 428 438 444 452 464 484 500 523
2810.0 565 598 648 718 802 890 999 1116 1213 1300
2850.0 1391 1480 1603 1797 2129 2619 3039 3298 3542 3878
2890.0 4190 4358 4553 4800 5071 5252 5397 5388 5267 5204
2930.0 5145 5167 5154 5306 5636 6158 6988 8166 9652 10000
2970.0 9540 9182 8423 6904 5317 3733 2724 2212 1898 1706
3010.0 1536 1393 1274 1148 1006 884 801 750 723 714
3050.0 745 792 871 955 1104 1281 1538 1786 1893 1940
3090.0 1834 1669 1515 1144 842 640 542 466 441 421
3130.0 406 407 405 406 403 411 402 402 399 422
3170.0 413 416 416 411 409 405 410 395 388 382
3210.0 368 364 343 342 323 329 312 311 309 316
3250.0 308 318 328 323 329 325 326 323 333 327
3290.0 334 326 321 333 330 331 332 341 336 323
3330.0 320 321 304 314 308 311 316 305 311 311
3370.0 320 326 324 323 319 334 321 311 302 309
3410.0 315 315 299 314 317 295 293 287 291 286
3450.0 287 299 296 290 282 296 282 294 298 297
3490.0 296 299 286 288 284 282 285 280 292 283
3530.0 298 296 295 291 279 284 288 281 280 278
3570.0 279 289 273 284 292 288 274 267 287 282
3610.0 271 278 272 266 272 272 281 278 286 282
3650.0 281 281 286 275 277 272 300 274 296 275
3690.0 296 281 304 298 298 296 296 287 275 286
3730.0 288 301 296 280 310 298 312 299 304 286
3770.0 277 309 279 291 303 309 279 302 301 300
3810.0 285 291 304 301 295 309 294 281 292 278
3850.0 289 295 303 309 300 283 286 281 300 292
3890.0 299 303 274 304 322 285 306 285 285 299
3930.0 266 271 301 301 278 266 299 303 277 301
##END=
