##TITLE=Propanenitrile, 3-[(1-methylethyl)amino]-
##JCAMP-DX=4.24
##DATA TYPE=INFRARED SPECTRUM
##ORIGIN=Sadtler Research Labs Under US-EPA Contract
##OWNER=NIST Standard Reference Data Program
##CAS REGISTRY NO=692-98-8
##MOLFORM=C 6 H 12 N 2
##XUNITS=1/CM
##YUNITS=ABSORBANCE
##XFACTOR=1.0
##YFACTOR=0.000052881
##DELTAX=4.0
##FIRSTX=450.0
##LASTX=3966.0
##FIRSTY=0.010946
##MAXX=3966
##MINX=450
##MAXY=0.52881
##MINY=0
##NPOINTS=880
##XYDATA=(X++(Y..Y))
450.0 207 223 227 265 173 205 167 198 226 265
490.0 204 83 122 56 84 36 54 25 37 106
530.0 100 199 183 167 195 228 177 142 207 117
570.0 175 170 140 162 237 252 219 280 251 328
610.0 315 324 378 405 526 503 612 545 693 743
650.0 801 903 937 1005 968 1109 1087 1143 1114 1151
690.0 1210 1263 1293 1302 1382 1379 1357 1283 1224 1173
730.0 1043 979 808 716 572 512 427 331 296 245
770.0 235 230 250 207 222 166 174 174 208 244
810.0 224 231 214 286 271 328 308 253 280 234
850.0 217 231 229 188 177 168 143 147 89 98
890.0 71 120 105 82 126 120 165 166 188 153
930.0 171 177 222 202 186 245 227 249 262 333
970.0 272 315 278 263 248 124 153 140 157 142
1010.0 138 153 152 176 196 257 251 312 303 331
1050.0 331 294 302 268 302 345 416 527 713 905
1090.0 1104 1313 1396 1444 1471 1502 1505 1592 1616 1629
1130.0 1641 1612 1552 1468 1442 1410 1500 1724 2132 2837
1170.0 3493 3913 3892 3468 2697 1860 1263 890 696 603
1210.0 612 602 611 571 544 496 428 420 406 409
1250.0 406 411 374 355 336 308 318 319 349 339
1290.0 379 409 408 466 566 751 955 1241 1540 1817
1330.0 2004 2115 2122 2021 1911 1716 1552 1474 1563 1728
1370.0 1967 2237 2575 2887 2818 2508 2037 1349 859 654
1410.0 579 621 726 898 1099 1234 1370 1464 1556 1660
1450.0 1707 1789 1797 1870 1919 2072 2240 2313 2258 2031
1490.0 1658 1197 796 509 338 258 209 185 121 131
1530.0 103 92 82 40 75 77 72 24 46 57
1570.0 50 54 45 59 67 68 60 77 58 71
1610.0 56 62 51 50 62 60 74 51 81 62
1650.0 54 15 57 52 45 56 40 48 53 25
1690.0 57 57 56 49 76 95 93 75 95 101
1730.0 92 74 75 87 70 78 78 70 67 62
1770.0 73 35 63 56 63 57 43 46 44 46
1810.0 46 47 44 57 43 38 37 36 43 27
1850.0 38 22 39 39 31 31 29 42 30 42
1890.0 26 29 27 21 24 14 24 16 15 14
1930.0 17 14 12 17 7 15 8 8 0 9
1970.0 10 9 18 9 21 9 22 9 10 16
2010.0 8 14 12 21 13 13 21 16 20 18
2050.0 24 19 25 6 23 16 15 16 16 16
2090.0 16 28 17 22 16 17 22 19 18 10
2130.0 28 18 18 18 19 23 19 33 21 31
2170.0 26 33 35 33 42 33 42 32 50 46
2210.0 55 48 55 48 55 64 73 110 150 218
2250.0 271 290 292 238 178 102 83 54 52 55
2290.0 41 61 51 61 50 53 59 62 64 51
2330.0 75 51 77 20 56 37 58 71 58 74
2370.0 57 60 34 36 19 17 15 15 25 14
2410.0 24 24 25 21 26 26 21 32 19 31
2450.0 12 19 20 11 17 11 30 22 29 18
2490.0 30 24 28 23 21 40 22 32 22 35
2530.0 39 37 43 32 45 40 44 45 53 55
2570.0 64 73 65 94 93 107 120 148 166 185
2610.0 222 243 281 301 319 300 294 271 241 231
2650.0 195 193 177 174 167 175 176 176 194 187
2690.0 206 197 219 218 246 251 267 302 298 318
2730.0 319 338 339 340 346 331 350 343 364 377
2770.0 410 452 505 582 652 747 817 913 979 1063
2810.0 1165 1306 1485 1714 1997 2288 2572 2748 2902 2955
2850.0 2940 2834 2691 2573 2459 2440 2448 2490 2509 2501
2890.0 2475 2399 2381 2343 2389 2446 2538 2648 2814 3044
2930.0 3335 3662 3965 4184 4283 4430 4675 5229 6314 7858
2970.0 9326 10000 9775 8478 6426 4474 2933 1882 1203 812
3010.0 589 462 359 311 269 226 199 169 161 134
3050.0 140 113 113 113 97 101 98 116 103 128
3090.0 103 117 118 107 117 90 109 79 102 79
3130.0 92 93 86 92 85 101 92 111 94 113
3170.0 121 114 120 116 134 128 135 118 130 111
3210.0 113 107 88 107 71 80 89 70 64 59
3250.0 65 37 53 30 35 28 28 37 30 37
3290.0 22 29 25 36 34 38 41 30 51 41
3330.0 52 51 64 56 49 64 57 73 73 81
3370.0 66 80 56 74 74 43 56 45 54 37
3410.0 43 47 46 52 39 52 42 51 41 42
3450.0 41 29 35 40 39 20 31 29 25 18
3490.0 19 27 18 38 16 27 30 20 25 33
3530.0 36 21 49 22 41 30 28 29 27 37
3570.0 26 52 27 31 29 52 46 26 37 27
3610.0 37 10 28 29 34 40 23 57 40 48
3650.0 31 50 31 51 58 41 41 41 62 54
3690.0 55 62 62 72 62 91 64 85 79 87
3730.0 85 78 89 91 95 69 92 105 114 113
3770.0 115 113 105 128 114 131 145 150 142 155
3810.0 167 146 148 127 141 147 132 136 131 137
3850.0 131 120 131 150 152 152 160 151 159 136
3890.0 144 133 145 139 148 164 165 164 164 184
3930.0 173 177 155 158 159 158 26 37 37 38
##END=
