##TITLE=10-Undecenoic acid, ethyl ester
##JCAMP-DX=4.24
##DATA TYPE=INFRARED SPECTRUM
##ORIGIN=Sadtler Research Labs Under US-EPA Contract
##OWNER=NIST Standard Reference Data Program
##CAS REGISTRY NO=692-86-4
##MOLFORM=C 13 H 24 O 2
##XUNITS=1/CM
##YUNITS=ABSORBANCE
##XFACTOR=1.0
##YFACTOR=0.000043466
##DELTAX=4.0
##FIRSTX=450.0
##LASTX=3966.0
##FIRSTY=0.068850
##MAXX=3966
##MINX=450
##MAXY=0.43466
##MINY=0
##NPOINTS=880
##XYDATA=(X++(Y..Y))
450.0 1584 724 354 404 393 260 570 161 253 15
490.0 0 433 494 390 608 425 652 475 568 383
530.0 411 250 386 616 547 298 209 240 529 402
570.0 341 231 318 373 460 329 291 392 500 375
610.0 446 435 443 409 561 477 491 506 361 311
650.0 276 305 375 454 340 258 333 155 352 436
690.0 677 795 536 485 462 602 539 444 452 447
730.0 622 415 605 981 710 645 719 693 513 468
770.0 323 465 530 522 603 554 512 449 515 586
810.0 630 616 528 599 638 711 677 651 731 838
850.0 734 847 796 825 784 865 833 851 893 875
890.0 961 1001 1157 1322 1642 2078 2306 2129 1743 1517
930.0 1352 1299 1262 1213 1149 1107 1080 1091 1099 1088
970.0 1085 1104 1130 1178 1267 1343 1388 1356 1263 1196
1010.0 1169 1215 1265 1393 1550 1754 1979 2130 2185 2105
1050.0 1973 1830 1721 1652 1585 1556 1491 1513 1554 1607
1090.0 1710 1875 2021 2203 2211 2250 2294 2340 2298 2359
1130.0 2407 2547 2744 2956 3265 3552 3874 4217 4508 4707
1170.0 4846 4884 4886 4838 4674 4420 4116 3810 3577 3359
1210.0 3202 3091 3061 3008 3005 3050 3101 3119 3101 3046
1250.0 2924 2741 2544 2310 2106 1896 1740 1609 1512 1436
1290.0 1407 1398 1441 1473 1515 1489 1419 1358 1292 1232
1330.0 1176 1180 1183 1257 1390 1441 1411 1290 1190 1309
1370.0 1575 1822 1733 1390 1121 913 829 745 673 643
1410.0 597 658 640 747 803 913 1100 1236 1234 1188
1450.0 1274 1361 1426 1519 1418 1310 1126 845 654 581
1490.0 482 427 364 360 336 345 252 331 307 318
1530.0 278 289 322 346 321 256 300 297 378 282
1570.0 279 311 297 306 276 301 341 282 334 326
1610.0 331 343 384 382 377 479 521 681 791 749
1650.0 705 508 420 313 349 313 310 305 305 383
1690.0 346 382 476 539 530 593 699 828 956 1152
1730.0 1466 1902 2672 3538 4901 6467 7543 7317 5903 4376
1770.0 3256 2452 1911 1515 1186 966 744 642 527 508
1810.0 495 435 404 353 338 333 270 238 178 205
1850.0 170 156 119 117 107 106 133 116 112 106
1890.0 118 122 116 114 111 108 104 98 85 90
1930.0 90 102 108 107 103 102 105 109 111 108
1970.0 97 113 98 108 103 81 92 100 99 98
2010.0 97 86 76 99 107 110 95 94 99 96
2050.0 97 86 96 103 93 98 99 82 91 98
2090.0 99 102 94 86 91 92 92 94 97 91
2130.0 91 88 92 91 94 95 99 100 101 88
2170.0 88 98 100 108 107 101 105 95 102 99
2210.0 104 100 102 103 94 98 102 106 115 109
2250.0 103 101 93 100 109 107 106 100 106 90
2290.0 84 75 64 68 42 34 23 9 4 4
2330.0 8 35 17 13 35 32 4 5 4 63
2370.0 106 97 119 107 105 109 109 104 110 102
2410.0 96 100 103 110 106 94 101 99 96 89
2450.0 89 96 91 102 98 96 96 100 109 103
2490.0 107 98 97 96 103 106 109 110 114 121
2530.0 121 115 125 129 131 133 143 138 128 129
2570.0 139 146 140 144 145 149 153 157 159 158
2610.0 173 183 181 183 184 182 194 197 196 201
2650.0 199 201 223 224 221 228 223 243 242 235
2690.0 237 248 248 245 244 239 224 229 229 235
2730.0 245 251 249 249 250 263 264 262 266 283
2770.0 280 277 279 292 300 314 325 343 342 358
2810.0 382 419 445 481 521 584 648 744 872 1084
2850.0 1421 1963 2728 3554 3985 3771 3186 2594 2188 1941
2890.0 1834 1839 1971 2245 2649 3171 3807 4548 5468 6778
2930.0 8418 9783 10000 9049 7592 6068 4772 3814 3227 2915
2970.0 2752 2668 2678 2883 3096 2953 2482 2051 1811 1627
3010.0 1441 1206 979 801 693 614 557 497 473 446
3050.0 457 454 447 460 482 532 587 657 789 958
3090.0 938 722 497 372 272 240 237 231 208 204
3130.0 189 178 169 180 165 144 144 144 158 126
3170.0 136 119 130 122 122 127 119 98 96 100
3210.0 91 98 100 84 80 81 71 64 73 88
3250.0 87 70 54 58 52 40 48 61 74 50
3290.0 53 48 31 36 36 45 53 49 44 30
3330.0 30 17 42 39 44 29 38 31 39 40
3370.0 39 28 44 32 35 22 26 36 34 28
3410.0 25 31 38 23 43 59 55 22 18 38
3450.0 13 28 37 43 51 43 44 54 69 49
3490.0 97 91 89 56 35 42 39 50 22 21
3530.0 52 56 55 28 6 46 77 16 72 43
3570.0 144 219 329 243 166 67 98 42 49 42
3610.0 59 63 36 41 39 96 45 52 20 49
3650.0 35 104 30 54 68 29 112 50 81 20
3690.0 75 47 24 43 34 36 69 4 5 3
3730.0 22 61 3 76 25 135 27 69 39 61
3770.0 60 56 85 33 14 11 18 67 65 118
3810.0 51 20 49 92 88 35 60 69 76 61
3850.0 23 141 106 65 45 87 21 24 128 86
3890.0 99 66 56 14 64 95 24 73 79 49
3930.0 61 93 4 23 120 65 111 105 75 132
##END=
