##TITLE=Nonane, 1-bromo-
##JCAMP-DX=4.24
##DATA TYPE=INFRARED SPECTRUM
##ORIGIN=Sadtler Research Labs Under US-EPA Contract
##OWNER=NIST Standard Reference Data Program
##CAS REGISTRY NO=693-58-3
##MOLFORM=C 9 H 19 Br
##XUNITS=1/CM
##YUNITS=ABSORBANCE
##XFACTOR=1.0
##YFACTOR=0.000165363
##DELTAX=4.0
##FIRSTX=450.0
##LASTX=3966.0
##FIRSTY=0.010583
##MAXX=3966
##MINX=450
##MAXY=1.65363
##MINY=0
##NPOINTS=880
##XYDATA=(X++(Y..Y))
450.0 64 37 16 6 37 23 18 30 27 29
490.0 36 13 14 10 16 24 32 29 30 27
530.0 36 30 33 37 37 91 92 144 207 292
570.0 377 360 307 206 124 50 80 93 21 11
610.0 46 36 49 38 52 76 90 185 227 319
650.0 383 452 423 286 177 89 75 55 51 50
690.0 96 71 66 98 132 175 200 230 256 258
730.0 251 245 251 238 176 193 181 168 158 146
770.0 129 111 110 104 90 94 93 100 83 87
810.0 84 81 79 86 84 71 84 77 78 71
850.0 79 75 73 78 85 90 95 111 96 106
890.0 96 98 94 95 89 83 84 76 77 74
930.0 82 80 80 85 84 80 77 78 69 74
970.0 70 69 63 60 61 60 61 70 73 74
1010.0 81 84 83 78 82 87 83 82 79 76
1050.0 73 76 75 76 77 73 72 65 64 59
1090.0 60 62 61 61 59 64 62 61 51 50
1130.0 44 45 43 48 50 55 63 64 70 71
1170.0 77 81 89 99 108 123 143 176 203 244
1210.0 309 386 453 511 543 547 526 507 528 594
1250.0 694 778 813 782 719 648 598 569 545 517
1290.0 485 460 431 409 381 344 305 264 232 207
1330.0 199 209 248 284 302 324 340 340 312 292
1370.0 278 276 278 293 293 242 187 154 132 123
1410.0 125 132 152 162 205 271 372 488 642 732
1450.0 788 816 925 998 979 886 715 523 370 255
1490.0 201 150 127 107 94 101 92 85 69 71
1530.0 62 65 49 44 59 49 51 33 31 42
1570.0 37 42 27 39 40 37 36 37 36 36
1610.0 36 36 21 39 28 40 25 33 34 31
1650.0 29 19 20 45 33 30 35 37 37 28
1690.0 37 33 30 19 32 34 35 24 33 32
1730.0 30 33 24 29 38 41 27 38 23 29
1770.0 27 22 29 28 33 27 23 32 33 22
1810.0 26 25 22 23 20 26 20 25 21 19
1850.0 22 20 20 22 23 22 22 17 20 20
1890.0 21 22 19 20 20 21 19 21 23 20
1930.0 22 22 22 22 22 19 22 19 21 20
1970.0 22 22 22 18 18 26 21 19 18 22
2010.0 16 18 21 20 18 18 14 15 13 12
2050.0 12 11 15 12 4 2 1 1 4 10
2090.0 16 19 22 22 20 20 19 19 21 16
2130.0 20 18 20 18 21 22 21 23 27 26
2170.0 23 24 22 21 23 23 21 23 24 21
2210.0 24 23 26 23 21 19 15 16 17 15
2250.0 15 12 15 14 16 13 12 12 11 8
2290.0 13 13 7 7 4 10 8 12 14 16
2330.0 18 16 17 30 7 12 18 18 11 7
2370.0 4 3 7 12 10 20 16 18 21 20
2410.0 20 20 19 16 17 15 12 11 16 10
2450.0 11 14 11 11 9 9 11 11 9 8
2490.0 10 11 10 14 11 9 8 10 14 19
2530.0 20 21 22 23 25 27 25 27 25 26
2570.0 29 34 33 37 45 45 47 50 53 51
2610.0 59 65 69 71 73 78 83 80 78 90
2650.0 98 107 104 108 106 107 103 101 104 108
2690.0 109 102 105 96 90 86 80 86 79 87
2730.0 88 90 93 101 104 99 97 99 98 101
2770.0 102 99 109 123 137 152 172 184 195 217
2810.0 232 254 287 326 364 420 495 596 759 1012
2850.0 1396 1999 2792 3594 4009 3892 3435 2951 2654 2451
2890.0 2264 2095 2113 2269 2559 2936 3485 4295 5533 7189
2930.0 8912 10000 9653 8803 7301 5837 4585 4006 4057 4486
2970.0 4795 4266 3105 2055 1410 1026 807 683 636 641
3010.0 682 718 660 507 375 287 234 212 187 166
3050.0 146 142 126 115 111 103 97 93 84 85
3090.0 80 74 79 74 69 65 59 57 55 52
3130.0 55 50 52 56 55 52 44 47 42 57
3170.0 58 50 48 54 56 35 36 39 32 32
3210.0 31 32 30 21 21 22 32 26 17 24
3250.0 17 9 22 21 24 21 27 33 25 25
3290.0 25 18 16 23 18 20 32 22 27 22
3330.0 27 16 16 29 21 23 27 19 23 30
3370.0 22 24 34 14 25 32 25 22 34 36
3410.0 26 27 30 30 31 33 20 35 23 19
3450.0 31 18 26 21 18 28 32 21 31 26
3490.0 26 29 34 30 21 32 33 29 27 35
3530.0 20 19 17 23 31 23 27 22 14 21
3570.0 36 19 24 37 26 44 34 41 35 26
3610.0 21 28 30 36 27 26 27 42 42 35
3650.0 31 33 23 20 40 20 23 4 19 16
3690.0 15 17 22 22 28 28 11 28 18 24
3730.0 11 20 15 28 3 18 0 20 19 22
3770.0 16 1 16 21 40 30 16 21 21 3
3810.0 27 24 1 3 26 13 3 0 21 11
3850.0 20 2 6 20 26 9 19 21 10 4
3890.0 21 15 19 0 6 4 15 11 27 19
3930.0 7 46 5 18 3 29 13 5 16 27
##END=
