##TITLE=Undecane, 1-bromo-
##JCAMP-DX=4.24
##DATA TYPE=INFRARED SPECTRUM
##ORIGIN=Sadtler Research Labs Under US-EPA Contract
##OWNER=NIST Standard Reference Data Program
##CAS REGISTRY NO=693-67-4
##MOLFORM=C 11 H 23 Br
##XUNITS=1/CM
##YUNITS=ABSORBANCE
##XFACTOR=1.0
##YFACTOR=0.000171686
##DELTAX=4.0
##FIRSTX=450.0
##LASTX=3966.0
##FIRSTY=0.000000
##MAXX=3966
##MINX=450
##MAXY=1.71686
##MINY=0
##NPOINTS=880
##XYDATA=(X++(Y..Y))
450.0 0 100 129 92 139 76 145 88 106 82
490.0 97 105 79 114 81 120 116 131 99 113
530.0 2 93 111 91 118 134 163 167 243 306
570.0 362 381 335 133 150 106 107 106 98 111
610.0 101 105 107 112 113 125 169 183 237 291
650.0 370 400 383 271 182 149 138 117 106 114
690.0 114 120 127 152 177 210 247 277 305 291
730.0 286 267 256 243 227 208 203 195 178 181
770.0 161 156 143 141 133 145 134 138 135 135
810.0 132 133 94 95 123 114 117 110 111 116
850.0 114 114 109 120 106 116 117 124 116 123
890.0 121 127 126 122 127 125 130 118 117 114
930.0 114 111 107 107 107 107 104 108 106 114
970.0 110 109 110 108 109 103 101 98 101 100
1010.0 96 99 105 104 105 111 110 115 114 110
1050.0 105 107 104 106 105 105 101 97 98 93
1090.0 93 88 91 87 88 93 91 89 84 85
1130.0 80 84 83 90 86 91 88 95 96 96
1170.0 99 99 107 112 117 123 149 170 203 241
1210.0 291 331 363 391 398 407 419 451 482 519
1250.0 549 566 578 594 591 555 507 463 442 422
1290.0 407 391 381 368 348 323 281 254 225 210
1330.0 197 206 232 266 296 321 347 341 314 292
1370.0 288 274 263 265 259 212 166 141 128 127
1410.0 122 130 134 156 180 233 314 420 539 637
1450.0 675 726 835 909 904 807 636 449 307 218
1490.0 169 139 122 104 99 91 78 76 74 68
1530.0 63 60 61 62 57 52 52 50 58 46
1570.0 46 45 46 43 42 42 41 40 40 41
1610.0 36 38 39 38 38 38 38 41 36 39
1650.0 36 44 37 31 36 37 36 34 33 40
1690.0 31 33 36 37 32 30 30 36 32 31
1730.0 35 34 33 30 29 31 32 30 30 28
1770.0 28 29 26 28 29 27 32 30 33 32
1810.0 28 26 23 22 24 20 19 21 20 23
1850.0 21 21 21 21 20 22 21 22 25 22
1890.0 21 23 23 22 23 22 21 21 27 21
1930.0 19 21 21 22 19 19 17 19 18 17
1970.0 16 17 15 18 19 16 17 15 17 17
2010.0 19 20 22 23 24 26 26 26 24 25
2050.0 22 22 21 20 20 20 18 18 18 15
2090.0 18 17 15 16 16 16 14 14 14 15
2130.0 14 16 14 14 15 17 17 15 14 14
2170.0 16 17 16 16 18 15 17 18 17 18
2210.0 15 14 15 16 15 17 17 15 15 16
2250.0 18 16 17 17 21 18 20 19 20 22
2290.0 19 21 22 23 22 19 20 22 19 21
2330.0 17 20 17 21 36 19 17 20 28 17
2370.0 27 25 25 30 25 25 26 28 28 27
2410.0 25 24 26 25 26 25 26 26 26 28
2450.0 27 28 26 28 27 28 25 28 28 30
2490.0 31 29 28 31 35 32 35 36 34 34
2530.0 38 38 42 42 40 41 43 41 42 41
2570.0 41 46 44 45 46 48 48 53 54 55
2610.0 60 63 63 64 65 70 72 75 75 80
2650.0 80 84 86 92 97 103 107 110 110 114
2690.0 113 111 111 103 102 95 95 96 95 96
2730.0 98 100 109 114 115 109 108 108 105 106
2770.0 108 112 118 127 139 148 166 180 192 206
2810.0 228 252 279 311 355 406 467 559 697 914
2850.0 1274 1875 2798 3751 4120 3788 3150 2567 2246 2087
2890.0 1920 1814 1884 2076 2390 2780 3290 4030 5201 7084
2930.0 9001 10000 9506 8316 6677 5091 3898 3277 3251 3537
2970.0 3755 3285 2333 1545 1095 824 672 577 527 525
3010.0 561 599 548 421 307 253 224 190 185 168
3050.0 154 139 133 128 115 110 103 110 109 84
3090.0 88 87 74 72 74 87 82 73 60 72
3130.0 67 66 70 58 68 76 78 72 74 69
3170.0 76 68 66 59 54 63 62 60 58 57
3210.0 57 51 50 46 46 46 44 42 42 38
3250.0 49 50 38 36 43 36 43 39 40 47
3290.0 42 45 31 42 39 35 39 43 40 39
3330.0 45 38 36 33 36 42 43 37 34 39
3370.0 31 43 50 43 31 28 46 45 41 48
3410.0 39 39 44 46 45 47 48 41 42 38
3450.0 48 46 43 38 41 44 38 40 51 46
3490.0 50 35 41 52 26 58 37 65 43 22
3530.0 42 50 31 27 57 55 35 63 31 69
3570.0 58 55 74 41 34 15 58 67 49 69
3610.0 77 75 68 70 55 58 71 56 51 53
3650.0 70 75 75 71 72 80 65 78 62 64
3690.0 67 85 74 74 84 73 76 67 66 69
3730.0 68 78 80 73 93 65 75 65 79 63
3770.0 70 64 91 72 74 74 92 83 79 113
3810.0 83 87 83 81 92 63 68 75 78 93
3850.0 89 86 82 71 81 84 103 80 86 78
3890.0 87 119 76 98 92 82 83 89 97 101
3930.0 114 87 102 97 99 114 87 101 139 81
##END=
