##TITLE=Pentane, 1,1'-oxybis-
##JCAMP-DX=4.24
##DATA TYPE=INFRARED SPECTRUM
##ORIGIN=Sadtler Research Labs Under US-EPA Contract
##OWNER=NIST Standard Reference Data Program
##CAS REGISTRY NO=693-65-2
##MOLFORM=C 10 H 22 O
##XUNITS=1/CM
##YUNITS=ABSORBANCE
##XFACTOR=1.0
##YFACTOR=0.000088818
##DELTAX=4.0
##FIRSTX=450.0
##LASTX=3966.0
##FIRSTY=0.001599
##MAXX=3966
##MINX=450
##MAXY=0.88818
##MINY=0
##NPOINTS=880
##XYDATA=(X++(Y..Y))
450.0 18 42 32 14 60 98 125 153 151 128
490.0 162 91 40 75 109 94 112 106 132 98
530.0 98 76 150 87 142 92 158 87 71 127
570.0 132 168 36 79 92 180 136 57 105 78
610.0 92 82 41 121 76 109 103 57 90 83
650.0 102 109 85 72 70 138 141 147 175 141
690.0 147 120 144 165 162 209 183 198 216 266
730.0 242 261 273 280 233 242 174 212 218 192
770.0 222 248 225 198 175 169 152 160 134 145
810.0 147 163 167 178 152 205 177 167 176 198
850.0 248 212 229 260 265 280 259 326 278 256
890.0 288 259 285 281 294 295 279 267 251 238
930.0 227 212 222 228 246 252 271 269 295 336
970.0 335 384 406 438 498 515 567 581 650 673
1010.0 711 705 681 651 631 598 591 578 588 599
1050.0 658 781 912 1053 1147 1184 1184 1207 1343 1595
1090.0 1969 2542 3123 3746 4223 4523 4764 5011 5279 5444
1130.0 5253 4720 3866 2967 2212 1732 1390 1132 928 773
1170.0 662 582 521 455 423 415 412 417 434 462
1210.0 491 530 547 538 527 520 508 501 507 512
1250.0 505 472 444 420 402 404 430 455 476 495
1290.0 493 506 514 524 500 484 442 403 397 404
1330.0 428 465 514 598 725 864 1030 1206 1329 1426
1370.0 1477 1448 1349 1191 985 793 613 490 448 415
1410.0 408 391 354 351 392 433 525 581 696 749
1450.0 820 941 1004 1215 1292 1336 1190 1030 807 625
1490.0 465 397 288 280 179 158 193 157 113 144
1530.0 166 129 131 59 123 134 123 63 69 137
1570.0 108 125 108 133 146 141 140 135 137 135
1610.0 134 137 89 127 114 127 116 77 129 89
1650.0 98 11 129 112 126 76 98 105 104 57
1690.0 108 111 70 38 91 116 109 67 127 145
1730.0 141 94 143 154 168 152 174 167 138 142
1770.0 113 76 122 109 109 111 80 103 90 100
1810.0 94 105 104 104 93 80 99 96 97 76
1850.0 101 106 112 99 99 83 100 101 106 100
1890.0 95 102 102 100 95 95 93 87 87 95
1930.0 91 95 95 93 89 96 94 105 94 99
1970.0 99 103 103 102 108 107 104 110 104 107
2010.0 111 111 103 103 102 103 107 101 107 100
2050.0 98 95 93 93 93 97 86 97 96 102
2090.0 96 95 97 96 92 96 96 96 97 91
2130.0 91 91 84 83 83 84 80 81 80 75
2170.0 75 71 64 62 69 68 61 61 62 60
2210.0 59 65 61 58 65 63 56 63 67 62
2250.0 67 65 59 57 60 58 64 52 52 57
2290.0 55 62 61 71 76 87 87 95 119 120
2330.0 130 138 132 144 145 116 144 182 178 168
2370.0 146 116 87 67 54 45 38 38 43 43
2410.0 48 45 41 41 30 34 30 34 29 26
2450.0 32 36 31 36 30 24 23 27 23 23
2490.0 21 17 26 31 19 25 20 19 27 24
2530.0 30 26 26 31 28 32 34 43 44 45
2570.0 51 62 67 80 77 81 79 89 90 84
2610.0 92 97 86 93 97 89 92 103 105 109
2650.0 111 122 126 143 149 156 167 185 196 202
2690.0 214 232 233 250 267 279 287 286 302 325
2730.0 338 354 360 377 382 366 356 361 360 373
2770.0 391 418 459 511 586 649 719 763 772 756
2810.0 723 724 754 813 910 1034 1243 1521 1924 2496
2850.0 3252 4177 5252 6301 7049 7277 6898 6291 5662 5010
2890.0 4378 3743 3406 3406 3668 4054 4576 5226 5938 6780
2930.0 7783 8762 9618 10000 9609 8743 7677 7104 7333 7979
2970.0 8077 7011 5195 3492 2351 1701 1306 1040 856 730
3010.0 635 554 488 451 406 365 341 318 282 265
3050.0 247 214 207 192 192 184 168 158 148 152
3090.0 144 138 127 122 123 117 118 105 111 108
3130.0 105 107 107 105 97 98 104 92 110 92
3170.0 94 88 91 97 94 101 86 81 88 84
3210.0 69 63 63 58 63 57 49 66 51 49
3250.0 48 48 43 37 48 43 44 49 45 43
3290.0 44 40 46 40 44 43 49 39 41 47
3330.0 47 36 41 40 42 44 40 47 45 50
3370.0 54 45 45 50 56 46 45 44 42 48
3410.0 49 39 45 43 49 36 38 49 55 38
3450.0 37 49 42 32 38 45 40 46 40 45
3490.0 41 41 36 36 37 39 36 43 44 35
3530.0 43 37 39 44 32 39 39 42 41 28
3570.0 16 46 46 45 38 28 47 47 47 41
3610.0 25 40 38 37 53 16 50 55 48 53
3650.0 18 46 40 58 51 30 30 18 53 59
3690.0 35 52 65 54 66 60 39 66 67 51
3730.0 55 41 16 41 10 9 32 56 57 57
3770.0 58 77 72 68 81 78 79 58 39 61
3810.0 49 56 50 61 72 71 63 46 69 80
3850.0 70 45 60 63 63 69 71 81 72 73
3890.0 72 68 65 66 66 83 88 73 78 84
3930.0 84 81 92 98 101 102 0 8 8 8
##END=
