##TITLE=Hexanedioic acid, bis(1-methylethyl) ester
##JCAMP-DX=4.24
##DATA TYPE=INFRARED SPECTRUM
##ORIGIN=Sadtler Research Labs Under US-EPA Contract
##OWNER=NIST Standard Reference Data Program
##CAS REGISTRY NO=6938-94-9
##MOLFORM=C 12 H 22 O 4
##XUNITS=1/CM
##YUNITS=ABSORBANCE
##XFACTOR=1.0
##YFACTOR=0.000132947
##DELTAX=4.0
##FIRSTX=450.0
##LASTX=3966.0
##FIRSTY=0.000000
##MAXX=3966
##MINX=450
##MAXY=1.32947
##MINY=0
##NPOINTS=880
##XYDATA=(X++(Y..Y))
450.0 0 216 478 390 486 474 399 342 326 370
490.0 350 453 386 367 429 388 461 342 317 320
530.0 329 312 291 332 380 342 393 224 309 405
570.0 408 360 402 429 354 452 451 454 390 396
610.0 392 419 445 430 415 416 413 371 412 395
650.0 371 387 330 374 374 361 344 382 347 371
690.0 361 347 390 383 406 374 372 397 372 379
730.0 392 391 412 377 337 374 418 421 438 439
770.0 433 446 445 444 440 430 463 459 449 474
810.0 488 538 629 697 720 696 628 524 492 457
850.0 456 439 441 443 468 459 484 502 521 547
890.0 571 599 622 627 629 616 620 647 687 767
930.0 861 965 1018 1066 1097 1162 1202 1196 1187 1130
970.0 1094 1059 975 846 708 622 582 570 591 588
1010.0 594 596 579 588 608 624 668 700 739 802
1050.0 896 1001 1089 1149 1154 1166 1179 1203 1255 1356
1090.0 1538 1863 2444 3383 4772 6274 7017 6552 5543 4872
1130.0 4594 4608 4727 4801 4675 4405 4136 3974 3969 4094
1170.0 4352 4634 4803 4751 4547 4253 4024 3865 3698 3591
1210.0 3493 3402 3384 3409 3486 3572 3696 3815 3899 3941
1250.0 3885 3763 3541 3239 2901 2598 2383 2238 2136 2048
1290.0 1947 1841 1738 1654 1615 1575 1538 1485 1454 1452
1330.0 1485 1574 1641 1668 1657 1602 1616 1724 1923 2199
1370.0 2450 2675 2793 2684 2420 1988 1522 1141 898 763
1410.0 699 685 691 756 824 896 910 920 909 931
1450.0 983 1070 1122 1166 1131 1136 1063 899 716 570
1490.0 479 440 397 375 354 333 328 326 312 323
1530.0 318 313 323 294 308 311 310 309 313 320
1570.0 311 305 314 304 320 312 324 305 311 316
1610.0 301 327 305 325 314 330 322 325 329 340
1650.0 324 346 356 349 373 365 376 401 403 431
1690.0 474 518 570 639 713 796 890 1045 1306 1770
1730.0 2445 3496 5265 7091 8864 10000 8647 6950 4930 3281
1770.0 2233 1600 1256 1035 875 759 665 595 539 493
1810.0 458 421 394 378 350 339 328 324 309 296
1850.0 297 296 289 286 274 271 274 275 272 267
1890.0 264 264 262 264 262 264 261 266 261 267
1930.0 273 273 273 268 269 267 270 261 268 259
1970.0 260 259 255 258 255 252 252 256 259 258
2010.0 259 257 254 256 253 252 255 250 254 253
2050.0 251 253 251 253 251 250 252 253 254 249
2090.0 245 244 242 243 242 237 239 237 235 236
2130.0 235 229 229 226 225 227 224 222 224 224
2170.0 222 222 224 227 224 227 229 227 230 231
2210.0 231 228 228 228 228 228 228 226 230 229
2250.0 231 230 233 233 236 235 237 237 239 241
2290.0 242 243 247 248 251 259 257 257 256 255
2330.0 252 255 247 248 264 251 258 258 271 259
2370.0 255 255 245 245 242 235 230 225 225 224
2410.0 226 221 218 220 222 220 218 217 219 220
2450.0 216 216 218 216 217 216 219 218 218 218
2490.0 215 220 220 221 222 220 223 222 223 225
2530.0 219 220 217 215 215 209 210 208 207 212
2570.0 209 210 211 211 210 208 209 210 210 212
2610.0 208 213 216 217 220 222 226 226 226 226
2650.0 224 227 225 228 232 233 237 239 239 242
2690.0 243 244 240 241 246 245 245 245 242 246
2730.0 246 253 261 271 272 270 264 263 261 262
2770.0 262 259 258 261 260 264 267 270 273 279
2810.0 281 290 299 312 326 339 351 362 367 380
2850.0 403 427 470 543 636 754 874 972 1029 1046
2890.0 1028 979 929 894 904 954 1039 1166 1320 1517
2930.0 1731 1956 2185 2392 2519 2503 2342 2120 1954 1913
2970.0 2035 2368 3027 4099 4832 4333 3205 2319 1681 1228
3010.0 913 706 569 484 432 393 365 347 331 316
3050.0 304 293 292 287 283 277 274 279 275 276
3090.0 274 271 275 274 269 270 270 271 269 268
3130.0 270 261 267 261 263 267 269 266 270 275
3170.0 271 275 277 275 280 277 269 271 263 262
3210.0 256 252 255 250 251 250 246 250 242 244
3250.0 238 235 236 235 233 235 237 235 233 229
3290.0 235 230 231 235 237 234 231 236 236 231
3330.0 231 229 238 237 236 236 230 237 236 240
3370.0 230 232 238 238 248 240 241 242 234 235
3410.0 236 234 237 240 242 243 240 241 242 247
3450.0 250 255 256 262 284 301 309 311 311 301
3490.0 287 273 260 245 233 237 233 233 226 224
3530.0 229 238 231 232 234 232 232 239 234 243
3570.0 263 293 309 297 256 244 223 240 236 236
3610.0 233 229 237 220 242 227 229 227 235 223
3650.0 254 219 250 230 234 240 226 241 219 238
3690.0 209 232 209 217 222 218 218 222 206 218
3730.0 217 227 231 203 251 203 246 211 224 221
3770.0 211 225 219 218 224 213 227 208 240 227
3810.0 224 226 229 227 220 225 231 219 249 204
3850.0 241 235 230 226 236 238 212 220 223 244
3890.0 226 237 217 239 234 230 227 213 222 223
3930.0 250 231 238 232 244 234 219 214 214 224
##END=
