##TITLE=Pyridine, 1-oxide
##JCAMP-DX=4.24
##DATA TYPE=INFRARED SPECTRUM
##ORIGIN=Sadtler Research Labs Under US-EPA Contract
##OWNER=NIST Standard Reference Data Program
##CAS REGISTRY NO=694-59-7
##MOLFORM=C 5 H 5 N O
##XUNITS=1/CM
##YUNITS=ABSORBANCE
##XFACTOR=1.0
##YFACTOR=0.000092236
##DELTAX=4.0
##FIRSTX=450.0
##LASTX=3966.0
##FIRSTY=0.021399
##MAXX=3966
##MINX=450
##MAXY=0.92236
##MINY=0
##NPOINTS=880
##XYDATA=(X++(Y..Y))
450.0 232 212 347 440 345 267 297 306 229 207
490.0 189 176 230 450 533 587 295 402 409 564
530.0 475 467 472 530 389 367 230 99 58 80
570.0 119 107 37 57 61 192 132 91 99 104
610.0 152 174 161 110 186 200 342 347 511 691
650.0 961 1101 1041 1140 1366 3062 1404 1376 1148 1115
690.0 975 782 1107 800 481 463 430 508 564 750
730.0 933 1162 1398 1727 1960 2219 2709 3918 1654 1616
770.0 1576 1395 1104 794 566 343 306 316 333 370
810.0 384 368 379 430 640 858 1023 849 1005 836
850.0 831 866 648 493 399 441 540 740 713 420
890.0 428 410 379 371 283 256 228 213 248 211
930.0 232 204 215 187 190 192 207 200 192 215
970.0 232 259 252 288 403 643 1132 1931 2693 2673
1010.0 2800 3214 2610 2907 2403 1411 702 497 377 436
1050.0 462 409 373 334 360 368 366 346 319 272
1090.0 292 304 280 256 274 254 268 287 282 261
1130.0 323 301 348 460 779 1267 1672 1683 1861 2035
1170.0 2274 2055 1753 1407 940 802 636 491 416 397
1210.0 396 399 353 339 357 364 325 320 343 357
1250.0 392 454 503 589 760 1138 1834 3233 5289 7771
1290.0 9445 9203 10000 8871 9262 9014 5091 1879 627 345
1330.0 297 247 354 322 225 220 222 240 319 272
1370.0 310 405 383 404 396 424 403 440 323 298
1410.0 273 288 439 456 504 632 941 1750 2777 4188
1450.0 5109 5279 6186 6463 6214 6086 4441 3048 2082 1973
1490.0 1629 1003 694 480 476 553 387 414 425 388
1530.0 376 472 464 593 576 555 595 683 652 577
1570.0 596 583 737 868 1192 1501 1703 1826 1960 2091
1610.0 1877 1876 1564 1138 851 617 427 358 234 257
1650.0 245 330 212 239 241 318 320 357 424 454
1690.0 424 364 449 500 391 304 306 341 232 218
1730.0 244 315 234 265 302 360 321 350 335 291
1770.0 363 301 246 245 264 226 275 237 306 237
1810.0 258 260 261 243 313 320 310 293 298 351
1850.0 288 233 210 208 193 240 171 171 180 190
1890.0 234 244 253 244 245 276 278 300 268 231
1930.0 197 174 171 167 138 119 112 108 123 127
1970.0 122 117 122 122 117 137 154 123 129 130
2010.0 137 132 147 131 118 113 108 101 117 99
2050.0 99 96 104 101 114 93 93 97 98 98
2090.0 109 107 105 111 115 125 133 144 153 165
2130.0 181 180 181 184 174 165 136 108 96 96
2170.0 96 101 94 99 106 106 105 98 105 107
2210.0 106 103 106 108 107 113 113 106 106 106
2250.0 106 103 108 111 123 132 143 160 173 189
2290.0 211 223 234 234 239 245 224 182 161 132
2330.0 107 89 84 108 135 170 156 147 119 127
2370.0 134 151 171 182 154 115 106 94 87 88
2410.0 92 106 122 144 172 184 192 186 186 179
2450.0 168 127 106 88 88 80 75 75 73 68
2490.0 66 57 63 64 55 57 50 50 55 49
2530.0 53 57 65 59 68 79 94 107 129 162
2570.0 201 243 274 281 284 307 247 249 182 99
2610.0 65 65 69 64 64 68 69 67 57 54
2650.0 54 51 54 53 44 44 49 49 53 48
2690.0 39 33 40 29 33 22 29 31 30 32
2730.0 49 49 61 73 93 112 112 121 131 124
2770.0 118 88 78 66 60 50 51 49 52 46
2810.0 51 51 54 58 61 56 61 58 63 59
2850.0 65 58 55 55 62 59 58 62 74 64
2890.0 64 76 70 70 78 73 80 85 88 81
2930.0 93 88 98 89 83 83 95 85 88 88
2970.0 80 106 97 106 104 117 127 134 145 153
3010.0 159 187 183 203 225 238 262 279 317 339
3050.0 355 374 397 438 464 513 535 539 528 489
3090.0 474 504 497 452 389 315 281 236 213 180
3130.0 118 102 80 78 76 75 84 74 75 76
3170.0 64 54 65 69 62 53 52 54 62 61
3210.0 65 54 50 60 53 47 49 39 44 39
3250.0 34 39 40 35 37 40 35 41 35 47
3290.0 36 29 30 37 27 34 34 31 24 31
3330.0 32 32 31 22 31 22 28 39 33 32
3370.0 26 17 28 27 35 34 34 42 41 30
3410.0 35 56 39 60 40 35 45 46 42 62
3450.0 46 37 36 45 45 48 30 39 68 47
3490.0 41 37 49 79 76 69 47 56 49 127
3530.0 79 56 72 44 118 107 103 79 97 164
3570.0 194 79 85 101 114 216 127 118 103 99
3610.0 183 152 141 133 96 202 120 102 112 126
3650.0 196 136 142 110 116 172 153 178 130 129
3690.0 153 133 137 147 144 179 198 178 198 238
3730.0 222 268 287 226 274 248 235 221 223 213
3770.0 197 193 184 201 191 187 191 221 234 222
3810.0 230 230 236 259 237 238 253 257 258 234
3850.0 260 307 267 263 277 277 265 255 273 270
3890.0 267 272 280 303 279 245 248 272 257 247
3930.0 248 246 241 251 244 253 0 18 19 20
##END=
