##TITLE=Benzene, 1-bromo-2-chloro-
##JCAMP-DX=4.24
##DATA TYPE=INFRARED SPECTRUM
##ORIGIN=Sadtler Research Labs Under US-EPA Contract
##OWNER=NIST Standard Reference Data Program
##CAS REGISTRY NO=694-80-4
##MOLFORM=C 6 H 4 Br Cl
##XUNITS=1/CM
##YUNITS=ABSORBANCE
##XFACTOR=1.0
##YFACTOR=0.000141217
##DELTAX=4.0
##FIRSTX=450.0
##LASTX=3966.0
##FIRSTY=0.081059
##MAXX=3966
##MINX=450
##MAXY=1.41217
##MINY=0
##NPOINTS=880
##XYDATA=(X++(Y..Y))
450.0 574 471 415 390 290 172 81 38 32 43
490.0 35 0 41 32 30 30 50 36 20 25
530.0 27 34 15 34 9 27 19 34 41 44
570.0 68 61 40 15 26 13 27 23 30 28
610.0 34 43 61 77 97 132 238 574 1034 1398
650.0 1504 1443 1092 516 340 290 273 160 112 95
690.0 93 120 131 187 338 588 822 1047 1316 1698
730.0 2562 4382 6230 7819 10000 7428 4944 3652 1735 647
770.0 215 118 106 69 64 60 51 62 75 118
810.0 171 202 188 174 149 97 93 89 68 73
850.0 81 92 110 137 175 155 129 96 58 40
890.0 34 50 50 60 58 70 70 74 82 106
930.0 142 170 266 258 188 159 128 94 94 91
970.0 101 101 109 133 171 214 268 341 434 634
1010.0 1009 1760 2964 4180 4492 4892 4264 2536 1842 1140
1050.0 435 179 109 109 123 130 145 147 147 180
1090.0 272 428 671 1039 1621 2131 2543 3031 3162 2924
1130.0 2573 1948 1197 671 423 373 374 360 334 284
1170.0 257 231 207 190 160 133 117 104 87 74
1210.0 56 43 41 39 39 44 77 143 259 392
1250.0 536 629 574 489 346 190 120 81 71 70
1290.0 65 58 49 41 40 35 33 31 33 34
1330.0 39 46 54 82 120 168 207 217 199 167
1370.0 126 98 96 116 151 200 282 338 345 354
1410.0 380 414 605 1017 1710 2192 2227 2585 2760 3579
1450.0 5656 6784 6763 6412 4156 2024 1266 1016 799 620
1490.0 439 278 182 135 95 73 65 68 60 70
1530.0 75 82 98 109 137 171 262 424 715 985
1570.0 1206 1468 1436 1199 1053 702 409 276 224 177
1610.0 111 77 59 54 50 50 46 47 53 61
1650.0 64 64 73 79 82 96 129 176 192 192
1690.0 183 156 124 113 106 100 90 68 59 53
1730.0 42 42 41 39 42 46 51 52 61 72
1770.0 82 112 165 234 279 264 241 189 112 83
1810.0 80 101 133 152 146 128 99 60 43 42
1850.0 46 44 44 54 71 90 111 123 120 109
1890.0 94 101 142 209 279 303 285 246 170 101
1930.0 91 119 172 215 225 200 159 90 43 36
1970.0 36 36 36 35 35 36 34 38 40 35
2010.0 33 30 30 28 30 30 31 33 33 36
2050.0 39 40 41 35 32 33 30 29 24 27
2090.0 30 30 31 34 37 34 34 30 28 27
2130.0 27 25 24 26 24 21 25 25 22 22
2170.0 27 25 25 22 28 30 30 24 25 24
2210.0 27 24 20 22 27 25 26 29 31 33
2250.0 30 36 36 40 42 44 47 56 62 70
2290.0 81 77 75 65 62 66 71 76 81 78
2330.0 68 52 40 42 34 48 60 62 49 34
2370.0 31 29 35 34 36 38 32 33 33 34
2410.0 38 38 36 36 37 37 35 30 27 25
2450.0 24 21 20 19 19 18 22 21 19 14
2490.0 19 15 23 24 27 38 53 64 73 86
2530.0 92 89 75 58 44 37 41 37 46 42
2570.0 40 35 37 41 43 52 59 59 56 44
2610.0 33 26 20 13 10 9 7 11 12 9
2650.0 11 8 2 2 8 9 7 12 14 17
2690.0 17 21 27 31 31 26 25 19 16 7
2730.0 12 13 16 11 10 14 17 12 10 14
2770.0 15 17 13 10 16 15 16 15 19 18
2810.0 18 14 21 21 21 20 20 16 15 12
2850.0 12 18 17 16 14 18 18 18 13 14
2890.0 17 6 7 10 10 14 10 12 17 17
2930.0 13 16 21 23 16 13 25 29 27 31
2970.0 41 41 50 55 69 76 81 79 86 92
3010.0 98 92 80 79 71 62 54 53 49 59
3050.0 92 159 318 618 1095 1590 1979 1923 1714 1270
3090.0 722 474 350 171 115 78 68 60 59 78
3130.0 101 116 140 159 145 115 64 35 32 15
3170.0 11 21 25 17 18 13 24 19 21 15
3210.0 20 22 19 17 22 21 18 15 14 22
3250.0 14 10 15 28 26 13 22 20 20 22
3290.0 17 19 21 22 13 14 23 21 10 18
3330.0 13 16 17 18 26 29 23 21 24 24
3370.0 21 15 15 23 30 16 12 24 25 18
3410.0 15 24 18 13 13 27 22 31 19 17
3450.0 25 12 14 18 17 24 21 14 18 22
3490.0 23 10 17 18 17 26 17 26 33 24
3530.0 19 28 23 8 8 24 26 14 11 18
3570.0 25 18 12 23 18 15 6 19 14 21
3610.0 15 18 14 9 33 20 23 27 11 15
3650.0 27 16 24 22 33 30 26 28 19 24
3690.0 21 19 10 9 28 35 22 27 48 56
3730.0 38 61 58 43 39 36 12 13 12 37
3770.0 37 32 29 29 43 50 73 46 33 34
3810.0 38 38 7 37 34 24 31 36 33 29
3850.0 44 31 14 11 38 3 49 60 28 44
3890.0 29 43 40 37 36 40 27 17 24 55
3930.0 47 33 23 67 29 39 12 43 60 75
##END=
