##TITLE=Ketone, methyl 6-methyl-2-pyridyl
##JCAMP-DX=4.24
##DATA TYPE=INFRARED SPECTRUM
##ORIGIN=Sadtler Research Labs Under US-EPA Contract
##OWNER=NIST Standard Reference Data Program
##CAS REGISTRY NO=6940-57-4
##MOLFORM=C 8 H 9 N O
##XUNITS=1/CM
##YUNITS=ABSORBANCE
##XFACTOR=1.0
##YFACTOR=0.000151288
##DELTAX=4.0
##FIRSTX=450.0
##LASTX=3966.0
##FIRSTY=0.006203
##MAXX=3966
##MINX=450
##MAXY=1.51288
##MINY=0
##NPOINTS=880
##XYDATA=(X++(Y..Y))
450.0 41 177 9 55 174 216 406 250 335 467
490.0 805 897 737 723 655 614 651 645 681 572
530.0 560 544 600 750 750 691 809 657 505 349
570.0 322 262 336 575 960 1683 2159 2271 2289 1893
610.0 1133 590 279 278 192 187 154 138 148 109
650.0 133 101 142 164 193 253 251 197 175 83
690.0 109 158 79 47 30 7 45 35 150 216
730.0 357 615 711 622 587 434 324 404 363 304
770.0 396 536 849 1288 1635 2242 2881 2314 1622 1266
810.0 841 443 210 93 70 48 39 28 28 93
850.0 153 307 480 608 746 791 819 914 848 821
890.0 813 772 737 703 646 602 508 385 289 238
930.0 224 213 287 396 629 810 867 794 672 510
970.0 295 127 39 0 22 80 89 156 197 140
1010.0 157 160 225 255 216 212 206 191 179 195
1050.0 232 260 338 415 524 697 1020 1593 2218 2387
1090.0 2305 2075 1669 1500 1681 1886 1858 1681 1483 1014
1130.0 544 323 245 372 755 949 905 854 795 490
1170.0 334 316 331 338 365 398 460 545 666 820
1210.0 1060 1417 1845 2166 2314 2388 2208 1749 1320 1068
1250.0 1018 1125 1474 1873 1836 1597 1387 1524 2196 3278
1290.0 4094 4380 4347 3817 2518 1326 760 580 454 430
1330.0 482 611 865 1143 1643 2506 3646 4352 4667 4623
1370.0 3979 2829 1906 1455 1214 1016 830 760 723 720
1410.0 818 823 1025 994 1016 1007 1123 1210 1377 1715
1450.0 2137 2319 2363 2259 1787 1275 1128 808 589 591
1490.0 589 493 506 482 572 631 575 590 689 602
1530.0 616 620 639 753 717 681 836 1074 1285 1549
1570.0 1848 2297 2558 3093 3117 3071 3100 2535 2174 1454
1610.0 869 551 441 362 380 282 339 333 320 345
1650.0 460 480 427 477 541 713 713 566 771 742
1690.0 886 1169 2078 3818 5836 9317 9059 10000 9116 5582
1730.0 3089 1513 970 736 739 768 727 791 787 710
1770.0 636 514 389 315 249 221 224 207 222 183
1810.0 184 188 179 168 183 184 142 120 147 170
1850.0 114 84 90 84 110 147 108 122 131 168
1890.0 201 199 186 153 136 114 99 94 103 64
1930.0 55 53 54 74 72 65 82 100 100 140
1970.0 139 126 124 104 85 89 64 40 28 30
2010.0 24 26 40 26 19 17 18 28 31 30
2050.0 31 34 36 38 53 36 34 30 21 21
2090.0 19 12 15 10 12 18 12 15 17 12
2130.0 17 13 13 12 10 10 12 13 10 17
2170.0 16 16 15 12 9 11 8 11 10 8
2210.0 11 9 12 15 15 18 20 22 25 28
2250.0 30 27 28 25 20 19 13 11 13 13
2290.0 16 17 28 38 45 50 53 54 41 39
2330.0 40 33 31 36 21 19 27 26 27 28
2370.0 27 21 20 16 17 20 19 24 22 20
2410.0 26 21 21 21 20 19 19 22 25 24
2450.0 27 30 28 30 34 33 31 30 28 24
2490.0 28 24 24 28 33 34 36 34 29 27
2530.0 30 26 27 27 24 27 24 22 25 19
2570.0 17 19 18 16 15 13 11 13 11 9
2610.0 11 11 17 19 25 28 27 26 29 29
2650.0 31 33 35 36 36 43 38 36 33 26
2690.0 24 20 18 19 20 18 19 17 21 22
2730.0 28 28 36 44 38 37 34 27 28 25
2770.0 31 34 33 37 38 45 47 52 57 61
2810.0 66 75 83 90 94 100 112 118 140 154
2850.0 166 191 219 255 278 293 297 282 271 256
2890.0 251 260 268 289 319 362 409 490 611 781
2930.0 949 1080 1134 1108 1021 868 714 597 539 531
2970.0 546 566 589 598 589 582 587 584 610 667
3010.0 735 800 823 827 775 686 616 575 562 562
3050.0 582 671 842 1106 1322 1360 1331 1198 877 561
3090.0 388 314 255 213 182 166 149 142 141 138
3130.0 131 122 120 120 117 112 102 94 86 85
3170.0 74 75 68 67 59 50 45 38 41 40
3210.0 34 39 35 33 35 31 30 29 31 29
3250.0 28 29 22 27 26 24 27 28 28 28
3290.0 24 29 25 25 21 22 29 25 19 22
3330.0 18 22 20 24 25 22 30 31 30 24
3370.0 36 26 36 36 38 58 79 109 148 187
3410.0 219 231 206 160 108 65 54 35 39 33
3450.0 26 25 28 27 24 28 21 18 26 20
3490.0 17 20 17 18 13 8 10 8 18 16
3530.0 11 11 11 22 26 11 11 12 16 18
3570.0 21 19 21 16 18 28 20 18 17 36
3610.0 28 30 26 24 27 35 37 30 40 49
3650.0 55 53 52 48 44 37 27 25 29 37
3690.0 28 34 30 33 39 38 33 27 35 29
3730.0 40 38 46 35 30 31 22 43 34 27
3770.0 21 12 21 19 25 26 17 21 8 15
3810.0 16 15 9 7 25 20 12 27 22 13
3850.0 15 8 20 26 11 22 13 16 11 7
3890.0 24 36 18 4 4 30 22 24 8 11
3930.0 25 48 28 21 16 30 39 25 13 35
##END=
