##TITLE=Butane, 1-bromo-4-chloro-
##JCAMP-DX=4.24
##DATA TYPE=INFRARED SPECTRUM
##ORIGIN=Sadtler Research Labs Under US-EPA Contract
##OWNER=NIST Standard Reference Data Program
##CAS REGISTRY NO=6940-78-9
##MOLFORM=C 4 H 8 Br Cl
##XUNITS=1/CM
##YUNITS=ABSORBANCE
##XFACTOR=1.0
##YFACTOR=0.000075833
##DELTAX=4.0
##FIRSTX=450.0
##LASTX=3966.0
##FIRSTY=0.010010
##MAXX=3966
##MINX=450
##MAXY=0.75833
##MINY=0
##NPOINTS=880
##XYDATA=(X++(Y..Y))
450.0 132 115 131 80 38 88 83 78 143 179
490.0 143 166 128 95 90 77 94 13 59 50
530.0 100 98 116 209 240 384 558 860 1179 1518
570.0 1761 1748 1574 1195 709 484 351 242 236 208
610.0 276 251 366 390 499 626 900 1224 1656 2240
650.0 2940 3701 4408 4476 4265 3637 2817 1967 1687 1258
690.0 975 806 708 652 582 694 742 904 1102 1503
730.0 1892 2394 2901 3347 3728 3900 4187 4513 4648 4738
770.0 4921 4726 4467 3961 2932 2311 1812 1447 1209 1142
810.0 1134 1100 994 954 864 787 718 667 668 606
850.0 612 646 671 623 612 634 661 683 655 620
890.0 591 565 533 519 497 505 539 598 681 772
930.0 833 863 823 708 628 546 492 494 555 705
970.0 913 1153 1328 1405 1273 1160 1101 1101 1078 1121
1010.0 1124 1073 1049 960 851 686 564 477 447 402
1050.0 380 360 331 319 291 263 233 215 175 159
1090.0 140 136 129 137 148 167 198 212 234 231
1130.0 232 219 211 217 221 234 250 261 274 303
1170.0 339 419 508 577 618 651 686 771 905 962
1210.0 1020 1086 1355 1851 2295 2553 2588 2520 2781 3592
1250.0 4499 4868 4951 4537 3900 3975 4418 5621 7224 8022
1290.0 8216 7293 6267 5543 4901 4680 4628 4486 4000 3186
1330.0 2381 1673 1250 1092 1057 1054 1010 914 808 736
1370.0 670 603 508 401 343 301 290 279 294 311
1410.0 343 426 582 859 1221 1749 2378 3210 4125 4792
1450.0 4961 4508 3833 3010 2262 1752 1325 965 690 495
1490.0 368 269 227 176 158 139 126 124 121 107
1530.0 94 91 81 88 60 65 65 68 62 52
1570.0 61 46 49 34 36 22 20 19 19 22
1610.0 27 37 41 50 63 67 69 70 57 47
1650.0 45 45 39 34 44 39 53 44 45 51
1690.0 42 39 46 34 29 28 28 40 33 32
1730.0 36 41 43 43 50 43 45 38 44 39
1770.0 43 38 36 31 28 30 30 29 28 32
1810.0 23 23 21 24 17 18 25 18 19 22
1850.0 23 16 22 27 31 28 28 29 29 39
1890.0 29 37 36 36 39 36 38 41 43 47
1930.0 42 43 41 37 44 42 41 45 48 53
1970.0 50 54 49 52 50 52 45 48 47 46
2010.0 49 54 58 53 55 49 49 34 23 7
2050.0 1 1 9 7 5 16 14 22 26 37
2090.0 56 62 62 70 79 82 80 78 74 73
2130.0 73 65 60 62 59 63 71 72 68 71
2170.0 75 74 65 62 64 61 65 63 65 66
2210.0 73 78 78 73 74 76 70 73 80 71
2250.0 70 73 69 70 61 55 52 50 49 46
2290.0 44 37 37 29 22 13 7 2 15 16
2330.0 21 36 44 18 46 40 8 18 59 108
2370.0 135 136 131 102 90 75 60 51 53 48
2410.0 52 61 62 64 58 66 60 57 55 54
2450.0 56 56 58 56 58 56 61 56 60 58
2490.0 62 67 62 58 56 58 50 54 44 38
2530.0 37 26 31 30 34 28 27 23 24 25
2570.0 22 21 27 25 28 32 30 33 37 37
2610.0 25 37 31 33 45 45 46 52 55 58
2650.0 61 67 82 94 113 113 120 121 123 140
2690.0 141 153 153 170 168 154 145 134 146 134
2730.0 142 145 141 146 150 146 140 140 135 131
2770.0 119 114 117 126 143 153 155 170 183 197
2810.0 206 231 265 304 338 421 541 735 978 1285
2850.0 1596 1872 2076 2181 2238 2283 2372 2516 2618 2663
2890.0 2689 2696 2767 2922 3133 3310 3448 3578 3694 3788
2930.0 3941 4148 4509 5145 6043 6866 7690 8560 9276 9877
2970.0 10000 9586 8677 7477 6290 5447 5092 5059 4856 4447
3010.0 3922 3224 2603 2060 1528 1078 763 555 398 312
3050.0 250 211 191 182 156 136 115 114 100 96
3090.0 90 65 60 69 58 46 39 41 49 48
3130.0 38 45 28 21 27 29 26 30 47 41
3170.0 50 55 60 49 65 65 58 58 54 49
3210.0 49 42 46 46 47 56 50 47 53 64
3250.0 45 37 43 44 45 39 45 37 35 40
3290.0 41 27 39 35 30 21 20 34 25 30
3330.0 27 27 36 30 32 28 5 26 37 13
3370.0 14 16 20 22 22 10 12 18 23 9
3410.0 3 9 11 23 36 30 34 21 30 18
3450.0 35 18 28 20 27 27 21 4 6 23
3490.0 10 30 17 19 31 40 22 18 22 1
3530.0 34 23 34 32 14 29 33 42 10 31
3570.0 17 21 26 22 13 32 38 25 36 10
3610.0 7 15 26 44 67 44 43 21 26 61
3650.0 42 62 69 22 32 29 29 52 45 19
3690.0 45 17 27 4 37 16 43 22 36 23
3730.0 29 40 56 50 57 14 9 15 18 35
3770.0 14 2 2 11 24 0 28 4 33 33
3810.0 13 21 3 1 2 20 1 4 1 1
3850.0 1 1 27 12 1 30 48 1 65 49
3890.0 32 9 0 18 104 39 28 29 25 22
3930.0 53 26 24 11 15 23 2 88 81 93
##END=
