##TITLE=Benzene, 1-tert-butyl-4-dodecyl-oxy-,
##JCAMP-DX=4.24
##DATA TYPE=INFRARED SPECTRUM
##ORIGIN=Sadtler Research Labs Under US-EPA Contract
##OWNER=NIST Standard Reference Data Program
##CAS REGISTRY NO=6940-96-1
##MOLFORM=C 22 H 38 O
##XUNITS=1/CM
##YUNITS=ABSORBANCE
##XFACTOR=1.0
##YFACTOR=0.000082010
##DELTAX=4.0
##FIRSTX=450.0
##LASTX=3966.0
##FIRSTY=0.000000
##MAXX=3966
##MINX=450
##MAXY=0.8201
##MINY=0
##NPOINTS=880
##XYDATA=(X++(Y..Y))
450.0 0 215 261 248 272 277 296 326 180 109
490.0 257 288 290 288 328 327 357 335 366 362
530.0 383 417 464 543 603 686 628 606 526 491
570.0 469 454 269 289 333 245 243 224 234 199
610.0 212 161 149 186 214 232 216 251 191 187
650.0 237 274 250 285 269 316 330 315 265 218
690.0 223 233 216 256 261 294 308 329 342 335
730.0 343 322 306 301 288 267 270 271 251 275
770.0 252 304 264 315 445 472 402 471 499 572
810.0 567 626 743 967 1250 1366 1169 858 680 542
850.0 471 411 369 330 312 321 285 297 288 291
890.0 289 290 285 290 296 308 338 340 355 356
930.0 361 362 364 355 355 365 368 386 400 415
970.0 431 434 467 499 536 504 552 560 637 721
1010.0 946 1117 1112 1109 1138 1180 1168 1166 1109 1057
1050.0 997 925 840 777 750 679 620 535 493 423
1090.0 359 311 270 166 169 294 303 425 372 365
1130.0 349 342 355 321 333 343 372 410 484 614
1170.0 867 1422 2392 3147 2537 1477 908 749 711 753
1210.0 842 1010 1258 1610 2100 2677 3364 4112 4920 5370
1250.0 4984 3814 2700 2014 1632 1421 1315 1336 1453 1596
1290.0 1631 1528 1354 1191 1039 896 777 651 581 533
1330.0 507 492 475 511 561 626 696 780 841 938
1370.0 959 916 872 876 901 827 777 714 584 444
1410.0 397 370 342 359 349 393 433 531 620 694
1450.0 846 958 1170 1291 1372 1527 1605 1520 1286 1090
1490.0 999 1140 1388 1946 2844 4302 4719 3600 1924 998
1530.0 620 447 406 341 296 281 309 325 387 327
1570.0 395 423 527 477 503 512 597 742 899 1074
1610.0 1116 1145 886 652 429 361 281 280 204 247
1650.0 172 297 188 163 180 172 155 178 124 202
1690.0 133 148 169 180 139 135 142 137 149 137
1730.0 140 142 175 134 155 160 163 144 151 138
1770.0 128 159 124 134 110 135 112 116 100 116
1810.0 113 116 123 120 124 121 130 122 141 133
1850.0 137 140 145 147 153 153 163 158 158 152
1890.0 146 138 140 129 127 117 121 120 117 115
1930.0 120 115 117 112 121 127 129 125 132 128
1970.0 130 125 129 132 127 118 123 128 129 132
2010.0 139 149 151 167 177 189 197 199 199 205
2050.0 211 210 210 192 198 210 213 207 197 184
2090.0 168 150 135 132 128 122 119 118 117 118
2130.0 118 118 114 120 119 115 110 112 113 112
2170.0 116 112 111 108 114 113 113 119 114 116
2210.0 113 119 117 121 117 118 115 114 116 118
2250.0 116 120 121 124 123 124 126 129 130 125
2290.0 122 118 114 109 105 98 102 94 83 98
2330.0 107 105 116 131 122 132 92 123 148 182
2370.0 199 211 195 187 165 161 153 155 160 157
2410.0 159 156 163 164 163 163 161 159 163 158
2450.0 154 161 162 163 168 168 170 173 175 174
2490.0 179 178 175 175 181 181 181 188 189 198
2530.0 203 204 208 205 208 213 212 214 225 231
2570.0 239 242 235 229 224 213 209 203 193 188
2610.0 183 181 189 193 197 206 218 232 228 214
2650.0 212 219 237 249 271 292 313 327 312 318
2690.0 308 294 289 280 277 277 281 280 286 287
2730.0 299 295 309 314 323 330 325 325 319 313
2770.0 313 319 326 329 349 363 378 390 408 431
2810.0 454 481 515 554 592 640 712 805 948 1178
2850.0 1538 2144 2996 3788 4062 3899 3594 3293 3092 2916
2890.0 2764 2681 2777 3070 3558 4189 4827 5475 6378 7756
2930.0 9289 10000 9497 8392 7228 6393 5917 5966 6401 6889
2970.0 6677 5439 3870 2717 1969 1474 1142 922 764 677
3010.0 605 558 523 500 492 520 587 663 777 817
3050.0 735 606 545 529 513 527 487 443 420 417
3090.0 409 417 419 405 381 346 304 273 261 250
3130.0 250 232 207 183 165 165 149 146 151 152
3170.0 150 159 155 157 156 148 151 135 118 112
3210.0 120 101 100 90 85 91 100 106 114 107
3250.0 112 109 109 109 115 135 145 155 177 174
3290.0 179 185 189 185 186 200 193 192 202 184
3330.0 192 193 197 195 199 180 181 187 209 205
3370.0 195 194 192 202 201 215 186 198 207 201
3410.0 186 201 192 190 197 173 195 201 183 204
3450.0 196 177 176 177 176 171 175 170 163 164
3490.0 172 161 158 143 141 156 168 157 143 118
3530.0 138 154 137 147 134 155 158 122 119 138
3570.0 142 128 129 119 108 157 131 106 118 102
3610.0 151 155 137 136 135 147 165 135 161 133
3650.0 134 137 129 148 129 126 140 178 147 117
3690.0 138 162 117 138 144 158 141 126 111 106
3730.0 163 150 158 126 222 163 194 136 141 166
3770.0 135 114 122 163 144 171 117 153 129 225
3810.0 110 189 184 224 163 140 176 153 154 173
3850.0 149 219 191 139 174 192 222 176 176 168
3890.0 179 178 119 193 107 153 116 173 152 154
3930.0 198 161 110 114 139 190 237 201 164 181
##END=
