##TITLE=1-Propanol, dl-2-benzylamino-,
##JCAMP-DX=4.24
##DATA TYPE=INFRARED SPECTRUM
##ORIGIN=Sadtler Research Labs Under US-EPA Contract
##OWNER=NIST Standard Reference Data Program
##CAS REGISTRY NO=6940-81-4
##MOLFORM=C 10 H 15 N O
##XUNITS=1/CM
##YUNITS=ABSORBANCE
##XFACTOR=1.0
##YFACTOR=0.000045663
##DELTAX=4.0
##FIRSTX=450.0
##LASTX=3966.0
##FIRSTY=0.051234
##MAXX=3966
##MINX=450
##MAXY=0.45663
##MINY=0
##NPOINTS=880
##XYDATA=(X++(Y..Y))
450.0 1122 899 1223 1097 981 917 784 684 667 523
490.0 556 534 558 577 537 492 483 537 426 385
530.0 250 181 134 60 15 18 59 135 255 340
570.0 439 616 614 731 786 817 795 783 738 687
610.0 661 696 825 828 822 790 856 876 866 924
650.0 918 988 991 1258 1318 1856 2210 2522 3263 4251
690.0 6007 7288 8544 7984 7151 6187 5668 5477 5476 5759
730.0 6069 6434 6466 6266 5504 4601 3630 2776 2071 1499
770.0 1157 951 861 817 802 834 815 776 749 722
810.0 690 687 678 651 615 536 475 405 404 367
850.0 326 359 341 355 376 365 355 364 362 384
890.0 466 560 715 869 987 1050 1053 1010 983 946
930.0 911 845 774 711 660 639 685 787 951 1182
970.0 1445 1760 2070 2384 2608 2727 2725 2625 2563 2570
1010.0 2750 3129 3869 5218 6831 8048 8769 8728 8304 7844
1050.0 7300 6971 6828 6821 6709 6478 6137 5774 5569 5460
1090.0 5382 5128 4746 4324 3944 3688 3622 3663 3702 3813
1130.0 3915 4035 4123 4274 4463 4651 4656 4384 3823 3199
1170.0 2693 2344 2124 1997 2012 2166 2391 2575 2632 2552
1210.0 2387 2191 2004 1833 1680 1526 1413 1328 1278 1240
1250.0 1208 1181 1173 1184 1185 1220 1281 1372 1499 1655
1290.0 1813 1973 2127 2265 2379 2497 2641 2835 3072 3292
1330.0 3450 3548 3582 3460 3283 3124 3040 3019 3096 3244
1370.0 3576 3998 4263 4270 3983 3626 3386 3249 3088 2892
1410.0 2586 2253 2012 1822 1792 1938 2321 2940 3882 4813
1450.0 5761 6205 6366 6197 5919 5509 4816 3923 3010 2531
1490.0 2621 2810 2639 2084 1298 654 431 302 260 197
1530.0 173 141 136 125 118 99 110 117 139 142
1570.0 202 249 349 413 520 620 715 839 925 942
1610.0 765 580 378 269 223 208 235 273 344 440
1650.0 488 466 352 225 156 130 105 98 66 83
1690.0 37 55 78 113 99 94 128 130 111 89
1730.0 122 116 94 65 64 57 68 39 52 57
1770.0 86 106 110 152 182 288 385 461 459 384
1810.0 259 196 153 118 105 69 65 41 71 87
1850.0 106 131 175 209 239 270 267 262 234 192
1890.0 144 99 71 47 44 45 56 80 115 167
1930.0 217 288 348 394 413 415 396 339 241 151
1970.0 82 46 40 40 33 37 33 22 26 16
2010.0 13 7 9 7 11 22 30 39 46 58
2050.0 64 71 71 67 68 65 59 49 39 36
2090.0 25 24 24 30 27 23 23 24 20 11
2130.0 12 4 7 5 0 5 5 12 17 23
2170.0 19 26 20 21 18 13 14 8 4 1
2210.0 1 6 9 10 23 18 18 21 22 24
2250.0 24 15 18 22 26 31 38 61 82 104
2290.0 125 148 169 178 205 246 208 188 160 99
2330.0 103 96 94 135 166 186 153 103 107 94
2370.0 63 83 130 139 117 66 44 44 51 58
2410.0 47 54 56 48 47 43 46 44 48 52
2450.0 58 57 62 61 62 61 59 56 45 44
2490.0 38 42 47 53 56 71 82 85 98 107
2530.0 112 118 125 122 126 133 141 156 169 191
2570.0 206 219 236 250 267 279 281 290 292 294
2610.0 303 293 301 313 326 341 349 361 372 379
2650.0 394 397 409 416 421 427 441 450 470 490
2690.0 510 545 564 587 630 662 695 732 762 797
2730.0 824 849 863 883 906 938 974 1034 1106 1186
2770.0 1279 1394 1527 1693 1878 2100 2351 2636 2941 3256
2810.0 3565 3856 4163 4472 4776 5069 5373 5622 5813 5934
2850.0 5957 5980 6004 6133 6370 6753 7188 7554 7698 7549
2890.0 7215 6807 6512 6353 6372 6562 6937 7503 8202 8994
2930.0 9679 10000 9764 9126 8248 7465 7043 7105 7692 8619
2970.0 9392 9392 8647 7255 5710 4312 3139 2349 1916 1783
3010.0 1812 2012 2402 3062 3971 4835 5326 5229 4572 3741
3050.0 3102 2819 2964 3564 4705 5630 5756 5168 4039 3223
3090.0 2862 2513 2160 1796 1478 1231 1005 777 568 397
3130.0 280 214 164 138 124 123 135 140 151 166
3170.0 172 161 141 104 98 68 59 54 43 31
3210.0 23 22 12 15 17 19 16 17 19 15
3250.0 19 8 2 1 3 1 16 26 36 37
3290.0 51 62 63 62 58 56 56 49 72 79
3330.0 99 122 154 170 212 230 238 252 249 251
3370.0 240 237 221 208 208 201 205 224 216 220
3410.0 202 205 225 210 203 201 190 185 178 175
3450.0 174 172 184 223 208 205 219 207 193 179
3490.0 167 171 175 183 206 241 306 357 473 580
3530.0 734 939 1144 1279 1338 1284 1169 1074 946 883
3570.0 801 727 701 644 610 546 491 412 354 310
3610.0 303 273 247 238 233 270 261 286 342 397
3650.0 515 607 739 901 1032 1163 1179 1150 946 771
3690.0 532 345 240 156 76 53 15 0 0 0
3730.0 0 0 0 0 0 0 0 0 0 0
3770.0 0 0 0 0 0 0 0 0 0 0
3810.0 0 0 0 0 0 0 0 0 0 0
3850.0 0 0 0 0 0 0 0 0 0 0
3890.0 0 0 0 0 0 0 0 0 0 0
3930.0 0 0 0 0 0 0 0 0 0 0
##END=
