##TITLE=Benzoic acid, 2-bromo-5-fluoro-, methyl ester
##JCAMP-DX=4.24
##DATA TYPE=INFRARED SPECTRUM
##ORIGIN=Sadtler Research Labs Under US-EPA Contract
##OWNER=NIST Standard Reference Data Program
##CAS REGISTRY NO=6942-39-8
##MOLFORM=C 8 H 6 Br F O 2
##XUNITS=1/CM
##YUNITS=ABSORBANCE
##XFACTOR=1.0
##YFACTOR=0.000129648
##DELTAX=4.0
##FIRSTX=450.0
##LASTX=3966.0
##FIRSTY=0.000000
##MAXX=3966
##MINX=450
##MAXY=1.29648
##MINY=0
##NPOINTS=880
##XYDATA=(X++(Y..Y))
450.0 0 300 389 475 459 395 523 497 544 678
490.0 517 508 601 442 423 415 324 392 378 355
530.0 390 361 416 458 463 548 508 609 674 688
570.0 708 758 789 791 770 849 808 951 1103 1244
610.0 1438 1431 1328 1051 700 547 454 430 403 388
650.0 395 362 408 505 557 568 568 512 415 418
690.0 401 384 405 376 327 362 355 339 326 343
730.0 356 389 394 408 459 439 406 504 525 572
770.0 676 808 902 1004 1178 1518 1725 1517 1257 1270
810.0 1446 2235 2513 2145 1300 896 528 427 474 404
850.0 476 480 486 579 658 891 1085 1393 1683 1593
890.0 1271 993 849 801 744 669 593 513 477 440
930.0 454 424 400 405 395 431 396 437 467 547
970.0 725 969 1410 1924 2340 2394 2027 1464 961 708
1010.0 668 675 766 985 1544 2369 2872 2909 2274 1366
1050.0 858 695 638 624 646 706 785 934 1206 1650
1090.0 2262 2883 3253 3217 2774 2235 1853 1902 2338 2636
1130.0 2541 2028 1348 979 821 760 739 722 753 805
1170.0 926 1108 1383 1842 2529 3445 4608 5633 6334 6509
1210.0 5965 5069 4016 3195 2877 3246 4330 5993 7028 7163
1250.0 5849 4429 3904 4119 4343 4112 3847 4101 5006 6591
1290.0 8075 9595 10000 8632 6745 4472 2761 1787 1289 999
1330.0 876 795 774 753 694 700 674 677 709 663
1370.0 708 740 800 980 1152 1580 2170 2883 3378 3374
1410.0 2780 1957 1413 1161 1183 1721 2716 3829 4433 3814
1450.0 2735 2432 3013 3779 4425 4838 4480 3649 2619 1878
1490.0 1345 1033 865 739 714 665 659 612 603 576
1530.0 565 525 566 582 603 629 657 764 886 1004
1570.0 1308 1583 1817 2147 1881 1565 1185 1006 1018 1081
1610.0 983 860 677 566 588 559 608 557 518 518
1650.0 464 492 473 460 494 474 507 495 534 560
1690.0 558 579 671 704 807 902 1106 1399 1624 2022
1730.0 2419 2970 3978 4971 6020 6838 6702 6526 6058 5299
1770.0 4445 3492 2898 2267 1666 1318 996 812 739 589
1810.0 564 526 478 487 441 451 424 406 419 397
1850.0 404 377 387 406 393 439 427 467 495 507
1890.0 490 449 396 365 349 353 344 347 351 337
1930.0 344 336 344 356 345 351 346 358 358 370
1970.0 367 365 365 364 364 376 369 370 363 364
2010.0 364 364 364 367 354 354 345 344 334 334
2050.0 332 327 328 340 348 348 348 354 369 374
2090.0 379 379 379 379 382 388 387 384 380 367
2130.0 366 360 359 360 361 357 349 345 341 336
2170.0 333 328 328 329 329 333 329 328 327 323
2210.0 325 319 319 317 320 320 314 316 311 315
2250.0 316 315 315 315 312 311 308 308 309 309
2290.0 308 308 313 316 314 322 324 328 329 331
2330.0 328 326 334 328 340 331 342 330 348 340
2370.0 337 335 328 334 331 333 335 333 328 330
2410.0 330 327 326 328 324 325 321 320 321 324
2450.0 324 327 331 332 335 341 343 341 343 340
2490.0 340 341 339 342 341 341 339 332 334 331
2530.0 332 332 329 331 331 328 330 329 333 330
2570.0 331 328 325 325 324 321 321 320 323 325
2610.0 323 323 322 323 322 324 325 326 328 328
2650.0 327 327 326 327 324 322 324 325 323 324
2690.0 322 323 327 323 324 321 322 319 319 316
2730.0 314 316 314 313 317 313 313 315 314 319
2770.0 320 320 319 322 325 324 328 326 330 333
2810.0 333 339 345 353 367 384 407 432 461 496
2850.0 532 559 560 535 485 444 420 406 406 421
2890.0 436 467 494 516 531 535 541 537 530 521
2930.0 509 512 533 567 651 792 1125 1674 2025 2016
2970.0 1628 1073 741 628 594 597 606 633 674 699
3010.0 696 678 649 635 626 633 633 612 581 542
3050.0 510 487 466 457 453 457 496 544 587 595
3090.0 563 497 446 419 410 404 398 389 378 371
3130.0 368 362 357 357 352 351 351 351 350 350
3170.0 346 340 333 342 346 341 338 337 341 333
3210.0 337 329 326 329 332 328 327 325 326 332
3250.0 326 326 330 330 326 324 328 332 334 325
3290.0 328 331 331 336 329 326 328 328 328 328
3330.0 328 333 332 334 328 330 332 331 337 342
3370.0 334 332 335 331 335 330 326 326 333 333
3410.0 335 336 339 339 331 339 341 345 339 346
3450.0 348 353 362 361 364 367 379 377 373 365
3490.0 381 379 393 389 388 375 370 366 358 348
3530.0 347 348 338 339 341 345 331 332 341 348
3570.0 342 344 351 364 361 359 344 364 337 355
3610.0 340 344 348 332 347 331 351 356 365 351
3650.0 342 314 354 344 371 337 356 321 354 364
3690.0 329 358 364 368 364 354 356 365 367 354
3730.0 359 331 344 352 333 331 325 361 370 349
3770.0 358 342 373 348 356 363 350 346 339 327
3810.0 363 321 335 308 353 342 337 329 339 345
3850.0 337 321 308 346 339 341 348 348 357 324
3890.0 352 335 344 350 341 359 337 336 346 338
3930.0 347 353 367 339 335 328 331 362 341 351
##END=
