##TITLE=Ethanol, 2,2'-oxybis-, dipropanoate
##JCAMP-DX=4.24
##DATA TYPE=INFRARED SPECTRUM
##ORIGIN=Sadtler Research Labs Under US-EPA Contract
##OWNER=NIST Standard Reference Data Program
##CAS REGISTRY NO=6942-59-2
##MOLFORM=C 10 H 18 O 5
##XUNITS=1/CM
##YUNITS=ABSORBANCE
##XFACTOR=1.0
##YFACTOR=0.000116644
##DELTAX=4.0
##FIRSTX=450.0
##LASTX=3966.0
##FIRSTY=0.027295
##MAXX=3966
##MINX=450
##MAXY=1.16644
##MINY=0
##NPOINTS=880
##XYDATA=(X++(Y..Y))
450.0 234 121 150 106 81 79 51 96 151 126
490.0 92 98 125 148 164 146 121 130 125 155
530.0 134 157 133 147 134 133 121 121 120 108
570.0 125 96 106 100 85 107 94 111 95 101
610.0 110 111 90 110 88 77 58 48 42 33
650.0 36 30 35 21 36 21 24 25 20 12
690.0 10 8 7 19 11 4 15 12 18 3
730.0 13 25 22 17 26 39 38 36 49 45
770.0 55 69 78 88 109 128 153 178 227 250
810.0 271 283 280 272 271 286 291 317 344 376
850.0 409 445 469 482 480 462 437 412 395 367
890.0 358 353 345 343 335 327 315 307 316 351
930.0 400 447 475 490 479 444 397 359 340 353
970.0 402 478 567 661 751 817 833 821 784 743
1010.0 725 770 875 1024 1117 1102 1081 1138 1242 1344
1050.0 1445 1558 1734 1994 2329 2682 2995 3264 3570 3816
1090.0 3767 3397 2946 2592 2395 2310 2338 2480 2735 3126
1130.0 3655 4344 5119 5736 5836 5319 4522 3933 3808 4161
1170.0 5018 6316 7833 8997 9266 8617 7595 6612 5815 5235
1210.0 4700 4192 3683 3241 2875 2597 2396 2273 2226 2219
1250.0 2252 2269 2255 2221 2225 2264 2304 2305 2206 2033
1290.0 1807 1590 1376 1168 988 865 826 890 1044 1249
1330.0 1435 1585 1755 1949 2100 2099 1939 1722 1527 1359
1370.0 1233 1173 1132 1132 1166 1186 1115 947 745 598
1410.0 515 467 484 493 552 636 754 840 888 909
1450.0 957 1033 1157 1252 1356 1386 1209 884 598 463
1490.0 375 288 244 199 189 174 146 132 134 99
1530.0 95 78 85 92 76 61 61 77 62 45
1570.0 46 44 42 42 27 36 32 36 32 39
1610.0 43 42 61 44 61 43 65 63 61 67
1650.0 90 97 95 94 112 126 147 136 160 175
1690.0 178 197 254 300 357 420 541 674 804 982
1730.0 1282 1712 2315 3179 4452 6166 8327 10000 9987 8323
1770.0 6196 4499 3210 2341 1715 1305 989 765 589 462
1810.0 370 302 241 200 169 142 115 94 89 82
1850.0 68 57 55 52 53 56 47 46 48 47
1890.0 49 49 46 50 51 55 57 62 69 64
1930.0 69 70 70 78 76 72 70 67 65 65
1970.0 61 62 62 63 64 67 69 65 67 63
2010.0 65 65 67 69 66 66 65 67 67 67
2050.0 60 60 57 54 52 48 46 42 38 37
2090.0 39 35 34 31 29 27 26 24 24 24
2130.0 20 21 19 19 17 18 17 17 18 19
2170.0 21 19 22 23 23 23 24 22 21 19
2210.0 20 19 18 19 17 18 18 20 16 16
2250.0 11 14 14 14 14 14 14 15 16 17
2290.0 16 16 18 15 15 18 13 9 2 6
2330.0 8 2 3 7 1 18 1 9 2 11
2370.0 9 19 20 20 17 13 10 11 10 7
2410.0 5 4 6 4 7 3 6 6 5 4
2450.0 5 4 5 6 4 5 6 5 5 1
2490.0 4 3 1 3 1 2 3 4 2 4
2530.0 5 4 4 6 5 5 7 6 4 9
2570.0 3 5 5 8 9 7 9 8 9 10
2610.0 9 9 10 15 11 14 11 15 14 15
2650.0 13 13 14 15 15 13 14 17 16 17
2690.0 22 29 33 38 47 57 63 70 77 82
2730.0 89 96 98 102 106 109 112 117 117 116
2770.0 114 117 119 127 135 141 150 158 161 172
2810.0 181 199 219 241 261 281 304 325 363 422
2850.0 507 628 784 956 1122 1245 1312 1343 1366 1415
2890.0 1485 1553 1560 1506 1408 1316 1240 1185 1157 1162
2930.0 1211 1295 1423 1608 1894 2316 2722 2848 2646 2310
2970.0 2041 1925 1947 2099 2363 2526 2365 1925 1498 1178
3010.0 935 750 601 480 388 317 260 217 182 158
3050.0 136 117 102 89 83 75 71 66 61 59
3090.0 56 50 46 43 44 45 42 43 36 37
3130.0 34 31 30 31 33 32 32 29 30 26
3170.0 30 29 30 28 29 29 25 27 24 21
3210.0 22 18 15 15 14 9 13 10 8 7
3250.0 7 4 4 8 5 5 6 1 3 6
3290.0 9 6 9 3 6 8 8 10 8 5
3330.0 5 7 9 11 10 8 13 8 12 7
3370.0 8 7 9 4 8 9 4 8 7 7
3410.0 7 12 9 5 8 6 10 6 6 12
3450.0 10 8 11 12 14 16 20 30 34 46
3490.0 61 74 79 79 67 57 48 30 20 11
3530.0 21 12 9 4 10 6 5 12 15 32
3570.0 37 33 43 43 39 37 44 27 17 13
3610.0 14 8 16 19 17 28 26 20 20 17
3650.0 20 13 13 10 9 14 11 12 8 14
3690.0 10 5 4 5 5 5 3 10 5 7
3730.0 5 12 15 5 26 3 16 6 1 9
3770.0 11 10 7 16 10 0 10 17 6 10
3810.0 12 6 1 5 6 3 13 14 5 9
3850.0 6 10 12 9 3 4 1 6 1 7
3890.0 9 9 6 14 12 16 21 17 5 2
3930.0 6 10 10 11 14 9 18 11 22 13
##END=
