##TITLE=As-triazine-3,5(2H,4H)-dione, 2-methyl-,
##JCAMP-DX=4.24
##DATA TYPE=INFRARED SPECTRUM
##ORIGIN=Sadtler Research Labs Under US-EPA Contract
##OWNER=NIST Standard Reference Data Program
##CAS REGISTRY NO=6943-94-8
##MOLFORM=C 4 H 5 N 3 O 2
##XUNITS=1/CM
##YUNITS=ABSORBANCE
##XFACTOR=1.0
##YFACTOR=0.000135849
##DELTAX=4.0
##FIRSTX=450.0
##LASTX=3966.0
##FIRSTY=0.004347
##MAXX=3966
##MINX=450
##MAXY=1.35849
##MINY=0
##NPOINTS=880
##XYDATA=(X++(Y..Y))
450.0 32 30 73 77 184 373 392 414 383 358
490.0 287 152 100 116 125 176 164 181 244 254
530.0 231 200 216 173 127 97 81 83 54 52
570.0 39 40 35 37 36 55 32 58 81 86
610.0 87 94 134 130 128 146 207 255 321 392
650.0 488 574 692 710 612 446 372 294 231 176
690.0 95 89 78 115 162 200 224 222 219 220
730.0 193 183 236 291 366 616 640 460 435 351
770.0 269 191 134 98 69 69 59 50 33 40
810.0 38 37 48 43 49 40 55 44 66 71
850.0 85 112 135 166 162 323 304 148 149 114
890.0 76 44 10 11 4 4 0 8 7 6
930.0 6 15 27 30 50 90 153 232 316 359
970.0 382 420 470 472 450 444 418 390 339 258
1010.0 166 110 86 63 44 39 38 33 34 33
1050.0 34 35 44 60 95 127 130 95 52 42
1090.0 35 35 41 45 52 57 71 83 100 113
1130.0 129 152 171 195 204 198 184 178 183 206
1170.0 230 238 237 226 208 179 150 124 104 93
1210.0 103 120 156 211 268 320 367 432 481 480
1250.0 430 371 321 278 245 220 245 299 342 365
1290.0 390 395 385 363 374 420 482 569 657 753
1330.0 832 906 947 1017 1116 1190 1185 1060 955 870
1370.0 785 730 709 755 836 957 1012 1033 1046 1014
1410.0 932 826 710 630 566 517 466 380 311 254
1450.0 189 148 110 113 110 115 111 137 159 169
1490.0 186 216 227 230 217 196 213 200 196 192
1530.0 163 132 95 80 77 94 94 104 143 203
1570.0 239 275 301 318 322 289 276 253 230 190
1610.0 180 163 127 117 83 94 77 100 108 122
1650.0 121 142 173 209 259 303 382 446 497 509
1690.0 557 590 594 666 789 1021 1256 1783 2615 3969
1730.0 5557 7273 8679 9623 10000 9052 7603 6230 4474 3008
1770.0 2092 1586 1283 1081 957 822 721 580 459 348
1810.0 291 227 188 168 152 147 132 139 114 103
1850.0 87 78 58 48 48 33 40 34 40 31
1890.0 36 36 42 46 48 47 40 44 40 48
1930.0 46 51 49 44 46 43 43 34 36 28
1970.0 25 20 18 13 10 9 2 8 2 6
2010.0 2 4 4 3 4 2 5 0 3 0
2050.0 3 0 3 4 3 9 6 10 6 8
2090.0 4 7 6 6 7 8 11 8 9 11
2130.0 13 10 11 12 12 12 10 10 9 14
2170.0 11 12 12 14 14 11 13 10 13 10
2210.0 17 15 16 18 15 14 10 12 6 5
2250.0 3 1 0 4 3 1 4 3 8 8
2290.0 13 16 20 24 26 34 26 30 28 30
2330.0 27 27 17 28 33 30 33 22 45 27
2370.0 28 31 27 25 18 12 8 12 9 13
2410.0 9 11 7 10 10 13 15 14 16 19
2450.0 22 22 26 28 25 24 20 19 17 16
2490.0 12 13 12 10 10 9 12 11 14 11
2530.0 14 15 16 14 17 17 17 21 22 23
2570.0 24 26 25 24 26 17 18 13 15 13
2610.0 12 10 8 5 10 6 8 8 5 8
2650.0 8 8 6 8 9 6 8 8 12 8
2690.0 10 10 10 8 11 9 9 13 12 13
2730.0 11 14 16 17 20 20 22 21 24 22
2770.0 22 20 21 17 18 17 15 15 17 23
2810.0 19 20 23 24 26 26 25 21 24 19
2850.0 19 20 22 22 27 27 33 37 43 52
2890.0 57 65 71 79 80 82 87 89 92 98
2930.0 105 111 122 138 155 184 213 237 248 249
2970.0 240 217 187 155 126 106 91 77 65 57
3010.0 52 45 37 32 28 28 26 29 26 27
3050.0 28 31 32 32 34 35 38 40 45 47
3090.0 49 47 49 46 43 36 33 34 24 25
3130.0 21 21 17 16 15 17 15 16 17 12
3170.0 15 11 12 12 13 10 10 7 10 9
3210.0 4 10 5 7 11 6 7 4 10 5
3250.0 5 5 8 7 7 9 6 8 9 7
3290.0 10 10 8 13 9 9 13 12 15 13
3330.0 10 7 8 10 11 8 5 11 10 17
3370.0 12 14 15 17 21 26 37 65 98 159
3410.0 259 392 555 688 758 701 679 654 486 294
3450.0 181 123 98 97 103 100 97 94 95 82
3490.0 72 56 43 34 30 17 19 13 13 17
3530.0 19 15 12 11 12 14 16 9 10 14
3570.0 17 14 14 14 11 15 13 20 8 7
3610.0 9 19 12 17 14 12 7 11 14 4
3650.0 9 9 13 11 11 7 6 2 8 9
3690.0 4 6 7 4 0 8 12 6 5 3
3730.0 8 5 8 5 0 12 0 7 8 10
3770.0 3 7 5 4 7 7 5 5 2 3
3810.0 15 6 15 11 3 12 12 9 9 21
3850.0 10 12 3 15 10 17 14 17 10 13
3890.0 20 16 16 6 15 8 10 14 19 12
3930.0 15 16 7 15 9 13 21 21 15 11
##END=
