##TITLE=Anisole, m-(3-bromopropyl)-,
##JCAMP-DX=4.24
##DATA TYPE=INFRARED SPECTRUM
##ORIGIN=Sadtler Research Labs Under US-EPA Contract
##OWNER=NIST Standard Reference Data Program
##CAS REGISTRY NO=6943-97-1
##MOLFORM=C 10 H 13 Br O
##XUNITS=1/CM
##YUNITS=ABSORBANCE
##XFACTOR=1.0
##YFACTOR=0.000091870
##DELTAX=4.0
##FIRSTX=450.0
##LASTX=3966.0
##FIRSTY=0.046762
##MAXX=3966
##MINX=450
##MAXY=0.9187
##MINY=0
##NPOINTS=880
##XYDATA=(X++(Y..Y))
450.0 509 465 336 340 355 295 107 101 77 98
490.0 57 0 79 41 84 75 96 128 142 178
530.0 205 215 245 300 368 427 488 567 633 722
570.0 762 647 480 321 213 177 160 128 118 114
610.0 140 127 106 143 135 159 176 211 231 270
650.0 357 431 529 476 369 292 304 404 681 1129
690.0 1815 2192 2065 1384 840 533 449 439 412 413
730.0 414 458 495 522 534 546 616 776 1012 1322
770.0 1662 1969 2180 2285 2132 1676 1147 709 448 313
810.0 224 188 189 198 219 250 274 311 356 385
850.0 424 454 527 623 737 872 961 998 987 927
890.0 821 731 648 569 482 413 393 395 386 377
930.0 328 251 198 150 140 151 193 253 347 416
970.0 398 336 309 318 333 352 384 413 423 426
1010.0 431 463 517 641 849 1163 1613 2179 2789 3327
1050.0 3644 3677 3352 2682 1895 1287 968 852 815 778
1090.0 686 561 442 362 349 365 399 437 489 556
1130.0 636 758 992 1455 2264 3408 4462 4778 4223 3380
1170.0 2700 2107 1611 1274 1098 990 899 819 783 781
1210.0 784 799 882 1053 1296 1640 2125 2762 3507 4355
1250.0 5491 7059 8897 10000 9777 8389 6756 5475 4600 4091
1290.0 3810 3569 3283 2965 2654 2371 2059 1752 1461 1247
1330.0 1116 1047 1023 984 919 860 741 577 393 268
1370.0 213 201 208 201 218 205 221 268 326 414
1410.0 502 604 757 980 1370 2013 2781 3445 3641 3335
1450.0 2948 2808 2902 2914 2921 2990 3061 3271 3769 4760
1490.0 5198 4681 3355 2098 1320 885 657 527 475 418
1530.0 415 407 432 456 464 478 547 668 833 1079
1570.0 1486 2076 2918 3945 4769 5466 5857 6488 6863 6675
1610.0 5649 4239 2958 1886 1193 749 524 383 285 229
1650.0 202 170 134 108 101 95 104 86 113 129
1690.0 122 130 161 162 155 147 162 185 159 152
1730.0 148 154 118 113 120 123 121 118 116 103
1770.0 109 96 72 58 42 32 26 14 13 7
1810.0 8 14 15 29 39 50 49 50 59 61
1850.0 40 16 9 3 4 12 6 3 2 7
1890.0 13 15 21 35 52 78 103 118 121 97
1930.0 68 42 22 16 12 9 10 13 18 23
1970.0 23 26 27 32 30 35 38 38 40 40
2010.0 41 46 47 46 53 52 57 62 69 70
2050.0 70 69 66 67 72 71 70 74 71 74
2090.0 74 73 70 63 60 55 49 47 41 37
2130.0 35 29 29 34 33 36 40 41 40 45
2170.0 41 42 44 40 42 42 43 46 48 49
2210.0 46 44 39 32 29 23 17 12 10 10
2250.0 5 5 5 2 2 3 9 11 17 20
2290.0 23 32 41 49 53 61 52 62 71 56
2330.0 52 46 49 40 69 59 50 35 37 38
2370.0 48 41 48 52 44 34 33 33 35 40
2410.0 43 42 47 46 45 42 40 39 35 33
2450.0 35 34 32 34 33 34 34 37 38 41
2490.0 41 44 42 43 40 45 47 49 50 53
2530.0 54 58 56 55 56 58 58 60 58 60
2570.0 59 61 59 56 55 58 57 58 57 60
2610.0 62 59 58 53 51 51 53 52 54 55
2650.0 53 48 45 45 42 41 41 51 53 51
2690.0 52 53 55 57 60 66 72 73 74 73
2730.0 78 76 76 79 83 84 80 84 91 96
2770.0 107 117 122 136 150 168 176 187 204 218
2810.0 248 286 331 396 491 636 882 1259 1690 1938
2850.0 1881 1623 1417 1327 1294 1273 1236 1185 1149 1132
2890.0 1146 1212 1339 1518 1729 1924 2098 2240 2401 2555
2930.0 2711 2902 3299 3850 4327 4548 4393 4012 3430 2953
2970.0 2641 2381 2087 1749 1486 1360 1410 1610 1977 2364
3010.0 2485 2289 1867 1534 1363 1314 1341 1350 1321 1298
3050.0 1296 1297 1293 1254 1193 1151 1145 1144 1090 967
3090.0 825 678 555 473 420 367 313 250 195 151
3130.0 128 105 92 80 79 78 69 63 59 54
3170.0 56 44 43 43 37 35 33 36 34 31
3210.0 29 26 32 27 25 19 24 24 17 22
3250.0 25 25 20 20 22 26 22 20 20 20
3290.0 20 20 18 17 20 14 15 12 13 17
3330.0 16 13 15 13 14 19 15 13 13 16
3370.0 13 12 13 19 12 10 12 10 11 13
3410.0 8 9 6 2 4 14 13 14 6 7
3450.0 12 12 10 15 20 9 16 12 12 8
3490.0 10 13 19 9 12 14 11 9 6 9
3530.0 14 14 16 10 10 13 16 15 14 19
3570.0 31 25 20 25 31 31 27 13 15 5
3610.0 13 11 8 6 7 13 15 6 17 11
3650.0 17 16 19 15 8 15 10 11 4 5
3690.0 5 10 11 2 6 10 11 13 6 9
3730.0 11 11 17 19 15 23 23 4 19 21
3770.0 8 15 10 12 4 9 1 6 6 3
3810.0 23 23 6 2 7 2 2 4 2 2
3850.0 13 10 8 2 9 2 20 9 19 5
3890.0 2 13 16 12 20 23 12 13 14 21
3930.0 12 2 5 4 18 9 2 2 5 9
##END=
