##TITLE=N-(.alpha.-Methylbenzyl)-formamide
##JCAMP-DX=4.24
##DATA TYPE=INFRARED SPECTRUM
##ORIGIN=Sadtler Research Labs Under US-EPA Contract
##OWNER=NIST Standard Reference Data Program
##CAS REGISTRY NO=6948-01-2
##MOLFORM=C 9 H 11 N O
##XUNITS=1/CM
##YUNITS=ABSORBANCE
##XFACTOR=1.0
##YFACTOR=0.000113943
##DELTAX=4.0
##FIRSTX=450.0
##LASTX=3966.0
##FIRSTY=0.006723
##MAXX=3966
##MINX=450
##MAXY=1.13943
##MINY=0
##NPOINTS=880
##XYDATA=(X++(Y..Y))
450.0 59 39 86 124 139 229 290 301 350 363
490.0 357 332 372 366 387 393 386 395 402 429
530.0 459 484 471 434 381 335 284 275 256 271
570.0 261 259 278 276 299 291 288 313 304 281
610.0 254 237 216 189 149 146 133 113 111 91
650.0 95 96 85 97 126 208 241 299 467 649
690.0 902 1074 1198 1088 905 692 522 422 346 317
730.0 302 307 317 356 408 495 580 625 600 508
770.0 379 271 176 113 72 45 38 27 28 20
810.0 22 20 21 29 30 39 34 52 45 37
850.0 33 37 33 31 28 21 21 20 20 16
890.0 6 15 16 21 31 37 40 38 34 41
930.0 38 41 38 38 40 42 43 40 52 51
970.0 58 65 63 68 77 82 85 101 124 166
1010.0 218 286 331 327 297 226 159 103 91 93
1050.0 107 130 126 127 137 148 157 169 169 167
1090.0 156 142 137 132 131 128 121 125 134 152
1130.0 178 206 235 265 299 348 428 571 815 1178
1170.0 1607 1895 1934 1787 1467 1106 930 922 995 1055
1210.0 1054 961 798 632 528 479 457 466 487 522
1250.0 551 575 571 544 503 457 422 390 370 352
1290.0 343 328 301 274 241 212 193 188 174 168
1330.0 159 153 157 152 151 157 177 204 249 303
1370.0 379 489 564 613 624 576 478 400 321 291
1410.0 275 286 337 386 456 563 719 928 1201 1430
1450.0 1618 1691 1778 1833 2062 2562 3050 3373 3243 2989
1490.0 2358 1768 1299 948 707 495 362 282 241 180
1530.0 152 126 124 116 90 66 67 81 70 41
1570.0 51 51 69 61 91 103 137 165 180 174
1610.0 143 125 82 62 39 43 29 57 30 64
1650.0 61 123 93 112 159 181 245 298 394 500
1690.0 614 773 1002 1306 1729 2525 3846 6046 8126 9294
1730.0 10000 8670 6430 4434 2717 1714 1106 815 554 421
1770.0 299 232 161 145 133 129 133 117 111 76
1810.0 65 49 37 36 34 33 22 18 22 25
1850.0 20 22 27 29 42 46 45 43 50 43
1890.0 46 38 29 24 26 30 30 38 34 36
1930.0 36 45 50 54 58 55 59 54 46 36
1970.0 22 11 7 3 0 8 3 4 0 5
2010.0 0 3 1 1 1 2 6 3 11 7
2050.0 10 13 15 14 16 16 14 11 7 7
2090.0 1 4 4 4 4 3 5 1 2 1
2130.0 5 0 1 2 2 3 3 8 9 12
2170.0 12 12 13 14 17 16 18 18 17 18
2210.0 18 19 19 18 21 21 22 24 26 29
2250.0 32 34 38 41 45 47 51 56 60 65
2290.0 74 84 97 100 110 131 124 122 125 113
2330.0 108 113 87 123 120 131 158 125 151 117
2370.0 107 90 93 87 54 27 11 11 6 12
2410.0 4 8 8 5 8 8 9 10 11 9
2450.0 9 10 12 11 10 11 12 15 11 16
2490.0 12 13 15 15 15 13 19 18 14 14
2530.0 16 17 18 18 18 20 20 22 20 21
2570.0 21 24 24 21 21 21 28 22 27 23
2610.0 29 28 30 29 34 33 35 40 37 41
2650.0 41 44 43 39 43 41 42 43 44 44
2690.0 49 48 53 54 59 61 73 82 97 117
2730.0 150 211 282 373 449 476 451 386 307 233
2770.0 185 150 131 116 110 111 116 127 138 161
2810.0 194 250 339 485 687 958 1253 1494 1596 1528
2850.0 1325 1077 868 715 620 569 532 498 465 431
2890.0 398 383 371 374 375 383 399 419 457 507
2930.0 561 598 608 587 547 502 464 454 478 535
2970.0 622 716 824 936 992 957 815 628 430 289
3010.0 231 227 260 320 407 518 614 665 655 599
3050.0 508 433 415 469 583 695 746 731 658 538
3090.0 444 396 358 323 291 249 209 171 129 94
3130.0 65 50 40 37 35 35 35 33 40 34
3170.0 38 34 32 25 21 26 24 27 25 27
3210.0 21 24 21 19 19 16 16 15 17 16
3250.0 13 11 12 9 8 9 13 13 10 13
3290.0 11 10 5 11 9 11 15 9 12 11
3330.0 9 4 11 8 8 10 14 10 13 19
3370.0 14 16 19 24 28 38 43 47 56 71
3410.0 87 111 135 165 186 210 236 259 292 330
3450.0 362 389 377 338 282 201 143 101 79 55
3490.0 45 36 28 27 29 21 22 20 17 11
3530.0 7 15 13 21 12 13 14 6 22 15
3570.0 12 22 17 14 18 21 21 13 21 7
3610.0 26 13 20 16 9 31 15 23 22 19
3650.0 28 16 39 16 21 28 18 28 11 29
3690.0 10 21 10 20 17 14 19 18 7 15
3730.0 21 19 6 30 10 32 21 5 16 19
3770.0 11 8 13 3 6 9 19 5 23 7
3810.0 27 8 24 23 11 13 21 10 12 14
3850.0 4 38 15 5 12 13 8 6 25 14
3890.0 28 14 24 10 9 17 25 16 22 15
3930.0 20 21 16 14 14 26 16 20 25 23
##END=
