##TITLE=Cyclohexane, ethenyl-
##JCAMP-DX=4.24
##DATA TYPE=INFRARED SPECTRUM
##ORIGIN=Sadtler Research Labs Under US-EPA Contract
##OWNER=NIST Standard Reference Data Program
##CAS REGISTRY NO=695-12-5
##MOLFORM=C 8 H 14
##XUNITS=1/CM
##YUNITS=ABSORBANCE
##XFACTOR=1.0
##YFACTOR=0.000144080
##DELTAX=4.0
##FIRSTX=450.0
##LASTX=3966.0
##FIRSTY=0.000000
##MAXX=3966
##MINX=450
##MAXY=1.4408
##MINY=0
##NPOINTS=880
##XYDATA=(X++(Y..Y))
450.0 0 35 38 47 34 22 31 38 27 61
490.0 47 44 40 55 42 36 35 28 40 36
530.0 33 31 49 40 40 34 47 44 56 46
570.0 43 32 38 39 36 35 33 39 38 43
610.0 57 53 61 59 74 80 99 114 126 150
650.0 181 200 181 174 173 134 107 82 62 56
690.0 54 52 57 49 48 39 36 31 37 38
730.0 34 37 31 31 35 32 30 32 35 36
770.0 35 40 46 49 43 41 42 35 34 33
810.0 36 40 40 45 60 79 103 120 130 129
850.0 125 110 109 112 118 134 170 224 299 392
890.0 424 505 630 753 895 977 1024 1011 870 678
930.0 509 376 281 229 200 179 161 163 165 170
970.0 184 213 269 352 454 536 564 621 507 398
1010.0 321 266 214 184 162 144 131 116 110 103
1050.0 98 95 93 88 83 77 71 66 62 63
1090.0 63 69 69 69 72 70 69 66 62 61
1130.0 63 64 70 74 77 75 72 71 67 65
1170.0 61 58 57 58 59 59 61 59 56 52
1210.0 47 47 49 53 67 82 91 96 102 108
1250.0 109 113 117 119 123 119 107 94 85 82
1290.0 85 86 91 91 85 79 75 70 67 65
1330.0 66 71 79 96 117 122 124 112 97 81
1370.0 69 60 58 58 56 58 63 71 88 110
1410.0 135 164 175 194 203 221 260 358 501 620
1450.0 680 832 797 606 475 347 231 148 96 62
1490.0 44 41 33 28 22 16 18 17 17 18
1530.0 17 21 23 23 26 33 38 40 50 53
1570.0 53 49 48 40 40 36 38 38 42 47
1610.0 57 72 93 136 204 314 417 496 534 516
1650.0 441 318 192 110 71 58 47 46 41 51
1690.0 71 94 97 104 98 72 59 54 56 57
1730.0 55 54 56 55 53 47 44 41 36 37
1770.0 34 34 36 32 32 30 30 30 32 39
1810.0 48 61 85 108 125 129 126 112 85 60
1850.0 42 33 28 26 23 21 23 22 22 23
1890.0 24 22 21 22 23 22 21 19 17 19
1930.0 20 18 19 19 19 20 22 22 25 25
1970.0 29 31 31 31 30 26 26 24 24 23
2010.0 21 20 20 20 20 20 20 21 19 21
2050.0 21 21 21 20 20 21 22 23 23 21
2090.0 22 22 22 22 23 21 21 21 21 21
2130.0 22 22 21 21 21 21 23 24 24 24
2170.0 26 27 28 28 28 28 25 26 26 26
2210.0 26 27 25 27 29 28 28 31 28 26
2250.0 26 26 23 23 21 23 23 23 24 23
2290.0 25 25 25 25 24 24 25 24 26 27
2330.0 30 31 27 27 30 34 37 34 27 28
2370.0 25 27 25 25 27 30 29 29 31 27
2410.0 26 27 25 24 25 23 22 22 20 21
2450.0 21 21 22 21 21 23 24 27 28 28
2490.0 27 27 25 24 23 23 26 27 30 30
2530.0 30 31 28 29 28 30 30 33 33 34
2570.0 38 40 41 43 45 45 49 51 53 53
2610.0 53 53 55 55 58 58 59 63 67 73
2650.0 82 95 107 119 126 128 128 118 107 98
2690.0 89 81 78 77 75 72 70 67 64 61
2730.0 59 57 54 53 55 52 54 56 55 61
2770.0 70 78 87 98 109 120 131 141 145 148
2810.0 149 150 149 154 166 197 264 398 634 1030
2850.0 1621 2325 2923 3254 3251 2908 2388 1782 1308 1032
2890.0 918 950 1092 1324 1715 2289 2931 3775 5003 6531
2930.0 8561 10000 9263 8144 7452 5299 3373 1894 1020 638
2970.0 511 491 513 565 549 541 555 557 560 537
3010.0 488 420 349 271 189 148 134 129 131 139
3050.0 144 159 178 207 245 300 394 530 659 731
3090.0 684 614 502 338 185 108 79 64 58 56
3130.0 51 51 50 51 54 54 56 55 53 49
3170.0 43 38 33 32 28 31 29 31 32 33
3210.0 34 33 32 33 35 32 32 32 29 27
3250.0 28 26 29 33 30 30 33 30 30 31
3290.0 29 28 28 29 27 30 30 32 32 33
3330.0 33 34 32 33 34 34 31 29 29 26
3370.0 31 32 30 29 28 30 29 31 28 26
3410.0 31 30 34 32 36 32 30 31 33 35
3450.0 33 36 36 36 32 33 35 29 31 29
3490.0 29 28 25 23 25 26 25 21 25 21
3530.0 21 24 23 23 21 24 24 24 25 22
3570.0 24 27 27 26 29 27 26 27 23 20
3610.0 22 27 30 26 31 35 35 38 41 36
3650.0 34 31 34 36 32 27 30 27 28 35
3690.0 35 30 34 37 32 33 36 34 39 41
3730.0 34 35 35 36 40 42 44 33 40 34
3770.0 34 36 33 39 39 42 35 39 32 31
3810.0 42 33 34 36 39 34 29 35 38 40
3850.0 39 41 38 39 38 36 32 36 36 36
3890.0 33 34 37 32 33 38 34 33 40 38
3930.0 37 43 42 45 42 35 44 47 48 56
##END=
