##TITLE=Aniline, p-isopropyl-N-methyl-,
##JCAMP-DX=4.24
##DATA TYPE=INFRARED SPECTRUM
##ORIGIN=Sadtler Research Labs Under US-EPA Contract
##OWNER=NIST Standard Reference Data Program
##CAS REGISTRY NO=6950-79-4
##MOLFORM=C 10 H 15 N
##XUNITS=1/CM
##YUNITS=ABSORBANCE
##XFACTOR=1.0
##YFACTOR=0.000103470
##DELTAX=4.0
##FIRSTX=450.0
##LASTX=3966.0
##FIRSTY=0.051528
##MAXX=3966
##MINX=450
##MAXY=1.0347
##MINY=0
##NPOINTS=880
##XYDATA=(X++(Y..Y))
450.0 498 498 497 468 445 442 470 444 523 549
490.0 506 413 465 478 456 542 648 662 703 763
530.0 855 853 963 960 1001 1001 857 787 692 543
570.0 540 478 476 469 463 494 420 465 477 477
610.0 470 467 477 429 539 348 374 436 429 452
650.0 478 447 448 408 440 381 383 355 344 312
690.0 268 258 232 211 184 174 184 186 209 214
730.0 253 263 295 358 339 281 257 204 173 157
770.0 142 155 169 202 223 244 342 498 709 1063
810.0 1506 1968 2321 2279 1879 1438 974 637 428 295
850.0 224 161 125 101 75 75 64 57 72 68
890.0 69 48 45 25 18 26 24 35 41 44
930.0 31 24 19 16 7 10 12 11 12 32
970.0 60 96 109 84 45 4 5 9 20 57
1010.0 82 106 110 88 82 107 141 216 344 498
1050.0 631 697 667 554 463 395 351 338 329 328
1090.0 336 363 410 495 533 544 506 448 411 392
1130.0 409 448 512 597 715 791 811 774 686 560
1170.0 482 501 707 1349 1687 1680 1344 632 285 256
1210.0 248 273 277 298 294 343 409 536 770 1207
1250.0 1900 2647 3016 2855 2204 1495 1224 1362 1729 2153
1290.0 2352 2327 2146 2139 2484 2838 2871 2556 2038 1556
1330.0 1240 1021 867 824 831 823 794 743 682 670
1370.0 657 604 589 631 634 636 610 569 584 569
1410.0 504 425 294 305 330 415 450 513 589 656
1450.0 771 905 1020 1127 1187 1212 1224 1364 1631 1839
1490.0 1832 1741 1549 1618 2153 3462 5801 8787 10000 9014
1530.0 6360 3247 1600 975 703 559 425 298 279 286
1570.0 304 334 392 430 487 528 630 810 1150 1656
1610.0 2382 3303 3878 3830 3185 2166 1315 869 638 433
1650.0 273 195 172 154 145 138 118 152 116 120
1690.0 142 203 238 487 982 1343 1269 776 368 263
1730.0 189 148 171 167 144 107 99 76 66 67
1770.0 48 46 55 49 48 46 36 44 36 57
1810.0 57 59 65 65 65 62 77 89 88 90
1850.0 120 153 175 193 188 168 162 135 113 94
1890.0 74 71 65 62 58 57 53 53 50 55
1930.0 55 55 52 44 46 48 52 47 42 36
1970.0 41 41 40 35 38 27 24 22 21 16
2010.0 15 11 5 6 4 1 6 1 1 4
2050.0 1 8 9 18 24 38 49 55 56 55
2090.0 54 54 53 54 54 61 61 62 57 60
2130.0 57 56 48 43 38 38 36 31 30 27
2170.0 26 25 25 22 23 26 25 24 22 26
2210.0 26 27 25 26 25 22 24 22 23 24
2250.0 25 29 32 31 30 32 29 29 29 33
2290.0 39 47 62 65 80 84 94 109 129 103
2330.0 103 93 68 63 19 53 137 110 55 0
2370.0 1 1 1 1 1 1 3 14 15 19
2410.0 20 21 17 17 12 10 12 12 10 10
2450.0 6 9 9 9 13 12 13 9 5 3
2490.0 4 2 1 4 4 1 5 11 14 20
2530.0 26 27 28 34 42 48 51 54 64 71
2570.0 80 82 76 81 77 71 72 71 64 53
2610.0 45 46 46 42 44 49 43 38 48 40
2650.0 40 40 48 60 69 87 87 101 94 88
2690.0 75 62 56 55 59 69 79 96 116 120
2730.0 131 128 130 131 135 134 138 150 164 171
2770.0 189 196 209 227 246 275 319 377 450 565
2810.0 742 959 1177 1309 1300 1168 1006 866 777 763
2850.0 771 803 870 1017 1242 1596 2043 2474 2742 2839
2890.0 2833 2832 2874 2885 2862 2786 2686 2607 2567 2606
2930.0 2725 2928 3133 3248 3229 3248 3538 4731 6609 7747
2970.0 8108 6660 4981 3761 2832 2240 1741 1339 1116 1075
3010.0 1162 1352 1645 1814 1761 1508 1152 943 943 995
3050.0 1057 1080 1045 982 908 832 747 648 542 460
3090.0 402 368 349 341 335 304 272 240 213 192
3130.0 170 146 141 134 124 120 109 104 96 103
3170.0 91 90 95 90 88 85 92 80 80 74
3210.0 70 71 75 55 49 51 46 48 30 31
3250.0 27 17 14 20 10 26 26 23 33 28
3290.0 40 21 12 19 19 12 18 9 4 3
3330.0 15 16 19 13 16 7 18 18 17 18
3370.0 20 10 21 36 35 35 34 39 52 51
3410.0 53 67 67 90 98 135 193 265 348 432
3450.0 491 485 425 354 261 189 152 124 99 98
3490.0 83 74 64 72 62 50 39 55 28 44
3530.0 37 32 39 39 23 55 56 29 33 31
3570.0 23 32 53 48 51 34 42 28 30 35
3610.0 44 39 43 47 35 40 29 41 34 40
3650.0 38 27 51 42 62 50 42 42 44 39
3690.0 40 38 31 21 23 27 19 28 36 19
3730.0 32 32 24 30 31 16 22 17 29 36
3770.0 26 25 36 46 34 35 35 27 9 28
3810.0 30 29 25 38 61 39 27 37 50 35
3850.0 54 49 12 34 35 36 46 10 23 50
3890.0 48 35 69 21 10 30 35 30 54 37
3930.0 61 42 43 28 22 33 83 62 19 24
##END=
