##TITLE=1-(2-Bromoethoxy)-2,4-dichlorobenzene
##JCAMP-DX=4.24
##DATA TYPE=INFRARED SPECTRUM
##ORIGIN=Sadtler Research Labs Under US-EPA Contract
##OWNER=NIST Standard Reference Data Program
##CAS REGISTRY NO=6954-77-4
##MOLFORM=C 8 H 7 Br Cl 2 O
##XUNITS=1/CM
##YUNITS=ABSORBANCE
##XFACTOR=1.0
##YFACTOR=0.000152887
##DELTAX=4.0
##FIRSTX=450.0
##LASTX=3966.0
##FIRSTY=0.008256
##MAXX=3966
##MINX=450
##MAXY=1.52887
##MINY=0
##NPOINTS=880
##XYDATA=(X++(Y..Y))
450.0 54 70 40 35 66 34 39 21 0 33
490.0 7 2 17 33 69 86 120 113 105 81
530.0 73 66 62 72 98 165 253 415 556 586
570.0 565 495 419 363 292 221 164 93 69 56
610.0 64 83 132 121 147 202 298 424 587 646
650.0 703 733 553 451 454 633 657 532 369 314
690.0 343 444 557 625 663 703 755 780 847 991
730.0 1121 1153 1087 1022 1014 1089 1163 1112 888 642
770.0 513 449 430 457 535 684 932 1298 1666 1855
810.0 1896 1802 1554 1266 1029 855 758 693 682 667
850.0 639 584 598 768 1087 1355 1233 784 438 242
890.0 165 144 129 124 120 120 122 132 143 162
930.0 187 213 235 253 257 263 281 302 329 339
970.0 351 384 454 579 788 1085 1502 1997 2495 2853
1010.0 2844 2469 1950 1546 1269 1058 837 668 663 776
1050.0 1036 1526 2310 3070 3241 2849 2282 1758 1316 1058
1090.0 1054 1459 2465 3734 4107 3257 2113 1382 1019 817
1130.0 696 635 598 571 527 490 443 409 395 406
1170.0 435 488 548 576 600 640 692 767 913 1204
1210.0 1724 2401 2803 2716 2504 2572 2884 3331 3972 4806
1250.0 5629 6037 5971 5440 4647 3882 3499 3508 3645 3623
1290.0 3269 2818 2329 1766 1249 862 608 444 329 267
1330.0 236 223 244 245 248 273 319 384 470 577
1370.0 771 1073 1294 1360 1352 1199 899 626 448 382
1410.0 382 429 624 887 1178 1402 1517 1482 1492 1579
1450.0 1889 2302 2775 3242 4019 5410 7410 9858 10000 9074
1490.0 6106 4061 2682 1830 1306 903 614 433 348 244
1530.0 208 168 163 174 155 142 181 275 351 460
1570.0 583 665 749 814 768 659 489 343 217 141
1610.0 97 66 74 47 58 30 51 53 40 44
1650.0 63 57 30 21 22 23 38 10 42 50
1690.0 30 27 67 69 62 52 75 112 92 99
1730.0 136 191 183 175 156 129 86 66 58 38
1770.0 49 45 24 27 24 27 34 31 42 23
1810.0 22 21 11 18 24 34 35 39 66 87
1850.0 78 66 66 59 65 76 62 60 55 51
1890.0 46 36 29 25 21 23 23 27 31 22
1930.0 18 18 22 31 30 26 27 30 26 30
1970.0 28 29 31 34 35 45 44 42 44 43
2010.0 39 42 42 39 35 35 32 34 30 25
2050.0 23 22 20 19 22 21 22 23 24 24
2090.0 26 23 22 21 18 19 19 20 18 20
2130.0 20 19 17 12 9 7 5 5 4 6
2170.0 6 7 7 7 9 7 11 10 12 15
2210.0 17 13 15 15 13 16 15 11 8 5
2250.0 4 5 5 5 4 7 8 10 9 12
2290.0 16 20 24 25 28 31 28 29 31 29
2330.0 27 22 22 24 12 20 22 13 16 7
2370.0 5 5 1 4 2 0 0 0 0 0
2410.0 2 3 5 5 8 9 13 13 16 18
2450.0 19 19 19 22 24 23 25 25 27 31
2490.0 33 36 40 46 51 58 64 72 76 75
2530.0 77 78 74 66 57 48 38 29 23 17
2570.0 10 10 7 6 5 3 4 3 5 5
2610.0 6 7 8 7 9 9 11 15 12 17
2650.0 19 21 24 27 26 27 25 23 20 19
2690.0 21 18 17 18 21 21 25 29 34 40
2730.0 48 56 60 58 54 50 46 40 36 34
2770.0 33 33 33 34 38 42 47 51 63 73
2810.0 84 92 101 101 102 104 107 115 128 143
2850.0 156 179 207 244 291 337 373 388 383 368
2890.0 359 367 365 343 312 308 328 351 372 382
2930.0 398 418 450 480 492 481 460 449 456 491
2970.0 539 567 571 553 527 483 389 277 196 150
3010.0 133 139 154 168 176 183 184 171 147 129
3050.0 108 101 102 111 136 173 211 226 211 173
3090.0 143 116 98 80 70 53 45 39 32 29
3130.0 29 27 26 25 28 29 26 22 17 16
3170.0 17 16 15 13 13 9 10 9 12 7
3210.0 6 9 9 8 5 8 9 9 9 6
3250.0 5 8 7 8 6 8 6 4 5 4
3290.0 6 7 3 5 5 4 3 6 7 9
3330.0 1 3 5 5 2 0 4 11 9 4
3370.0 5 5 4 6 2 2 6 7 6 3
3410.0 4 5 4 5 2 1 2 2 5 1
3450.0 6 2 4 3 5 5 5 2 6 1
3490.0 2 5 3 4 6 7 4 5 4 3
3530.0 5 6 4 5 11 6 6 6 3 5
3570.0 2 4 16 10 9 12 10 12 8 12
3610.0 10 11 16 13 12 16 15 21 17 13
3650.0 10 12 12 13 13 13 8 3 9 12
3690.0 13 10 7 6 5 4 10 8 16 13
3730.0 5 7 9 12 13 12 4 7 10 12
3770.0 12 16 5 6 9 10 15 13 10 4
3810.0 3 5 13 3 13 10 5 1 7 9
3850.0 4 3 7 2 16 16 9 19 12 11
3890.0 8 16 17 21 16 20 20 24 27 25
3930.0 16 17 30 25 27 27 20 17 19 17
##END=
