##TITLE=3-Hexanone, 4-(3,4,5-trimethoxyphenyl)-,
##JCAMP-DX=4.24
##DATA TYPE=INFRARED SPECTRUM
##ORIGIN=Sadtler Research Labs Under US-EPA Contract
##OWNER=NIST Standard Reference Data Program
##CAS REGISTRY NO=6955-40-4
##MOLFORM=C 15 H 22 O 4
##XUNITS=1/CM
##YUNITS=ABSORBANCE
##XFACTOR=1.0
##YFACTOR=0.000045258
##DELTAX=4.0
##FIRSTX=450.0
##LASTX=3966.0
##FIRSTY=0.032721
##MAXX=3966
##MINX=450
##MAXY=0.45258
##MINY=0
##NPOINTS=880
##XYDATA=(X++(Y..Y))
450.0 723 402 510 203 358 510 341 398 72 246
490.0 253 118 131 182 149 223 191 285 229 277
530.0 290 160 238 106 158 219 85 146 67 105
570.0 167 48 96 60 101 143 36 112 6 95
610.0 128 71 173 103 132 208 154 261 288 369
650.0 464 437 515 398 449 400 317 400 308 258
690.0 288 227 224 169 187 129 131 178 194 250
730.0 302 322 372 381 400 320 349 408 475 538
770.0 768 893 946 797 658 523 401 438 434 476
810.0 552 613 720 771 846 952 986 977 930 807
850.0 752 661 620 524 501 514 433 415 391 361
890.0 419 394 423 357 332 369 366 446 534 606
930.0 669 637 637 613 661 775 860 971 1014 1031
970.0 1048 1028 1065 1094 1147 1254 1367 1655 2102 2863
1010.0 3930 4942 5310 4586 3587 2996 2876 3060 3162 2955
1050.0 2463 2004 1810 1810 1932 2199 2549 3048 3600 4281
1090.0 5027 5761 6550 7326 8157 8937 9490 9945 10000 9815
1130.0 9417 8671 7970 6890 5700 4674 3802 3205 2778 2431
1170.0 2281 2201 2268 2396 2462 2428 2251 2104 2036 2124
1210.0 2430 2824 3377 3969 4741 5654 6647 7501 7729 7281
1250.0 6321 5236 4266 3467 2905 2519 2275 2119 1996 1936
1290.0 1979 2100 2328 2569 2895 3253 3808 4586 5575 6436
1330.0 6767 6545 5639 4519 3674 2981 2393 2003 1642 1413
1370.0 1336 1345 1467 1640 1625 1597 1561 1733 2210 2936
1410.0 4099 5379 6135 6262 5552 4947 4583 4033 3335 3045
1450.0 3549 4311 5204 5596 5640 5483 5007 4702 4994 5786
1490.0 6993 7898 8187 7492 6507 4624 3317 2510 1848 1560
1530.0 1211 1257 1124 1331 1155 1268 1464 1770 2485 2632
1570.0 3933 4980 5781 7004 5997 5290 4298 3440 2991 2335
1610.0 1818 1334 1110 857 702 666 602 612 537 493
1650.0 556 586 466 468 479 631 462 645 596 882
1690.0 751 910 1291 1480 1928 2661 3540 5355 6245 6048
1730.0 4651 2952 1789 1219 987 800 651 559 440 348
1770.0 320 307 226 192 195 146 131 199 50 126
1810.0 89 64 116 59 135 60 82 56 59 117
1850.0 52 87 77 47 85 78 80 52 52 56
1890.0 93 81 56 67 81 66 83 84 72 70
1930.0 73 77 85 115 132 136 160 166 178 188
1970.0 198 195 201 154 155 150 152 177 142 195
2010.0 204 223 254 229 232 224 180 170 155 134
2050.0 140 104 121 113 128 139 135 141 101 108
2090.0 102 88 73 76 87 77 100 101 68 88
2130.0 84 79 90 90 100 89 106 114 101 111
2170.0 117 114 99 136 119 111 98 105 96 110
2210.0 97 78 99 103 115 135 115 142 124 135
2250.0 130 152 127 104 125 112 84 95 86 80
2290.0 59 36 34 32 17 1 27 37 37 48
2330.0 55 63 67 19 65 78 32 104 121 86
2370.0 126 64 45 66 65 61 48 73 98 92
2410.0 81 82 87 82 83 82 81 87 98 117
2450.0 93 108 83 96 83 109 115 117 119 122
2490.0 120 94 118 104 99 52 78 80 96 85
2530.0 93 93 93 107 140 136 130 164 134 151
2570.0 167 156 148 153 148 153 169 162 143 141
2610.0 152 152 147 153 140 158 147 151 166 164
2650.0 154 150 160 141 155 140 158 148 146 148
2690.0 171 173 175 183 192 209 210 210 222 222
2730.0 245 245 257 255 249 268 259 248 251 272
2770.0 257 258 316 330 358 402 408 445 505 568
2810.0 666 759 871 1042 1298 1765 2426 2981 3165 2973
2850.0 2599 2262 2014 1952 2062 2239 2563 2998 3491 3777
2890.0 3827 3710 3591 3459 3434 3489 3621 3770 4006 4361
2930.0 4895 5698 6842 8027 8749 8451 7390 6454 6123 6471
2970.0 6946 7056 6638 5929 5279 4726 4349 4271 4342 4290
3010.0 3809 2983 2223 1734 1467 1262 1147 1068 1014 973
3050.0 935 935 906 879 844 815 775 732 677 630
3090.0 594 536 508 477 445 396 373 355 329 300
3130.0 289 281 259 245 220 220 198 189 170 164
3170.0 176 156 156 154 161 143 135 138 142 116
3210.0 120 124 110 90 101 110 108 113 111 121
3250.0 115 110 115 106 117 127 127 116 112 112
3290.0 112 126 124 123 131 140 139 131 117 137
3330.0 138 129 138 141 131 146 139 140 150 167
3370.0 173 157 165 164 161 166 182 187 172 170
3410.0 188 195 202 212 240 207 191 179 168 171
3450.0 146 164 118 146 146 164 123 132 135 124
3490.0 105 128 120 95 100 139 124 126 110 84
3530.0 101 116 106 140 112 104 150 118 102 109
3570.0 87 127 105 136 89 105 75 49 89 64
3610.0 100 53 141 62 119 50 107 54 59 55
3650.0 165 94 127 49 49 128 113 170 68 96
3690.0 115 165 0 101 81 91 87 81 38 57
3730.0 69 149 129 54 258 89 262 29 75 64
3770.0 63 80 42 95 71 46 107 116 190 111
3810.0 111 106 118 226 105 89 107 144 179 114
3850.0 139 225 182 118 50 147 55 81 132 234
3890.0 140 216 67 167 110 128 130 102 243 144
3930.0 203 105 150 158 185 159 249 212 155 220
##END=
