##TITLE=3-Hexanone, 4-(p-tolyl)-,
##JCAMP-DX=4.24
##DATA TYPE=INFRARED SPECTRUM
##ORIGIN=Sadtler Research Labs Under US-EPA Contract
##OWNER=NIST Standard Reference Data Program
##CAS REGISTRY NO=6957-06-8
##MOLFORM=C 13 H 18 O
##XUNITS=1/CM
##YUNITS=ABSORBANCE
##XFACTOR=1.0
##YFACTOR=0.000055164
##DELTAX=4.0
##FIRSTX=450.0
##LASTX=3966.0
##FIRSTY=0.026865
##MAXX=3966
##MINX=450
##MAXY=0.55164
##MINY=0
##NPOINTS=880
##XYDATA=(X++(Y..Y))
450.0 487 327 228 366 213 184 167 6 166 12
490.0 328 1037 430 461 346 171 263 209 540 741
530.0 1140 1515 1616 1697 1170 819 854 453 569 299
570.0 213 255 233 332 223 306 253 206 305 168
610.0 177 205 153 229 168 251 219 166 208 199
650.0 148 211 182 196 164 252 275 243 183 49
690.0 108 182 142 176 252 246 361 448 537 596
730.0 540 506 440 464 559 507 583 498 534 563
770.0 603 657 689 834 1026 1210 1601 2150 2683 3140
810.0 3081 2580 1843 1167 742 529 564 406 417 447
850.0 341 351 522 343 558 549 451 274 310 404
890.0 372 519 655 621 734 849 695 574 409 315
930.0 395 386 309 280 309 279 430 519 521 604
970.0 723 734 863 944 978 929 867 724 701 777
1010.0 984 1397 1832 1965 1713 1282 880 782 694 690
1050.0 672 653 689 708 740 800 836 997 1124 1276
1090.0 1384 1430 1531 1639 1662 1766 1791 1889 1976 2129
1130.0 2240 2214 2026 1797 1596 1467 1386 1338 1238 1142
1170.0 994 870 840 883 899 838 777 693 607 624
1210.0 654 666 702 722 739 687 684 679 684 688
1250.0 694 707 722 791 916 834 824 727 719 783
1290.0 735 749 695 751 791 911 938 1004 1099 1197
1330.0 1453 1705 1946 2150 2209 2101 1851 1597 1345 1183
1370.0 1085 1146 1305 1505 1568 1385 1094 907 822 804
1410.0 976 1095 1271 1298 1266 1185 1117 1110 1121 1239
1450.0 1510 1682 2125 2352 2383 2192 1845 1370 1110 947
1490.0 914 942 1197 1548 2252 3442 3602 3220 2148 1161
1530.0 723 526 424 362 333 301 283 230 221 257
1570.0 277 269 284 292 265 275 248 263 306 330
1610.0 336 297 376 294 342 305 334 335 366 394
1650.0 304 331 326 360 335 363 466 609 702 852
1690.0 1047 1227 1485 1886 2437 3522 4947 7244 9425 10000
1730.0 9847 6433 3830 2177 1162 893 672 530 491 397
1770.0 379 339 329 332 356 383 359 306 242 178
1810.0 140 127 110 95 84 83 92 81 85 88
1850.0 79 77 81 88 83 109 114 138 156 183
1890.0 231 279 303 275 223 138 110 93 95 76
1930.0 72 62 49 43 51 48 45 38 45 35
1970.0 32 22 14 22 28 31 28 31 27 29
2010.0 11 14 20 11 16 12 10 12 6 18
2050.0 11 7 13 8 13 14 0 18 9 16
2090.0 6 13 13 5 11 11 0 12 10 13
2130.0 3 2 6 1 13 8 15 14 2 6
2170.0 8 11 11 1 11 15 7 10 11 9
2210.0 12 1 12 9 7 4 8 10 9 17
2250.0 13 5 16 5 14 19 13 17 18 31
2290.0 35 45 42 38 38 38 33 46 11 15
2330.0 3 0 0 0 0 10 0 2 0 19
2370.0 5 1 21 26 36 37 39 43 41 49
2410.0 57 51 52 48 42 38 37 35 42 41
2450.0 39 33 36 29 39 41 39 40 38 32
2490.0 30 23 28 26 22 28 21 24 26 27
2530.0 27 28 26 22 28 32 26 32 33 33
2570.0 37 36 37 50 59 64 70 69 67 54
2610.0 52 44 44 47 45 51 44 48 44 42
2650.0 41 50 58 50 50 57 61 64 59 56
2690.0 72 69 72 75 75 83 89 95 106 114
2730.0 138 171 221 270 288 282 241 204 182 158
2770.0 162 161 172 190 197 221 247 265 283 304
2810.0 329 358 384 417 448 486 535 580 648 730
2850.0 838 982 1186 1465 1840 2337 2983 3775 4536 4968
2890.0 4922 4534 4042 3714 3574 3582 3704 3934 4330 4918
2930.0 5736 6504 6966 7109 6883 6376 5797 5361 5469 6381
2970.0 7607 8397 8188 7443 6360 5217 4197 3363 2882 2681
3010.0 2632 2701 2900 3282 3564 3447 2941 2294 1929 1885
3050.0 1922 1948 1833 1626 1389 1183 1037 945 893 858
3090.0 839 799 706 612 516 434 390 355 348 334
3130.0 326 318 292 261 222 189 169 156 128 113
3170.0 117 108 105 104 96 95 94 72 63 68
3210.0 65 68 59 70 48 61 48 44 46 38
3250.0 34 43 28 44 32 22 44 29 17 26
3290.0 34 30 30 43 48 37 31 31 29 31
3330.0 42 43 31 33 40 47 33 34 40 42
3370.0 48 43 64 53 46 62 75 64 69 68
3410.0 79 117 117 142 155 169 186 178 133 100
3450.0 82 71 66 59 44 47 40 43 45 36
3490.0 45 45 40 28 34 43 41 27 40 59
3530.0 39 69 35 27 44 23 34 29 48 49
3570.0 49 51 53 20 72 63 65 49 35 52
3610.0 70 76 49 75 53 58 69 75 68 106
3650.0 66 88 54 104 88 95 87 9 79 66
3690.0 71 40 76 25 47 34 51 41 55 36
3730.0 48 42 55 80 4 69 8 76 12 69
3770.0 59 55 63 50 35 68 41 45 15 41
3810.0 16 26 15 52 49 1 28 13 26 65
3850.0 0 41 53 23 39 72 31 34 16 3
3890.0 74 26 72 7 27 42 0 26 35 50
3930.0 13 91 54 59 40 0 22 4 75 53
##END=
