##TITLE=Cyclohexanol, 1-(2-methylphenyl)-
##JCAMP-DX=4.24
##DATA TYPE=INFRARED SPECTRUM
##ORIGIN=Sadtler Research Labs Under US-EPA Contract
##OWNER=NIST Standard Reference Data Program
##CAS REGISTRY NO=6957-09-1
##MOLFORM=C 13 H 18 O
##XUNITS=1/CM
##YUNITS=ABSORBANCE
##XFACTOR=1.0
##YFACTOR=0.000126315
##DELTAX=4.0
##FIRSTX=450.0
##LASTX=3966.0
##FIRSTY=0.056210
##MAXX=3966
##MINX=450
##MAXY=1.26315
##MINY=0
##NPOINTS=880
##XYDATA=(X++(Y..Y))
450.0 445 268 311 296 240 112 122 89 52 147
490.0 233 213 149 195 119 64 165 206 140 133
530.0 135 139 101 132 141 189 258 252 162 138
570.0 146 36 45 79 54 30 42 97 29 9
610.0 78 60 61 44 44 124 216 322 313 210
650.0 141 107 131 90 89 131 120 102 45 74
690.0 90 93 114 146 137 293 467 760 1031 1169
730.0 1070 863 1051 1080 1631 2381 2853 1872 1300 729
770.0 334 254 161 154 155 127 125 93 107 75
810.0 86 132 91 157 197 240 285 320 327 407
850.0 444 436 357 267 170 98 87 59 95 119
890.0 202 272 331 424 435 412 343 296 308 290
930.0 328 314 328 370 433 623 847 1139 1415 1505
970.0 1458 1242 886 627 411 351 298 336 352 443
1010.0 589 661 677 652 616 618 662 673 695 724
1050.0 727 707 667 598 540 485 410 344 310 295
1090.0 309 337 391 439 508 564 622 661 712 745
1130.0 771 756 739 704 668 647 617 583 585 559
1170.0 539 517 487 476 466 453 459 476 480 475
1210.0 429 395 374 348 361 367 377 400 435 510
1250.0 575 641 653 639 626 615 612 635 640 650
1290.0 687 702 708 688 635 584 538 516 493 493
1330.0 513 532 598 650 716 743 722 663 596 547
1370.0 481 441 426 457 457 438 396 315 287 258
1410.0 259 259 304 334 398 466 582 777 958 1161
1450.0 1332 1440 1344 1268 1131 1000 932 890 881 878
1490.0 803 660 492 354 272 227 147 132 98 85
1530.0 70 57 81 55 62 25 10 42 46 55
1570.0 57 62 87 75 81 97 153 158 202 198
1610.0 119 124 65 55 36 37 15 8 2 5
1650.0 36 45 56 26 51 35 49 60 77 115
1690.0 152 167 219 218 183 145 125 141 128 113
1730.0 118 129 132 89 142 123 144 138 180 194
1770.0 236 263 270 284 277 260 265 215 192 165
1810.0 118 103 87 92 94 75 48 31 23 23
1850.0 17 1 6 19 21 37 27 33 25 36
1890.0 36 53 65 86 100 101 82 66 54 58
1930.0 58 70 93 94 89 57 41 26 18 20
1970.0 7 11 11 12 9 12 12 11 7 5
2010.0 11 8 7 2 9 5 4 5 8 12
2050.0 3 3 8 11 5 8 9 5 10 7
2090.0 6 12 10 11 12 14 9 10 3 9
2130.0 9 10 10 7 5 11 12 12 14 16
2170.0 20 16 15 8 14 17 12 16 16 20
2210.0 21 17 21 20 20 20 18 20 19 18
2250.0 20 20 17 20 19 21 23 25 22 20
2290.0 24 17 16 17 14 13 15 19 18 20
2330.0 21 25 23 27 26 17 0 10 22 15
2370.0 31 25 26 21 18 14 8 13 14 15
2410.0 17 16 19 16 14 17 14 14 11 6
2450.0 6 5 7 10 13 13 17 17 18 18
2490.0 21 18 15 20 19 20 17 17 14 15
2530.0 15 13 10 12 12 15 14 16 20 22
2570.0 25 25 32 31 33 33 32 38 42 39
2610.0 46 45 46 48 45 47 50 54 57 61
2650.0 71 79 91 102 111 115 110 106 96 85
2690.0 78 70 70 72 70 67 70 69 69 69
2730.0 68 74 79 88 90 94 91 94 96 94
2770.0 99 109 116 122 135 148 158 169 178 187
2810.0 200 212 228 253 281 326 396 500 671 903
2850.0 1220 1688 2252 2739 3015 2991 2763 2425 2096 1835
2890.0 1678 1631 1662 1761 1923 2149 2474 3008 3818 4958
2930.0 6330 7840 9259 10000 9464 8062 6059 4155 2969 2305
2970.0 1900 1645 1425 1233 1085 949 858 795 753 757
3010.0 820 949 1109 1239 1277 1207 1048 879 776 745
3050.0 795 924 1139 1408 1602 1618 1427 1098 783 562
3090.0 451 401 394 399 397 365 317 254 196 155
3130.0 139 131 129 126 121 112 93 81 66 61
3170.0 47 52 46 45 45 36 31 38 35 35
3210.0 27 26 30 22 28 18 25 25 18 19
3250.0 16 15 21 20 22 20 17 20 20 15
3290.0 12 14 11 13 15 17 20 17 11 21
3330.0 21 19 21 13 16 24 23 25 33 29
3370.0 28 22 31 28 25 27 30 28 28 28
3410.0 21 25 25 32 35 37 28 29 32 27
3450.0 36 31 30 30 31 24 32 18 23 18
3490.0 19 16 9 21 6 22 17 26 15 21
3530.0 20 26 20 22 23 42 35 40 39 81
3570.0 85 117 106 93 61 62 36 31 46 40
3610.0 67 94 143 230 310 382 415 376 314 255
3650.0 226 161 115 70 62 57 29 44 21 7
3690.0 24 32 20 25 9 15 20 26 0 23
3730.0 3 12 24 10 48 5 33 0 22 9
3770.0 19 13 15 20 16 18 16 7 23 35
3810.0 47 28 13 31 24 24 36 52 34 19
3850.0 35 44 66 31 46 45 35 57 31 50
3890.0 39 47 44 57 33 34 37 59 58 9
3930.0 32 19 47 31 54 44 55 48 36 13
##END=
