##TITLE=Benzene, 1-iodo-4-methoxy-
##JCAMP-DX=4.24
##DATA TYPE=INFRARED SPECTRUM
##ORIGIN=Sadtler Research Labs Under US-EPA Contract
##OWNER=NIST Standard Reference Data Program
##CAS REGISTRY NO=696-62-8
##MOLFORM=C 7 H 7 I O
##XUNITS=1/CM
##YUNITS=ABSORBANCE
##XFACTOR=1.0
##YFACTOR=0.000115378
##DELTAX=4.0
##FIRSTX=450.0
##LASTX=3966.0
##FIRSTY=0.038882
##MAXX=3966
##MINX=450
##MAXY=1.15378
##MINY=0
##NPOINTS=880
##XYDATA=(X++(Y..Y))
450.0 337 133 106 23 111 166 104 130 158 255
490.0 325 341 448 460 424 360 325 315 271 314
530.0 269 199 175 156 164 154 116 173 201 214
570.0 251 475 785 1037 1273 1118 850 585 368 338
610.0 254 194 209 144 147 120 91 87 49 63
650.0 13 13 46 31 106 47 25 49 56 67
690.0 73 81 118 77 115 111 69 80 61 22
730.0 38 44 6 6 89 110 43 90 60 94
770.0 93 115 165 192 262 371 466 642 769 982
810.0 1253 1427 1706 1871 1702 1431 1200 870 583 373
850.0 222 151 98 69 82 69 60 67 47 44
890.0 67 53 45 49 30 40 39 45 55 63
930.0 39 41 50 66 88 81 62 83 116 90
970.0 98 162 194 225 322 507 860 1341 1666 1638
1010.0 1215 843 799 964 1281 1631 1983 2193 2130 1794
1050.0 1372 1091 1020 956 824 585 367 315 314 309
1090.0 329 322 342 355 346 338 318 283 216 176
1130.0 156 137 136 151 183 223 273 398 629 1293
1170.0 2324 2864 2854 2058 1273 875 612 498 479 484
1210.0 592 713 987 1381 1978 2907 4528 6973 9293 10000
1250.0 8096 5077 3252 2741 2786 3154 3902 4558 4920 4496
1290.0 3285 2157 1346 945 706 534 460 402 373 322
1330.0 276 278 232 208 182 188 187 175 180 179
1370.0 172 165 171 157 170 223 225 245 242 231
1410.0 225 260 293 384 371 450 475 658 996 1084
1450.0 1189 1127 1176 1383 1622 1925 2501 3670 5978 8626
1490.0 8851 6784 3303 1248 861 591 453 407 334 287
1530.0 246 244 243 278 272 295 399 589 731 876
1570.0 1054 1231 1400 1608 1777 1948 1755 1352 840 519
1610.0 334 254 218 207 194 180 171 148 132 126
1650.0 100 165 71 75 64 83 43 77 48 77
1690.0 44 63 74 77 64 44 55 93 78 51
1730.0 54 85 90 104 109 101 90 68 67 68
1770.0 64 81 62 22 51 42 52 35 39 52
1810.0 53 73 69 73 98 78 86 85 95 108
1850.0 117 115 124 145 159 170 148 138 129 106
1890.0 93 79 57 42 43 31 36 35 22 13
1930.0 21 19 20 19 26 28 49 55 55 47
1970.0 38 31 30 29 27 28 27 35 36 48
2010.0 59 76 97 116 139 146 145 139 127 137
2050.0 141 153 170 178 176 169 148 131 101 81
2090.0 61 49 36 33 32 29 26 20 19 17
2130.0 9 10 9 4 11 9 14 15 11 12
2170.0 13 13 14 12 9 12 8 14 16 11
2210.0 10 9 13 4 7 6 12 20 15 10
2250.0 16 23 37 40 55 61 68 74 64 58
2290.0 62 56 59 66 64 63 65 51 49 56
2330.0 54 44 52 55 90 83 105 89 98 101
2370.0 72 70 69 67 52 32 30 19 24 25
2410.0 31 35 31 27 25 24 17 21 19 20
2450.0 25 28 25 27 33 34 34 40 45 52
2490.0 52 50 51 53 57 66 79 88 90 97
2530.0 93 81 76 66 60 56 44 41 41 37
2570.0 33 31 34 31 27 27 25 25 23 24
2610.0 26 27 26 26 26 22 30 30 32 31
2650.0 29 29 25 26 23 22 20 22 22 19
2690.0 21 23 24 22 20 23 21 22 23 31
2730.0 28 25 29 33 33 37 36 41 43 41
2770.0 45 48 60 57 65 78 83 98 114 129
2810.0 153 171 194 204 236 287 366 535 750 898
2850.0 906 767 576 433 354 301 277 253 250 252
2890.0 280 313 365 426 509 594 652 678 673 671
2930.0 690 746 859 1042 1235 1325 1278 1154 1008 904
2970.0 768 655 546 469 415 383 395 476 627 905
3010.0 1196 1217 1007 650 397 313 287 259 244 229
3050.0 215 206 196 209 241 309 387 438 435 408
3090.0 379 376 351 303 231 165 126 95 76 65
3130.0 65 61 67 68 52 48 50 40 36 40
3170.0 38 46 46 34 32 30 27 34 24 36
3210.0 36 29 20 32 29 27 28 21 28 26
3250.0 34 20 26 23 30 26 28 22 18 21
3290.0 23 28 29 29 35 31 26 27 22 27
3330.0 24 20 17 34 22 24 27 23 15 27
3370.0 22 19 28 19 29 13 13 27 12 21
3410.0 19 33 25 25 28 21 37 27 23 28
3450.0 19 24 23 24 37 34 29 21 28 21
3490.0 28 25 22 26 14 18 24 23 34 32
3530.0 30 31 12 20 23 13 28 10 29 20
3570.0 41 28 25 12 28 20 20 25 18 34
3610.0 21 23 15 26 33 47 30 34 20 27
3650.0 53 46 22 24 32 28 74 28 35 9
3690.0 53 52 25 37 26 41 33 27 39 25
3730.0 52 54 9 38 16 71 21 56 4 6
3770.0 13 29 27 12 16 19 5 37 5 22
3810.0 20 30 21 67 45 26 40 39 20 57
3850.0 10 51 32 43 61 32 68 66 48 42
3890.0 47 29 25 34 18 4 32 72 26 52
3930.0 51 24 47 0 58 13 21 32 31 75
##END=
