##TITLE=trans-1,2-Cyclopropanedicarboxylic acid
##JCAMP-DX=4.24
##DATA TYPE=INFRARED SPECTRUM
##ORIGIN=Sadtler Research Labs Under US-EPA Contract
##OWNER=NIST Standard Reference Data Program
##CAS REGISTRY NO=696-75-3
##MOLFORM=C 5 H 6 O 4
##XUNITS=1/CM
##YUNITS=ABSORBANCE
##XFACTOR=1.0
##YFACTOR=0.000120755
##DELTAX=4.0
##FIRSTX=450.0
##LASTX=3966.0
##FIRSTY=0.026566
##MAXX=3966
##MINX=450
##MAXY=1.20755
##MINY=0
##NPOINTS=880
##XYDATA=(X++(Y..Y))
450.0 220 166 247 286 326 370 372 362 306 285
490.0 263 218 207 223 254 301 325 372 405 486
530.0 546 657 732 843 987 1150 1386 1615 1885 2087
570.0 2271 2318 2396 2437 2398 2255 1977 1717 1468 1471
610.0 1555 1585 1506 1502 1130 759 558 448 339 259
650.0 196 135 108 69 80 47 22 18 24 16
690.0 17 20 9 16 20 39 57 101 146 211
730.0 275 352 383 412 386 364 328 274 227 189
770.0 168 153 156 166 172 180 178 192 206 228
810.0 263 324 360 385 412 431 426 412 375 305
850.0 247 188 134 101 92 95 97 117 129 150
890.0 164 175 186 193 188 183 198 232 286 375
930.0 507 641 749 798 816 725 594 489 394 310
970.0 232 184 153 144 145 158 183 210 255 321
1010.0 444 582 666 695 698 603 474 394 373 386
1050.0 425 495 579 629 641 659 688 755 873 1094
1090.0 1334 1572 1901 2411 3115 3814 4359 5031 5774 6799
1130.0 8041 9101 9483 9306 8225 6352 4791 3753 3093 2768
1170.0 2698 2681 2613 2475 2217 1915 1669 1454 1271 1112
1210.0 969 854 761 695 648 610 578 559 550 558
1250.0 572 599 634 673 716 762 812 840 863 874
1290.0 877 894 929 990 1073 1169 1262 1329 1338 1307
1330.0 1248 1168 1102 1089 1130 1206 1303 1407 1511 1610
1370.0 1740 1911 2074 2226 2307 2301 2161 1943 1723 1582
1410.0 1517 1504 1498 1427 1297 1106 923 766 657 600
1450.0 575 569 570 541 487 429 363 289 232 193
1490.0 161 141 126 118 116 115 101 98 98 104
1530.0 108 114 123 129 144 147 158 162 169 174
1570.0 180 185 187 187 184 186 182 187 192 199
1610.0 208 211 213 205 204 199 206 215 224 243
1650.0 260 287 316 354 393 446 492 570 639 732
1690.0 824 938 1061 1197 1327 1440 1561 1666 1768 1838
1730.0 1907 1982 2120 2402 2897 3682 4800 6224 7641 8895
1770.0 9731 10000 9317 8394 6891 5377 3776 2548 1707 1230
1810.0 957 816 727 654 589 484 403 323 267 208
1850.0 166 129 100 85 74 69 60 65 60 59
1890.0 56 57 49 40 37 32 30 24 27 26
1930.0 33 36 44 51 52 52 47 40 30 27
1970.0 19 19 16 15 17 16 16 16 19 18
2010.0 20 20 21 19 18 16 11 11 8 9
2050.0 7 7 6 7 6 8 12 14 15 16
2090.0 20 18 19 17 16 19 22 24 24 26
2130.0 20 18 13 10 7 5 3 3 1 0
2170.0 0 1 0 1 2 4 6 4 9 8
2210.0 7 11 9 14 14 18 19 23 31 30
2250.0 33 34 34 30 34 32 34 37 37 40
2290.0 43 49 56 62 65 73 69 66 72 60
2330.0 60 59 55 60 83 75 93 81 84 76
2370.0 82 79 88 87 77 62 57 58 59 62
2410.0 60 58 60 59 63 64 69 67 74 74
2450.0 75 78 78 80 81 84 86 87 92 95
2490.0 95 97 95 96 97 100 100 103 104 102
2530.0 104 104 105 103 103 105 107 104 104 105
2570.0 104 107 108 107 109 109 111 109 107 110
2610.0 108 109 109 109 106 105 107 106 106 106
2650.0 106 106 103 104 102 103 103 104 101 100
2690.0 101 102 104 103 105 105 108 111 110 114
2730.0 115 112 112 110 110 113 111 114 114 114
2770.0 114 121 120 122 125 129 128 133 136 136
2810.0 139 141 145 151 151 156 159 161 166 169
2850.0 173 178 180 185 188 191 196 200 204 210
2890.0 216 221 225 229 231 232 231 232 232 238
2930.0 241 243 244 249 251 251 253 255 260 260
2970.0 263 267 273 278 283 287 291 297 300 305
3010.0 311 325 344 360 377 387 387 383 368 355
3050.0 341 328 322 324 329 337 345 346 345 341
3090.0 339 328 326 326 330 334 330 332 330 328
3130.0 325 324 323 323 324 321 319 320 316 317
3170.0 314 315 314 310 311 309 305 308 305 307
3210.0 304 304 303 304 300 299 300 294 288 286
3250.0 286 284 279 276 275 271 270 265 262 260
3290.0 251 250 246 245 239 234 234 235 227 225
3330.0 219 218 215 210 208 201 198 195 190 188
3370.0 181 176 168 166 164 157 156 154 149 141
3410.0 146 140 134 131 131 123 120 119 118 115
3450.0 111 104 101 102 93 93 83 74 81 74
3490.0 67 64 71 77 78 73 86 87 100 114
3530.0 99 103 99 100 96 99 113 207 418 1071
3570.0 2425 3467 3797 4125 3754 2449 1305 752 321 147
3610.0 100 72 80 69 72 78 74 47 47 53
3650.0 64 41 27 17 7 22 35 37 19 18
3690.0 38 33 27 31 34 31 46 25 31 39
3730.0 33 48 44 47 48 66 29 39 25 22
3770.0 27 16 26 28 23 17 21 23 42 27
3810.0 22 22 41 42 31 31 39 42 43 22
3850.0 28 64 43 29 48 46 40 28 59 32
3890.0 48 32 43 52 52 30 29 48 40 41
3930.0 33 45 21 35 37 46 39 36 44 30
##END=
