##TITLE=Benzenamine, N,3-dimethyl-
##JCAMP-DX=4.24
##DATA TYPE=INFRARED SPECTRUM
##ORIGIN=Sadtler Research Labs Under US-EPA Contract
##OWNER=NIST Standard Reference Data Program
##CAS REGISTRY NO=696-44-6
##MOLFORM=C 8 H 11 N
##XUNITS=1/CM
##YUNITS=ABSORBANCE
##XFACTOR=1.0
##YFACTOR=0.000108243
##DELTAX=4.0
##FIRSTX=450.0
##LASTX=3966.0
##FIRSTY=0.025112
##MAXX=3966
##MINX=450
##MAXY=1.08243
##MINY=0
##NPOINTS=880
##XYDATA=(X++(Y..Y))
450.0 232 390 367 362 424 443 420 508 549 625
490.0 531 586 566 553 588 583 608 611 663 660
530.0 679 633 566 514 492 446 420 378 325 298
570.0 265 237 187 227 313 403 367 247 334 380
610.0 409 443 472 473 503 503 518 504 518 510
650.0 517 520 526 559 572 775 942 1185 1330 1829
690.0 2375 1904 1596 1382 1092 844 626 527 458 402
730.0 384 372 435 504 738 1114 1597 2070 2587 3626
770.0 3504 2473 2047 1503 990 585 357 251 189 180
810.0 157 154 166 218 311 434 547 728 1009 845
850.0 720 682 632 546 391 338 273 247 218 233
890.0 277 332 367 390 442 429 380 310 244 150
930.0 64 18 0 8 10 17 21 43 46 52
970.0 74 99 145 219 350 416 441 430 364 211
1010.0 104 61 37 29 32 50 69 110 161 202
1050.0 258 330 408 479 550 581 600 591 591 593
1090.0 564 526 504 447 349 283 246 233 234 251
1130.0 276 333 415 549 724 904 1056 1238 1525 1746
1170.0 2011 2404 2577 2304 2001 1567 940 529 362 285
1210.0 243 186 150 124 126 127 160 218 321 471
1250.0 687 1007 1356 1631 1775 1822 1705 1455 1268 1282
1290.0 1517 1951 2425 2752 3066 3492 3672 3610 3457 3161
1330.0 2608 1868 1202 824 615 462 364 315 286 303
1370.0 325 349 418 477 545 585 622 667 800 928
1410.0 1087 1268 1304 1346 1298 1184 985 892 897 903
1450.0 916 950 966 1116 1387 1664 2028 2623 3283 4070
1490.0 4425 4968 5197 5797 5863 5738 5857 5233 4586 3389
1530.0 2794 2139 1731 1425 1205 1070 871 782 772 890
1570.0 1054 1373 1857 2707 3514 4755 5695 7681 8642 9887
1610.0 10000 8664 7728 5696 4312 2810 2165 1534 1137 798
1650.0 552 450 336 329 265 251 203 244 204 185
1690.0 236 256 219 242 318 355 323 235 205 191
1730.0 122 62 74 57 25 8 32 26 34 43
1770.0 21 10 51 45 63 68 70 94 93 145
1810.0 136 132 129 111 74 48 52 52 32 10
1850.0 35 35 31 29 19 6 33 48 49 70
1890.0 84 124 164 207 212 193 182 145 83 50
1930.0 37 23 21 5 10 14 15 17 17 11
1970.0 12 21 19 20 22 12 14 19 23 15
2010.0 20 16 14 15 22 18 22 21 18 25
2050.0 27 29 29 28 22 26 22 21 22 19
2090.0 14 15 19 15 18 17 17 19 22 28
2130.0 23 25 23 23 21 21 21 24 25 22
2170.0 24 19 18 15 15 10 14 11 15 22
2210.0 27 31 34 35 31 29 25 21 20 17
2250.0 19 9 8 3 2 0 0 0 1 4
2290.0 5 6 4 9 9 8 17 18 20 19
2330.0 28 31 33 35 38 30 21 19 18 22
2370.0 7 12 12 20 17 21 24 26 29 35
2410.0 41 41 41 37 37 29 28 25 26 24
2450.0 24 26 25 30 28 33 37 43 44 50
2490.0 50 50 49 44 42 40 41 36 34 36
2530.0 37 41 35 40 37 48 59 67 75 82
2570.0 87 87 101 100 103 103 104 95 84 70
2610.0 59 48 45 47 47 50 50 50 54 51
2650.0 50 47 53 54 59 61 66 67 69 69
2690.0 71 68 73 79 80 92 97 106 113 129
2730.0 151 175 199 214 235 230 218 213 221 228
2770.0 239 256 272 297 335 380 443 531 658 828
2810.0 1054 1302 1537 1696 1742 1669 1524 1337 1181 1092
2850.0 1079 1126 1223 1368 1548 1729 1888 2037 2162 2294
2890.0 2443 2603 2749 2871 2980 3106 3242 3362 3500 3588
2930.0 3573 3496 3350 3123 2847 2574 2332 2167 2048 1972
2970.0 1957 2047 2257 2477 2519 2429 2276 2011 1756 1688
3010.0 1777 1853 1921 2026 2084 2067 2103 2222 2400 2600
3050.0 2769 2737 2489 2196 1875 1525 1298 1177 1068 961
3090.0 855 741 637 544 463 393 336 285 243 208
3130.0 175 151 126 102 83 72 60 51 42 40
3170.0 35 31 28 25 21 26 19 21 23 16
3210.0 16 19 16 20 16 15 21 7 10 2
3250.0 4 7 2 6 4 15 10 9 8 10
3290.0 9 9 7 11 16 12 11 15 12 15
3330.0 17 19 18 14 9 20 15 19 16 16
3370.0 15 14 12 14 16 22 27 27 29 37
3410.0 49 62 69 94 126 173 227 310 411 539
3450.0 649 722 724 681 588 450 324 227 160 119
3490.0 98 81 68 56 51 48 44 38 31 34
3530.0 36 36 32 28 32 32 29 25 20 23
3570.0 25 22 28 27 20 16 21 6 11 15
3610.0 10 6 11 16 10 14 7 11 14 0
3650.0 9 16 11 8 8 7 12 15 16 10
3690.0 5 6 2 7 22 11 16 8 9 15
3730.0 15 12 16 11 10 31 21 25 16 22
3770.0 17 21 21 22 18 14 9 10 8 8
3810.0 19 26 15 22 3 26 26 22 18 26
3850.0 28 31 40 20 30 25 33 26 38 26
3890.0 27 38 34 34 41 33 29 35 31 48
3930.0 27 51 34 32 45 24 35 31 42 33
##END=
