##TITLE=4-Isopropylpyridine
##JCAMP-DX=4.24
##DATA TYPE=INFRARED SPECTRUM
##ORIGIN=Sadtler Research Labs Under US-EPA Contract
##OWNER=NIST Standard Reference Data Program
##CAS REGISTRY NO=696-30-0
##MOLFORM=C 8 H 11 N
##XUNITS=1/CM
##YUNITS=ABSORBANCE
##XFACTOR=1.0
##YFACTOR=0.000132214
##DELTAX=4.0
##FIRSTX=450.0
##LASTX=3966.0
##FIRSTY=0.050374
##MAXX=3966
##MINX=450
##MAXY=1.32214
##MINY=0
##NPOINTS=880
##XYDATA=(X++(Y..Y))
450.0 381 184 87 217 109 113 25 140 0 151
490.0 229 168 107 166 213 200 316 352 401 405
530.0 494 512 619 830 1028 1241 1351 1492 1464 1395
570.0 1275 1093 970 799 698 486 406 313 277 215
610.0 181 162 139 143 125 105 66 143 118 100
650.0 84 91 92 103 109 132 126 113 116 92
690.0 108 93 87 94 86 111 93 123 122 195
730.0 247 426 694 930 1099 1116 961 720 455 294
770.0 244 211 241 252 295 401 541 817 1211 1728
810.0 2160 2800 2965 2365 1924 1395 919 570 362 260
850.0 195 173 137 146 166 181 195 255 341 413
890.0 454 429 388 294 185 129 131 123 136 137
930.0 144 140 129 122 105 99 88 91 82 78
970.0 80 96 151 320 699 782 889 767 719 301
1010.0 105 80 79 73 81 86 94 121 188 323
1050.0 454 521 588 598 529 423 385 337 293 214
1090.0 176 168 166 164 162 173 173 189 190 193
1130.0 191 189 178 157 147 138 137 127 135 124
1170.0 121 114 112 113 105 117 126 143 164 201
1210.0 322 489 577 656 699 678 540 433 354 262
1250.0 204 149 133 133 131 138 125 122 128 161
1290.0 215 324 515 743 886 897 804 573 361 260
1330.0 218 199 204 225 285 405 533 643 719 752
1370.0 786 754 728 779 854 927 1070 1266 1477 1696
1410.0 1894 1952 1931 1712 1424 1094 863 708 622 623
1450.0 690 808 971 1078 1122 1162 1105 1018 956 894
1490.0 808 712 640 520 371 290 225 222 231 234
1530.0 261 312 411 527 676 822 1019 1172 1291 1270
1570.0 1248 1182 1260 1694 2812 4641 6070 6528 6037 5058
1610.0 3107 1402 626 419 365 339 325 301 251 225
1650.0 197 215 194 199 233 251 248 238 218 211
1690.0 153 127 128 125 109 104 120 132 121 107
1730.0 114 115 106 89 88 94 87 94 110 117
1770.0 118 114 87 72 52 54 55 53 59 53
1810.0 52 56 56 62 81 97 113 110 110 98
1850.0 74 45 34 26 32 34 29 28 26 30
1890.0 30 35 42 57 72 96 130 175 219 248
1930.0 260 247 236 192 148 121 98 80 68 55
1970.0 41 35 36 33 31 32 31 26 25 26
2010.0 25 25 27 31 30 30 28 29 28 27
2050.0 26 30 24 18 15 17 13 13 12 15
2090.0 13 14 14 15 14 12 16 17 20 18
2130.0 17 19 20 18 19 19 20 19 18 20
2170.0 18 19 22 20 21 22 23 22 25 26
2210.0 25 25 27 29 26 25 26 25 27 25
2250.0 26 29 32 32 34 36 39 38 37 34
2290.0 36 31 25 23 23 19 18 13 11 12
2330.0 11 11 22 19 26 23 11 11 12 26
2370.0 42 53 51 47 44 42 41 39 41 43
2410.0 41 42 41 40 43 40 46 52 56 59
2450.0 58 58 53 48 46 45 42 42 37 33
2490.0 30 31 32 30 31 30 30 29 33 31
2530.0 31 34 32 36 32 35 33 37 38 41
2570.0 44 55 61 70 79 85 89 94 89 90
2610.0 81 72 66 65 60 57 63 57 54 48
2650.0 56 58 61 61 66 65 65 62 58 53
2690.0 53 53 51 52 59 64 75 80 88 97
2730.0 108 111 118 121 118 119 121 124 126 131
2770.0 133 126 117 114 104 103 110 115 128 146
2810.0 161 172 186 195 205 209 213 234 244 285
2850.0 328 380 452 553 718 975 1343 1719 2011 2210
2890.0 2275 2246 2213 2180 2149 2096 2011 1958 1949 2034
2930.0 2181 2440 2724 2854 2837 2871 3031 3597 4922 7054
2970.0 9063 10000 9849 8419 6020 3915 2655 2011 1642 1413
3010.0 1312 1361 1576 1837 2029 2167 2147 1941 1692 1546
3050.0 1515 1579 1739 1980 2220 2383 2418 2324 2076 1727
3090.0 1308 981 738 567 433 335 262 215 179 154
3130.0 145 127 119 118 119 124 120 124 129 122
3170.0 132 131 133 140 142 139 132 129 123 114
3210.0 116 110 109 108 105 98 94 86 79 80
3250.0 60 65 53 63 63 55 46 59 67 56
3290.0 55 69 51 49 55 58 57 40 40 51
3330.0 46 57 59 45 48 38 39 39 52 54
3370.0 47 49 44 45 57 56 53 58 60 60
3410.0 62 69 60 69 70 68 61 63 61 56
3450.0 61 48 55 46 47 51 46 56 53 46
3490.0 48 53 46 58 47 44 49 43 51 40
3530.0 63 42 48 42 53 57 34 35 43 44
3570.0 47 26 43 30 33 45 34 23 27 27
3610.0 36 21 32 26 32 31 19 33 36 34
3650.0 33 21 25 11 31 23 34 35 35 43
3690.0 43 42 47 48 43 38 29 35 39 45
3730.0 42 44 41 42 42 37 49 40 48 22
3770.0 16 28 35 37 24 32 22 28 24 62
3810.0 38 23 49 53 37 43 48 32 35 46
3850.0 45 54 52 58 67 53 39 49 33 40
3890.0 52 57 52 44 38 44 21 51 40 42
3930.0 60 53 31 36 40 35 64 48 55 53
##END=
