##TITLE=1,5-Diacetoxypentane
##JCAMP-DX=4.24
##DATA TYPE=INFRARED SPECTRUM
##ORIGIN=Sadtler Research Labs Under US-EPA Contract
##OWNER=NIST Standard Reference Data Program
##CAS REGISTRY NO=6963-44-6
##MOLFORM=C 9 H 16 O 4
##XUNITS=1/CM
##YUNITS=ABSORBANCE
##XFACTOR=1.0
##YFACTOR=0.000144781
##DELTAX=4.0
##FIRSTX=450.0
##LASTX=3966.0
##FIRSTY=0.025482
##MAXX=3966
##MINX=450
##MAXY=1.44781
##MINY=0
##NPOINTS=880
##XYDATA=(X++(Y..Y))
450.0 176 137 90 100 112 139 130 129 128 124
490.0 113 114 100 112 111 112 98 106 114 126
530.0 102 125 103 90 89 92 84 90 90 101
570.0 96 93 104 114 121 140 162 194 233 270
610.0 252 233 216 225 258 295 310 303 263 221
650.0 184 159 131 105 100 82 79 73 76 66
690.0 69 68 74 63 65 70 76 84 84 94
730.0 97 104 107 101 103 96 87 83 83 87
770.0 79 77 82 67 54 35 11 2 2 29
810.0 46 80 101 115 129 136 148 146 152 155
850.0 169 170 181 190 208 213 212 209 207 207
890.0 197 196 194 189 187 187 190 199 200 210
930.0 224 233 248 257 263 270 268 267 261 261
970.0 269 274 272 264 259 268 294 345 412 494
1010.0 592 697 825 978 1160 1337 1493 1580 1583 1535
1050.0 1502 1476 1450 1397 1333 1291 1255 1188 1079 920
1090.0 771 639 540 463 401 352 319 270 241 220
1130.0 199 184 180 173 165 166 169 177 192 208
1170.0 226 253 284 326 387 476 615 825 1131 1552
1210.0 2146 3052 4420 6361 8530 9911 10000 8830 7254 5631
1250.0 4268 3203 2486 2006 1712 1493 1295 1121 973 840
1290.0 713 600 503 436 384 341 306 275 245 226
1330.0 210 199 207 217 248 318 452 690 1120 1613
1370.0 1846 1669 1285 1055 987 970 914 763 572 413
1410.0 320 266 258 240 241 252 282 309 332 351
1450.0 379 410 452 457 449 428 410 359 292 247
1490.0 210 173 158 144 144 145 128 126 130 114
1530.0 112 99 102 106 97 83 83 95 82 71
1570.0 71 67 64 64 55 57 53 58 53 58
1610.0 57 56 66 60 68 58 71 74 74 80
1650.0 98 98 93 92 94 98 103 101 115 130
1690.0 131 148 178 209 240 274 343 430 515 608
1730.0 771 982 1269 1656 2229 2979 4077 5566 6606 6444
1770.0 5118 3685 2650 1947 1423 1074 822 652 508 406
1810.0 324 266 209 176 152 133 114 100 97 89
1850.0 83 72 72 68 72 72 62 60 57 56
1890.0 53 52 50 50 47 48 45 44 46 39
1930.0 38 38 38 37 37 35 34 34 33 33
1970.0 32 33 33 35 36 43 44 44 47 47
2010.0 49 49 50 46 45 43 43 42 44 47
2050.0 47 48 48 50 49 51 48 50 49 48
2090.0 50 46 47 45 46 45 42 39 38 36
2130.0 32 32 31 28 24 25 25 25 22 22
2170.0 21 20 21 20 21 19 20 17 17 18
2210.0 17 16 15 17 15 16 13 13 13 14
2250.0 13 12 13 11 10 12 12 9 10 6
2290.0 6 5 5 1 2 0 2 5 7 6
2330.0 12 13 11 15 11 7 11 10 17 7
2370.0 13 6 8 4 4 9 8 10 10 8
2410.0 7 9 8 8 9 9 11 11 13 15
2450.0 16 18 21 20 20 20 18 16 15 12
2490.0 10 11 11 9 8 8 9 8 8 7
2530.0 6 7 7 4 6 5 5 7 5 5
2570.0 7 8 9 10 9 8 11 12 12 11
2610.0 13 10 12 11 10 12 11 13 12 10
2650.0 11 12 14 13 13 15 16 16 18 17
2690.0 19 19 21 22 21 22 22 20 21 21
2730.0 22 24 26 27 28 26 25 25 25 25
2770.0 26 26 25 24 27 25 26 27 27 30
2810.0 32 35 37 44 49 54 60 71 85 111
2850.0 145 190 240 285 326 356 379 385 370 349
2890.0 335 343 371 410 450 495 544 598 662 722
2930.0 790 873 979 1110 1242 1350 1415 1417 1382 1331
2970.0 1234 1096 948 803 670 543 426 327 252 200
3010.0 167 148 136 131 126 123 120 112 108 106
3050.0 101 97 94 90 91 87 79 76 72 64
3090.0 59 55 51 47 46 39 34 33 30 29
3130.0 29 26 21 20 20 18 18 13 14 13
3170.0 13 12 9 9 11 9 10 10 11 10
3210.0 10 11 8 9 10 8 8 8 6 6
3250.0 9 8 7 10 8 8 6 8 6 5
3290.0 7 8 10 10 8 6 7 7 10 7
3330.0 8 9 7 9 9 7 8 9 8 11
3370.0 10 9 12 9 8 7 8 7 8 9
3410.0 12 10 10 10 11 9 7 9 10 8
3450.0 8 10 8 11 14 15 16 17 17 19
3490.0 26 33 43 52 54 53 44 31 20 10
3530.0 8 5 2 1 3 0 3 3 7 8
3570.0 10 10 18 22 15 11 17 11 12 15
3610.0 13 7 3 2 9 9 9 2 6 3
3650.0 7 11 8 8 4 6 3 8 4 12
3690.0 4 4 6 13 10 4 4 1 2 4
3730.0 9 8 7 3 7 0 5 2 9 9
3770.0 8 7 4 9 6 4 6 0 8 1
3810.0 9 7 10 0 4 1 0 1 2 0
3850.0 2 2 8 2 5 0 0 1 0 6
3890.0 5 6 9 0 0 6 1 5 1 0
3930.0 3 5 3 3 1 7 2 6 7 7
##END=
