##TITLE=Benzene, 1-(3-chloro-1-methoxypropyl)-4-methyl-
##JCAMP-DX=4.24
##DATA TYPE=INFRARED SPECTRUM
##ORIGIN=Sadtler Research Labs Under US-EPA Contract
##OWNER=NIST Standard Reference Data Program
##CAS REGISTRY NO=6968-70-3
##MOLFORM=C 11 H 15 Cl O
##XUNITS=1/CM
##YUNITS=ABSORBANCE
##XFACTOR=1.0
##YFACTOR=0.000056561
##DELTAX=4.0
##FIRSTX=450.0
##LASTX=3966.0
##FIRSTY=0.022511
##MAXX=3966
##MINX=450
##MAXY=0.56561
##MINY=0
##NPOINTS=880
##XYDATA=(X++(Y..Y))
450.0 398 299 411 110 119 166 146 239 112 70
490.0 212 438 418 416 402 467 310 327 441 456
530.0 630 682 782 951 935 963 737 897 982 1168
570.0 813 630 443 234 168 56 109 112 106 85
610.0 184 212 247 311 208 201 179 249 254 283
650.0 335 544 856 1255 1503 1393 1048 649 433 455
690.0 396 455 442 468 604 800 1138 1418 1401 1206
730.0 852 653 375 371 670 658 529 684 689 679
770.0 691 647 727 819 857 1012 1037 1254 1692 2285
810.0 3175 3595 3384 2575 1592 1022 804 758 795 803
850.0 731 633 693 767 865 880 892 827 656 593
890.0 569 626 607 551 538 495 478 465 468 464
930.0 438 503 580 602 635 753 890 1028 1152 1175
970.0 1115 1019 935 845 796 747 731 730 745 774
1010.0 827 998 1258 1348 1253 1113 1069 1154 1170 1246
1050.0 1331 1394 1493 1663 1860 2038 2175 2257 2409 2729
1090.0 3384 4502 6142 8051 9446 10000 9212 7499 5485 3699
1130.0 2534 1885 1600 1505 1534 1564 1524 1377 1169 1042
1170.0 988 1174 1512 1811 1845 1726 1613 1677 1729 1689
1210.0 1586 1460 1368 1346 1350 1339 1281 1226 1135 1089
1250.0 1097 1050 1011 969 1021 1157 1267 1368 1459 1602
1290.0 1772 1825 1726 1574 1439 1372 1316 1279 1157 1019
1330.0 958 949 1092 1314 1579 1887 2099 2154 1970 1653
1370.0 1305 1025 867 794 741 676 606 551 580 621
1410.0 757 886 1005 1094 1132 1082 1090 1107 1344 1536
1450.0 1635 1538 1292 1118 1076 986 922 817 817 761
1490.0 802 901 1093 1414 1643 2272 2532 2216 1462 813
1530.0 510 433 281 236 263 286 268 111 175 214
1570.0 217 231 205 294 295 304 301 332 362 371
1610.0 467 439 472 384 368 310 243 259 287 274
1650.0 287 125 267 225 181 99 140 102 109 40
1690.0 88 109 19 17 79 124 98 55 108 139
1730.0 123 103 100 147 161 160 200 201 192 226
1770.0 169 168 179 209 227 259 228 251 205 148
1810.0 118 75 96 71 49 60 47 94 40 69
1850.0 69 87 99 108 110 89 134 144 153 186
1890.0 216 260 303 291 254 200 147 120 104 108
1930.0 98 90 81 76 77 71 78 75 77 80
1970.0 70 81 72 79 78 78 91 90 89 92
2010.0 86 91 86 82 78 79 80 83 80 81
2050.0 86 85 92 87 81 70 71 65 68 70
2090.0 68 58 56 56 56 51 53 50 52 57
2130.0 60 56 59 56 47 45 42 38 39 40
2170.0 35 39 39 31 34 34 41 36 35 36
2210.0 30 23 28 24 22 15 20 13 13 14
2250.0 20 16 17 9 7 20 17 20 21 31
2290.0 39 42 53 56 57 50 47 47 39 51
2330.0 37 41 36 31 46 22 45 36 51 37
2370.0 35 40 36 30 33 31 31 29 28 32
2410.0 31 31 30 36 30 26 21 21 20 23
2450.0 27 24 22 22 27 34 32 31 33 32
2490.0 39 33 30 34 35 27 36 40 35 39
2530.0 39 42 32 43 42 46 47 48 46 55
2570.0 61 64 65 82 97 101 115 116 102 94
2610.0 97 84 78 86 84 95 98 91 92 91
2650.0 103 98 103 91 90 88 87 110 98 101
2690.0 103 109 116 124 132 122 129 137 130 157
2730.0 172 186 209 245 252 255 245 205 203 197
2770.0 210 246 259 258 281 323 357 426 483 537
2810.0 634 816 1132 1662 2219 2669 2733 2414 2057 1830
2850.0 1777 1833 1912 2026 2159 2342 2574 2808 3007 3088
2890.0 3012 2872 2757 2743 2853 3100 3443 3829 4193 4559
2930.0 5035 5420 5477 5132 4554 4023 3705 3524 3478 3557
2970.0 3656 3748 3674 3486 3461 3562 3638 3505 3221 2960
3010.0 2844 2845 2964 3237 3507 3479 3029 2447 2063 1953
3050.0 1891 1890 1811 1658 1452 1271 1081 948 852 812
3090.0 773 740 681 598 503 404 335 286 269 263
3130.0 259 233 216 182 154 129 107 86 67 71
3170.0 70 60 63 57 54 57 50 42 41 47
3210.0 51 40 44 41 41 44 39 45 37 45
3250.0 34 29 25 36 38 44 45 30 30 35
3290.0 34 22 36 43 30 23 33 47 40 41
3330.0 35 34 52 51 48 64 35 32 35 37
3370.0 52 43 41 48 44 34 32 33 41 35
3410.0 38 41 32 41 35 36 42 42 43 52
3450.0 51 41 48 24 34 32 21 36 42 46
3490.0 46 47 43 54 44 46 38 45 49 78
3530.0 74 53 53 53 50 36 23 74 45 66
3570.0 58 66 55 72 43 95 57 97 49 74
3610.0 82 59 55 47 99 16 83 77 108 74
3650.0 117 55 114 94 118 114 23 82 79 114
3690.0 36 64 108 96 81 85 57 112 64 104
3730.0 59 39 97 36 97 0 99 30 84 70
3770.0 62 87 74 76 113 69 118 67 73 32
3810.0 98 61 93 12 63 109 67 60 58 92
3850.0 69 22 84 77 105 113 79 95 106 58
3890.0 91 73 89 92 59 75 159 42 99 66
3930.0 131 118 74 30 64 102 74 77 135 94
##END=
