##TITLE=Phenyl N,N-dimethylcarbamate
##JCAMP-DX=4.24
##DATA TYPE=INFRARED SPECTRUM
##ORIGIN=Sadtler Research Labs Under US-EPA Contract
##OWNER=NIST Standard Reference Data Program
##CAS REGISTRY NO=6969-90-0
##MOLFORM=C 9 H 11 N O 2
##XUNITS=1/CM
##YUNITS=ABSORBANCE
##XFACTOR=1.0
##YFACTOR=0.000189114
##DELTAX=4.0
##FIRSTX=450.0
##LASTX=3966.0
##FIRSTY=0.010023
##MAXX=3966
##MINX=450
##MAXY=1.89114
##MINY=0
##NPOINTS=880
##XYDATA=(X++(Y..Y))
450.0 53 33 41 76 66 69 65 80 91 116
490.0 150 175 188 176 136 109 90 59 54 43
530.0 41 25 25 6 11 8 22 6 10 11
570.0 0 13 20 27 37 47 63 109 141 158
610.0 142 108 78 56 53 66 89 97 93 91
650.0 73 79 87 121 141 230 304 395 536 605
690.0 632 518 402 289 210 155 142 156 199 279
730.0 407 593 796 999 1063 1036 915 785 661 549
770.0 440 334 249 186 150 125 115 105 107 103
810.0 101 100 99 108 147 247 440 743 917 865
850.0 656 336 144 77 58 47 48 50 54 60
890.0 64 78 107 138 142 132 96 59 43 33
930.0 31 30 34 26 23 18 17 15 17 21
970.0 32 44 63 87 127 178 244 331 408 440
1010.0 442 414 437 534 549 495 408 295 281 319
1050.0 368 415 456 479 473 452 407 367 333 321
1090.0 324 347 395 452 522 598 684 769 864 985
1130.0 1156 1403 1715 2140 2669 3339 4098 5084 6329 7040
1170.0 7315 6718 5635 4696 4167 4031 4438 5452 7000 8688
1210.0 9366 9090 7287 5167 3568 2669 2046 1445 1015 809
1250.0 699 645 640 668 716 745 747 719 681 638
1290.0 594 553 518 509 518 533 526 510 481 474
1330.0 494 529 584 640 733 882 1123 1469 1982 2676
1370.0 3489 4353 4937 5127 4672 3927 3043 2303 1791 1481
1410.0 1308 1156 1038 884 755 702 772 947 1268 1625
1450.0 1983 2142 2129 1934 1705 1509 1400 1342 1395 1635
1490.0 2033 2298 2145 1769 1188 735 650 612 619 588
1530.0 576 553 542 544 513 487 452 439 384 363
1570.0 358 377 438 543 691 832 914 853 661 434
1610.0 276 205 174 153 144 132 130 141 127 130
1650.0 138 135 126 114 125 113 134 124 164 166
1690.0 179 201 245 313 381 493 580 793 997 1350
1730.0 1816 2613 3770 5297 7751 8878 10000 8718 6836 4306
1770.0 2646 1591 1002 674 501 373 311 237 202 146
1810.0 124 98 74 69 58 60 51 62 64 78
1850.0 72 68 66 57 59 53 44 30 27 13
1890.0 7 3 2 5 11 21 24 36 41 44
1930.0 43 45 42 45 48 39 31 16 12 9
1970.0 12 13 18 25 31 50 60 76 82 91
2010.0 89 91 92 84 79 71 71 68 73 66
2050.0 59 47 34 26 18 12 8 6 3 5
2090.0 5 7 7 9 13 13 16 14 14 13
2130.0 11 7 8 7 5 5 5 8 7 10
2170.0 12 11 11 9 8 6 5 3 5 4
2210.0 5 7 10 12 12 13 13 13 11 15
2250.0 17 21 21 23 26 26 30 35 43 44
2290.0 45 46 51 56 63 72 64 60 54 48
2330.0 40 40 31 28 43 37 36 29 33 25
2370.0 29 30 37 41 34 25 21 20 20 23
2410.0 19 20 18 16 14 11 11 8 8 6
2450.0 4 2 0 0 0 2 0 2 5 7
2490.0 7 8 9 7 7 5 6 4 6 4
2530.0 5 6 6 6 6 8 6 8 7 11
2570.0 10 13 15 17 14 14 15 13 14 12
2610.0 12 9 9 8 5 4 4 6 5 7
2650.0 8 8 7 6 7 6 7 6 8 8
2690.0 10 10 10 13 15 16 15 18 19 22
2730.0 23 27 29 30 36 37 41 42 45 46
2770.0 48 51 54 58 66 74 85 102 127 164
2810.0 205 237 251 247 239 234 242 251 265 281
2850.0 305 338 380 422 460 490 509 524 537 556
2890.0 582 614 649 688 728 769 816 870 943 1030
2930.0 1134 1229 1296 1319 1284 1195 1072 937 800 674
2970.0 563 476 405 347 304 269 245 224 215 210
3010.0 216 226 245 275 315 360 416 486 560 628
3050.0 654 636 582 523 498 516 568 622 627 578
3090.0 486 377 309 276 248 215 176 141 108 87
3130.0 72 61 53 45 40 34 29 24 25 18
3170.0 17 15 15 13 12 12 8 10 10 9
3210.0 8 10 8 6 5 5 4 3 4 3
3250.0 2 4 5 5 4 2 2 4 4 3
3290.0 1 1 0 2 4 2 1 1 2 0
3330.0 3 1 1 1 1 2 0 1 1 4
3370.0 1 1 1 2 2 1 3 3 4 1
3410.0 4 3 2 3 0 2 2 2 2 3
3450.0 3 3 4 10 14 15 19 26 36 32
3490.0 33 31 26 21 15 5 5 0 2 2
3530.0 2 2 1 3 3 5 7 4 4 6
3570.0 8 3 5 4 6 3 0 3 4 5
3610.0 4 4 4 6 7 6 11 9 15 11
3650.0 14 6 10 9 8 10 2 10 5 6
3690.0 2 5 4 3 9 5 4 0 7 2
3730.0 1 1 5 0 2 0 0 0 0 0
3770.0 0 0 0 2 0 0 0 0 0 0
3810.0 0 0 0 0 0 0 0 1 0 1
3850.0 0 2 1 4 2 0 0 0 2 2
3890.0 4 2 2 1 6 6 6 2 1 0
3930.0 1 8 1 0 0 4 6 0 0 0
##END=
