##TITLE=trans-2-Tridecenoic acid
##JCAMP-DX=4.24
##DATA TYPE=INFRARED SPECTRUM
##ORIGIN=Sadtler Research Labs Under US-EPA Contract
##OWNER=NIST Standard Reference Data Program
##CAS REGISTRY NO=6969-16-0
##MOLFORM=C 13 H 24 O 2
##XUNITS=1/CM
##YUNITS=ABSORBANCE
##XFACTOR=1.0
##YFACTOR=0.000067606
##DELTAX=4.0
##FIRSTX=450.0
##LASTX=3966.0
##FIRSTY=0.000000
##MAXX=3966
##MINX=450
##MAXY=0.67606
##MINY=0
##NPOINTS=880
##XYDATA=(X++(Y..Y))
450.0 0 115 327 371 410 419 382 302 183 368
490.0 354 379 475 488 519 402 570 608 625 637
530.0 698 786 819 931 1037 1113 1266 1292 1283 1249
570.0 1204 1230 1173 1067 884 727 645 605 576 579
610.0 557 606 683 720 780 690 661 652 723 798
650.0 768 666 541 442 374 331 350 327 321 309
690.0 304 350 391 438 462 454 469 445 433 376
730.0 368 300 276 284 205 248 305 218 140 201
770.0 152 152 150 124 152 121 147 121 138 166
810.0 166 202 203 218 216 225 220 246 236 279
850.0 274 299 290 288 322 299 343 330 299 291
890.0 282 290 278 255 277 272 258 230 244 237
930.0 233 242 240 280 316 339 392 446 525 613
970.0 705 801 865 890 853 761 682 573 526 497
1010.0 458 439 419 428 459 459 465 467 496 525
1050.0 558 592 636 714 803 889 1019 1132 1239 1381
1090.0 1518 1790 2143 2603 3203 3593 3773 3710 3606 3488
1130.0 3354 3207 3040 2858 2742 2633 2569 2415 2231 2065
1170.0 1860 1663 1469 1253 1093 945 833 779 727 698
1210.0 672 658 654 640 671 695 705 722 738 788
1250.0 809 827 837 828 820 808 804 792 811 815
1290.0 772 798 792 782 812 769 757 745 721 778
1330.0 863 958 1067 1258 1443 1580 1713 1724 1702 1687
1370.0 1489 1292 1048 852 772 610 534 471 413 409
1410.0 375 392 389 408 407 423 473 543 635 696
1450.0 756 834 903 924 869 776 655 484 373 300
1490.0 259 254 202 199 184 161 141 205 171 164
1530.0 134 150 152 188 161 127 173 154 175 144
1570.0 127 171 145 124 137 128 161 154 165 168
1610.0 176 189 225 268 309 360 467 574 736 955
1650.0 1241 1552 1632 1378 925 589 471 373 365 404
1690.0 400 448 522 655 686 736 880 1011 1094 1244
1730.0 1470 1821 2276 2905 3712 4786 5965 6985 7258 6389
1770.0 5288 4089 3378 2805 2239 1921 1544 1278 1109 912
1810.0 816 701 590 521 392 354 295 274 249 229
1850.0 232 213 189 200 178 200 179 152 180 155
1890.0 185 143 155 149 141 149 128 147 155 139
1930.0 146 129 140 148 140 150 140 139 135 144
1970.0 136 133 145 138 145 160 145 157 155 139
2010.0 141 141 149 164 168 165 149 155 150 159
2050.0 162 165 163 149 139 143 142 136 170 143
2090.0 154 143 118 129 142 142 139 127 124 123
2130.0 121 141 142 152 146 153 141 136 151 136
2170.0 146 140 138 144 151 145 141 150 155 156
2210.0 150 143 136 143 152 155 155 148 139 150
2250.0 139 144 144 141 147 146 140 141 149 144
2290.0 152 170 160 158 155 168 163 145 140 134
2330.0 155 158 126 118 173 170 179 157 108 145
2370.0 189 150 151 170 144 150 154 152 162 133
2410.0 123 141 151 141 139 139 147 140 144 128
2450.0 128 143 149 133 118 143 141 136 148 133
2490.0 144 151 134 147 140 130 161 157 168 178
2530.0 142 144 161 164 145 131 181 168 161 148
2570.0 166 163 169 167 177 164 155 150 162 159
2610.0 154 173 174 182 180 172 172 186 188 194
2650.0 191 193 192 207 207 205 210 213 214 234
2690.0 226 219 221 206 207 206 206 203 213 223
2730.0 222 225 234 223 234 242 243 231 231 246
2770.0 249 260 261 267 286 303 317 331 346 370
2810.0 402 428 460 488 537 593 661 763 916 1139
2850.0 1506 2053 2779 3431 3747 3568 3121 2691 2424 2234
2890.0 2094 2057 2132 2345 2691 3150 3745 4541 5674 7243
2930.0 8950 10000 9919 8697 7043 5388 4219 3571 3359 3332
2970.0 3201 2755 2105 1553 1200 980 837 735 652 592
3010.0 552 516 485 457 444 423 406 381 383 373
3050.0 359 347 345 338 326 307 296 275 267 259
3090.0 245 230 221 223 218 213 222 213 208 206
3130.0 200 200 201 194 191 193 187 193 189 190
3170.0 189 190 191 177 184 184 173 174 179 173
3210.0 151 157 170 168 166 172 174 165 141 151
3250.0 152 149 152 153 145 138 154 160 141 129
3290.0 139 141 136 136 139 132 130 133 128 142
3330.0 138 141 143 130 137 132 123 137 130 134
3370.0 145 133 134 132 126 143 149 147 143 139
3410.0 139 120 131 139 145 145 129 139 131 146
3450.0 140 138 127 129 145 157 142 159 149 153
3490.0 172 168 157 171 173 172 152 158 135 159
3530.0 163 155 166 157 180 181 191 272 351 469
3570.0 776 1233 2143 3086 3227 2281 1267 631 385 263
3610.0 223 204 197 188 201 168 174 157 159 188
3650.0 166 186 165 158 129 184 183 180 124 153
3690.0 177 140 126 130 136 137 138 159 154 158
3730.0 151 156 167 138 187 171 167 142 134 131
3770.0 119 132 148 126 139 113 139 168 150 157
3810.0 132 156 136 185 135 167 151 186 126 116
3850.0 161 176 174 121 143 182 122 141 128 180
3890.0 116 155 126 178 141 129 178 170 156 121
3930.0 115 154 115 151 115 144 200 149 160 156
##END=
