##TITLE=Phenol, 2,3,5-trimethyl-
##JCAMP-DX=4.24
##DATA TYPE=INFRARED SPECTRUM
##ORIGIN=Sadtler Research Labs Under US-EPA Contract
##OWNER=NIST Standard Reference Data Program
##CAS REGISTRY NO=697-82-5
##MOLFORM=C 9 H 12 O
##XUNITS=1/CM
##YUNITS=ABSORBANCE
##XFACTOR=1.0
##YFACTOR=0.000058008
##DELTAX=4.0
##FIRSTX=450.0
##LASTX=3966.0
##FIRSTY=0.015024
##MAXX=3966
##MINX=450
##MAXY=0.58008
##MINY=0
##NPOINTS=880
##XYDATA=(X++(Y..Y))
450.0 259 318 259 245 250 287 342 296 428 428
490.0 411 476 522 630 686 762 666 742 646 540
530.0 682 649 618 612 706 807 795 1106 1297 1561
570.0 1848 1957 1973 1699 1219 861 530 425 306 335
610.0 332 236 189 314 184 213 140 181 227 190
650.0 189 232 82 121 21 232 293 129 231 239
690.0 320 397 623 643 887 946 490 625 487 395
730.0 344 428 539 527 319 431 324 155 155 170
770.0 232 136 226 251 254 255 166 367 499 753
810.0 1084 1618 2089 2864 4250 3537 3306 3630 3186 1936
850.0 1597 1285 832 660 545 473 424 414 410 383
890.0 484 591 715 860 879 845 805 676 537 433
930.0 438 429 438 438 493 629 914 1230 1546 1664
970.0 1691 1667 1399 1166 1074 1093 1139 1183 1219 1221
1010.0 1216 1262 1298 1396 1497 1567 1638 1726 1796 1898
1050.0 2025 2226 2558 3157 4005 5270 6693 7905 8645 8837
1090.0 8270 6921 5434 4206 3219 2490 2181 2112 2349 2763
1130.0 3085 3229 3331 3425 3413 3699 4394 4830 4734 4715
1170.0 4273 3471 2843 2454 2279 2118 1817 1640 1622 1973
1210.0 2700 3385 3741 3762 3741 3216 2629 2367 2414 2775
1250.0 3600 5085 7142 8486 8602 8670 7821 6011 4738 4527
1290.0 4913 5442 6019 6461 6466 6033 5333 4408 3236 2159
1330.0 1383 938 758 684 671 670 679 687 705 715
1370.0 756 853 945 1088 1250 1424 1587 1783 1942 2159
1410.0 2493 2912 3302 3710 4017 4195 4253 4186 4052 4002
1450.0 4085 4070 4038 3848 3664 3435 3248 3119 3125 3309
1490.0 3558 3766 3951 3981 3870 3492 3105 2774 2453 2258
1530.0 2189 2213 2260 2420 2599 2903 3344 3842 4357 4871
1570.0 5396 5843 6210 6299 6224 5915 5330 4613 3996 3678
1610.0 3796 4286 4916 5200 5065 4506 3660 2647 1894 1445
1650.0 1130 1010 817 729 656 604 534 495 461 451
1690.0 415 433 469 476 435 406 361 324 269 274
1730.0 264 265 217 191 163 152 118 101 92 77
1770.0 77 67 69 63 60 71 79 68 77 60
1810.0 68 68 61 60 71 73 73 81 80 92
1850.0 77 70 70 79 89 105 90 100 96 96
1890.0 103 84 73 64 47 39 39 39 30 29
1930.0 23 23 26 31 26 37 33 35 31 24
1970.0 33 40 32 42 45 41 46 46 40 45
2010.0 43 33 35 35 27 27 28 25 33 33
2050.0 27 28 28 35 21 27 27 29 28 19
2090.0 28 21 20 19 25 36 39 44 49 56
2130.0 56 48 50 56 50 50 54 54 61 51
2170.0 45 43 53 35 45 45 61 55 60 55
2210.0 54 54 50 48 47 47 40 40 41 41
2250.0 42 49 53 49 50 50 50 55 65 69
2290.0 62 78 87 87 97 97 88 78 99 94
2330.0 80 90 98 119 150 144 178 176 194 144
2370.0 170 142 165 149 131 124 120 113 104 104
2410.0 105 96 96 95 93 97 94 102 97 108
2450.0 101 108 109 109 110 128 128 128 114 113
2490.0 95 86 84 63 69 69 78 71 71 62
2530.0 62 64 53 50 46 41 46 54 56 56
2570.0 65 56 69 60 64 65 59 59 60 60
2610.0 68 60 53 52 44 19 28 18 28 24
2650.0 30 19 30 47 49 42 50 52 62 80
2690.0 81 82 82 86 101 111 128 118 165 207
2730.0 262 345 423 475 488 467 390 304 249 237
2770.0 218 228 212 221 249 250 277 301 319 356
2810.0 382 430 470 498 577 675 764 906 1095 1362
2850.0 1678 2092 2591 3157 3831 4444 4864 5025 4937 4679
2890.0 4366 4100 3995 4039 4229 4621 5326 6327 7630 8939
2930.0 9822 10000 9709 8751 7477 6309 5405 4642 4013 3611
2970.0 3454 3405 3429 3420 3471 3459 3465 3516 3731 4017
3010.0 4313 4539 4732 4792 4652 4394 4028 3611 3215 2890
3050.0 2638 2389 2149 1905 1622 1389 1169 998 867 755
3090.0 645 540 499 449 416 372 337 298 262 253
3130.0 212 185 191 169 154 131 121 83 83 93
3170.0 82 73 67 46 53 55 48 75 59 56
3210.0 42 41 61 35 44 28 26 41 43 55
3250.0 66 56 58 46 53 54 55 63 73 82
3290.0 68 71 82 104 85 101 94 97 110 92
3330.0 128 109 106 104 109 104 131 149 131 134
3370.0 156 147 130 148 123 136 99 99 112 106
3410.0 96 98 93 97 111 92 108 83 69 55
3450.0 66 79 54 55 38 28 32 79 24 26
3490.0 35 35 39 52 10 10 18 14 36 37
3530.0 20 14 47 53 126 205 174 140 115 89
3570.0 37 1 33 39 23 82 31 50 59 64
3610.0 93 130 171 295 417 696 1166 1970 3396 5258
3650.0 6729 6760 6720 5655 3669 1973 914 472 251 129
3690.0 112 37 20 31 3 7 32 16 3 3
3730.0 6 1 9 3 18 3 3 3 3 3
3770.0 4 3 3 3 3 3 3 3 3 4
3810.0 3 3 30 50 19 18 16 37 38 9
3850.0 27 27 36 43 59 50 45 33 48 55
3890.0 39 42 56 87 99 87 85 97 89 62
3930.0 75 80 93 72 53 49 0 3 3 3
##END=
