##TITLE=Propane, 2,2-bis(3,4-xylyl)-,
##JCAMP-DX=4.24
##DATA TYPE=INFRARED SPECTRUM
##ORIGIN=Sadtler Research Labs Under US-EPA Contract
##OWNER=NIST Standard Reference Data Program
##CAS REGISTRY NO=6970-01-0
##MOLFORM=C 19 H 24
##XUNITS=1/CM
##YUNITS=ABSORBANCE
##XFACTOR=1.0
##YFACTOR=0.000061282
##DELTAX=4.0
##FIRSTX=450.0
##LASTX=3966.0
##FIRSTY=0.000000
##MAXX=3966
##MINX=450
##MAXY=0.61282
##MINY=0
##NPOINTS=880
##XYDATA=(X++(Y..Y))
450.0 0 14 6 95 92 70 57 65 71 101
490.0 107 41 68 92 58 79 88 97 108 90
530.0 91 85 109 81 65 94 95 80 100 104
570.0 84 91 145 160 191 208 319 501 657 730
610.0 648 501 298 195 140 109 91 90 79 77
650.0 124 94 81 50 38 75 34 21 45 47
690.0 68 47 76 101 163 312 511 687 731 658
730.0 503 393 329 268 182 122 99 80 72 87
770.0 101 106 115 121 125 148 182 264 466 883
810.0 1682 2625 2832 2115 1185 606 351 253 206 171
850.0 157 160 172 211 247 303 415 563 667 706
890.0 592 436 355 389 524 576 460 271 182 171
930.0 176 193 189 178 156 158 144 140 148 189
970.0 213 262 336 468 702 1033 1258 1165 878 628
1010.0 488 419 381 370 342 283 235 196 154 141
1050.0 128 114 105 92 89 88 100 106 151 215
1090.0 290 285 235 203 184 235 319 452 662 930
1130.0 1252 1470 1435 1249 1036 846 663 535 440 358
1170.0 340 408 564 647 548 367 253 215 207 218
1210.0 248 321 405 435 401 374 464 633 829 960
1250.0 953 827 675 575 525 536 625 704 689 569
1290.0 434 370 333 294 243 204 192 186 190 192
1330.0 195 204 211 229 263 311 431 657 941 1030
1370.0 895 777 835 1072 1283 1329 1190 1041 982 887
1410.0 758 667 592 607 635 705 783 924 1127 1392
1450.0 1726 1993 2122 2080 1971 1844 1721 1626 1663 1748
1490.0 1969 2301 2937 3819 4134 3270 2084 1166 802 608
1530.0 530 474 456 425 430 441 438 415 433 448
1570.0 467 475 468 450 437 416 452 519 658 850
1610.0 1003 971 722 496 328 287 217 174 147 123
1650.0 76 76 78 74 70 73 67 104 81 95
1690.0 106 128 126 169 215 278 341 352 298 199
1730.0 143 118 152 175 217 251 283 271 254 236
1770.0 201 156 127 105 86 80 63 75 61 72
1810.0 61 62 68 62 64 59 68 65 62 49
1850.0 55 58 70 85 100 125 157 172 169 164
1890.0 151 149 138 115 90 71 59 49 39 39
1930.0 33 29 24 21 21 25 26 24 23 25
1970.0 23 24 22 21 20 15 15 17 13 11
2010.0 10 10 9 7 9 12 15 13 10 11
2050.0 15 15 9 9 7 5 9 8 8 3
2090.0 5 5 12 7 10 10 17 18 23 23
2130.0 24 24 16 12 10 8 7 8 5 3
2170.0 8 9 9 10 9 11 10 10 12 10
2210.0 10 12 15 14 17 20 21 21 25 24
2250.0 26 29 31 32 26 27 38 43 51 57
2290.0 71 81 101 108 109 126 115 105 107 86
2330.0 74 84 63 88 114 116 143 112 131 108
2370.0 113 108 103 101 69 40 22 20 26 24
2410.0 16 17 13 13 11 14 15 18 23 26
2450.0 27 33 39 39 35 32 39 36 40 41
2490.0 35 32 37 33 35 34 30 26 24 24
2530.0 20 24 23 23 20 25 25 29 31 36
2570.0 38 36 33 32 35 34 37 39 34 35
2610.0 34 34 32 29 34 31 30 25 27 33
2650.0 35 37 34 37 41 40 47 49 55 54
2690.0 66 74 87 86 92 101 115 137 157 179
2730.0 202 241 300 315 273 213 176 162 170 186
2770.0 186 173 153 157 155 162 166 182 197 216
2810.0 235 259 296 326 371 416 473 542 621 738
2850.0 889 1086 1333 1659 2115 2696 3315 3744 3820 3611
2890.0 3337 3109 2956 2862 2843 2926 3166 3598 4272 5270
2930.0 6433 7131 6839 6009 5325 4900 4487 4169 4226 5311
2970.0 7846 10000 9612 7377 5256 3685 2649 2179 2030 2039
3010.0 2132 2381 2795 3162 3128 2646 2082 1734 1603 1589
3050.0 1609 1618 1602 1577 1548 1501 1432 1329 1196 1027
3090.0 863 708 582 509 459 434 424 396 371 332
3130.0 285 228 184 159 134 118 110 95 91 77
3170.0 69 71 69 61 55 54 52 55 53 47
3210.0 52 55 58 61 57 60 58 58 57 55
3250.0 56 57 49 50 45 48 52 46 45 47
3290.0 47 46 34 40 37 39 32 31 29 26
3330.0 21 25 18 15 17 13 17 15 21 23
3370.0 20 18 20 21 30 27 17 26 22 22
3410.0 22 36 21 15 18 21 25 29 31 22
3450.0 24 25 15 9 27 29 21 26 26 16
3490.0 15 14 18 18 22 30 25 9 15 13
3530.0 17 23 22 24 34 16 20 27 20 38
3570.0 47 37 38 29 30 21 24 17 22 19
3610.0 37 23 29 30 24 34 17 21 18 12
3650.0 27 19 26 25 23 35 20 41 19 23
3690.0 18 19 24 24 36 13 18 16 14 30
3730.0 16 35 21 27 20 12 24 25 25 26
3770.0 20 15 6 23 3 3 5 3 5 10
3810.0 8 14 13 17 13 11 17 3 7 25
3850.0 3 13 2 17 29 22 24 19 24 24
3890.0 43 25 20 25 16 17 18 21 10 33
3930.0 39 34 25 40 32 37 8 10 24 14
##END=
