##TITLE=3-Methoxybenzyl alcohol
##JCAMP-DX=4.24
##DATA TYPE=INFRARED SPECTRUM
##ORIGIN=Sadtler Research Labs Under US-EPA Contract
##OWNER=NIST Standard Reference Data Program
##CAS REGISTRY NO=6971-51-3
##MOLFORM=C 8 H 10 O 2
##XUNITS=1/CM
##YUNITS=ABSORBANCE
##XFACTOR=1.0
##YFACTOR=0.000109933
##DELTAX=4.0
##FIRSTX=450.0
##LASTX=3966.0
##FIRSTY=0.000000
##MAXX=3966
##MINX=450
##MAXY=1.09933
##MINY=0
##NPOINTS=880
##XYDATA=(X++(Y..Y))
450.0 0 200 281 184 114 88 71 42 23 80
490.0 33 151 61 62 46 119 134 168 197 232
530.0 286 307 407 453 454 474 462 407 377 319
570.0 340 234 165 182 200 211 136 91 152 104
610.0 145 125 157 144 149 162 144 148 119 95
650.0 71 96 72 106 96 206 333 519 875 1135
690.0 1542 1822 1572 1290 1083 868 766 817 1015 1275
730.0 1464 1564 1534 1370 1104 938 877 927 1076 1313
770.0 1643 1978 2177 2309 2261 1766 1287 899 578 350
810.0 233 172 157 154 162 198 258 352 472 613
850.0 769 871 953 1023 1095 1110 1128 1112 1043 966
890.0 901 841 795 765 738 712 675 628 565 509
930.0 455 423 415 414 438 465 524 608 702 823
970.0 932 1040 1159 1283 1408 1603 1809 2016 2272 2552
1010.0 2890 3326 3838 4387 4840 5157 5321 5386 5375 5323
1050.0 5190 4939 4464 3694 2839 2097 1541 1230 1046 937
1090.0 858 785 728 686 651 638 634 645 678 747
1130.0 875 1086 1438 1981 2701 3432 3960 4219 4045 3483
1170.0 2949 2462 2021 1695 1506 1387 1297 1240 1190 1145
1210.0 1152 1191 1259 1357 1468 1612 1826 2160 2709 3564
1250.0 4821 6433 8145 9474 10000 9720 8561 7124 5973 5210
1290.0 4650 4196 3780 3370 3021 2711 2420 2158 1922 1739
1330.0 1594 1477 1374 1259 1131 1066 1048 1111 1246 1425
1370.0 1629 1905 2076 2139 2077 1926 1699 1526 1370 1305
1410.0 1261 1259 1355 1497 1822 2367 2953 3374 3379 3289
1450.0 3134 3043 3314 3698 3935 3853 3864 4073 4296 4695
1490.0 4769 4490 3770 2593 1674 1107 754 628 573 510
1530.0 479 490 503 548 527 522 558 670 775 888
1570.0 1217 1683 2386 3234 4055 4814 5451 6067 6173 6014
1610.0 5215 4235 3122 2147 1421 898 641 496 372 332
1650.0 300 328 224 204 198 198 208 170 189 225
1690.0 167 166 223 226 195 174 219 261 230 208
1730.0 232 274 229 200 203 220 186 171 156 137
1770.0 138 143 91 105 88 96 85 83 104 82
1810.0 88 105 110 116 137 141 144 134 159 164
1850.0 136 114 102 90 92 110 89 89 97 105
1890.0 114 110 113 116 130 147 170 181 198 178
1930.0 164 140 112 100 85 75 81 83 79 83
1970.0 86 84 91 97 109 118 129 128 129 123
2010.0 119 123 123 127 127 135 135 147 147 153
2050.0 150 146 142 138 137 134 139 148 145 146
2090.0 138 131 115 104 95 91 85 80 72 69
2130.0 69 66 68 66 71 74 78 81 85 84
2170.0 82 85 86 84 89 93 93 91 91 92
2210.0 88 81 76 69 60 55 49 39 41 36
2250.0 34 32 30 32 28 33 29 29 37 44
2290.0 51 64 80 88 106 121 135 144 152 142
2330.0 133 127 97 96 76 111 157 131 100 40
2370.0 28 28 28 41 48 52 60 58 64 62
2410.0 66 71 66 69 63 68 65 61 56 56
2450.0 55 53 54 50 48 48 52 52 55 58
2490.0 59 54 56 64 63 65 67 71 73 78
2530.0 82 79 78 80 82 81 80 81 82 78
2570.0 77 75 74 70 61 62 58 59 59 62
2610.0 62 60 58 56 54 58 59 61 49 52
2650.0 57 54 58 66 68 69 64 67 61 59
2690.0 61 59 58 60 69 74 77 86 92 95
2730.0 106 112 117 123 121 128 129 135 145 152
2770.0 158 165 173 179 200 214 231 253 279 308
2810.0 336 386 449 527 649 845 1149 1538 1861 2006
2850.0 2044 1886 1627 1471 1457 1536 1671 1845 1984 2072
2890.0 2096 2052 2007 2014 2035 2103 2206 2318 2407 2456
2930.0 2482 2565 2737 2991 3206 3312 3284 3134 2811 2306
2970.0 1904 1580 1320 1147 1049 1067 1188 1473 1870 2128
3010.0 2093 1927 1614 1194 1000 984 1033 1109 1170 1215
3050.0 1247 1274 1277 1245 1222 1188 1140 1099 1052 977
3090.0 849 709 586 483 414 356 317 276 229 181
3130.0 150 118 119 112 96 89 87 83 80 84
3170.0 72 66 76 67 64 71 76 64 69 71
3210.0 60 57 65 63 53 59 66 58 64 70
3250.0 69 59 65 58 51 53 49 39 48 38
3290.0 31 53 58 54 57 65 40 41 52 31
3330.0 31 47 39 40 39 50 38 45 28 42
3370.0 50 50 52 52 60 69 65 52 37 39
3410.0 46 58 65 52 51 43 47 50 54 55
3450.0 58 56 58 65 62 64 61 60 46 47
3490.0 68 51 52 55 61 57 54 48 50 38
3530.0 40 46 58 41 47 54 33 48 57 42
3570.0 51 50 75 64 69 66 66 64 71 103
3610.0 111 144 162 187 214 271 352 466 581 745
3650.0 838 797 772 692 659 587 498 441 364 324
3690.0 279 208 182 132 104 106 85 81 68 63
3730.0 53 52 56 25 60 25 47 32 28 44
3770.0 42 35 28 45 42 51 48 41 31 45
3810.0 30 34 30 28 28 47 41 31 37 47
3850.0 45 39 43 62 54 35 31 44 45 35
3890.0 49 67 22 78 52 70 55 29 28 73
3930.0 45 61 83 64 66 42 91 80 83 53
##END=
