##TITLE=Ethyl 2-bromodecanoate
##JCAMP-DX=4.24
##DATA TYPE=INFRARED SPECTRUM
##ORIGIN=Sadtler Research Labs Under US-EPA Contract
##OWNER=NIST Standard Reference Data Program
##CAS REGISTRY NO=6974-85-2
##MOLFORM=C 12 H 23 Br O 2
##XUNITS=1/CM
##YUNITS=ABSORBANCE
##XFACTOR=1.0
##YFACTOR=0.000082227
##DELTAX=4.0
##FIRSTX=450.0
##LASTX=3966.0
##FIRSTY=0.002302
##MAXX=3966
##MINX=450
##MAXY=0.82227
##MINY=0
##NPOINTS=880
##XYDATA=(X++(Y..Y))
450.0 28 90 190 50 146 46 185 53 196 130
490.0 55 86 71 170 22 150 72 119 63 110
530.0 79 38 9 135 124 59 154 54 96 64
570.0 100 62 70 67 66 101 182 167 126 178
610.0 148 142 105 123 82 17 129 119 140 110
650.0 137 152 189 271 278 434 373 417 340 317
690.0 269 238 200 176 219 219 271 272 305 259
730.0 276 254 218 232 217 221 180 219 179 197
770.0 179 163 165 169 242 196 202 165 157 130
810.0 140 126 113 117 106 110 113 140 141 209
850.0 232 299 353 366 350 281 226 159 160 135
890.0 130 144 163 172 165 183 174 197 182 206
930.0 196 209 217 219 212 202 201 172 179 160
970.0 163 157 159 162 174 218 251 308 371 482
1010.0 614 780 1013 1270 1526 1730 1859 1864 1840 1750
1050.0 1624 1442 1271 1119 977 897 824 796 773 825
1090.0 905 1039 1190 1295 1366 1438 1572 1667 1746 1824
1130.0 2030 2460 3164 4151 5122 5578 5213 4477 3788 3330
1170.0 3015 2800 2647 2502 2405 2329 2319 2331 2386 2424
1210.0 2483 2504 2494 2483 2495 2550 2621 2767 2948 3220
1250.0 3545 3896 4170 4253 4122 3759 3353 2924 2597 2319
1290.0 2123 1993 1920 1890 1819 1703 1523 1384 1256 1170
1330.0 1126 1148 1200 1220 1225 1157 1069 961 927 1067
1370.0 1375 1597 1516 1236 951 755 632 567 498 450
1410.0 404 383 373 374 406 478 612 771 915 1004
1450.0 1106 1209 1309 1402 1413 1340 1124 872 629 469
1490.0 348 269 219 183 156 131 126 105 98 90
1530.0 92 80 71 71 67 69 61 65 61 58
1570.0 55 51 58 54 62 44 54 48 54 43
1610.0 51 50 39 42 42 40 37 50 38 56
1650.0 52 67 70 60 75 72 83 94 112 125
1690.0 151 181 218 278 343 436 502 606 717 897
1730.0 1134 1534 2165 3155 4734 6528 7756 7592 6231 4301
1770.0 2895 2081 1563 1185 905 704 545 427 336 271
1810.0 215 181 157 129 109 92 83 69 65 58
1850.0 61 57 60 56 58 55 53 57 60 64
1890.0 61 61 61 60 56 48 46 42 42 43
1930.0 38 39 35 35 35 36 34 44 31 32
1970.0 36 36 36 38 36 40 45 46 51 52
2010.0 53 51 46 48 43 47 44 46 46 49
2050.0 53 47 51 45 37 31 32 32 39 47
2090.0 53 55 58 56 50 53 43 50 40 41
2130.0 44 39 35 36 40 39 39 43 39 38
2170.0 40 37 36 38 34 38 31 31 37 34
2210.0 32 32 39 36 36 32 32 33 36 36
2250.0 37 41 33 36 37 39 35 31 26 27
2290.0 26 17 15 8 14 0 16 13 28 13
2330.0 32 25 22 44 23 7 23 17 6 12
2370.0 1 1 13 12 19 29 38 41 46 43
2410.0 44 38 37 44 40 35 40 39 30 36
2450.0 36 31 34 34 36 36 38 41 39 37
2490.0 28 37 37 41 28 30 36 37 37 34
2530.0 31 30 30 31 31 22 22 27 22 18
2570.0 13 13 19 20 19 25 24 28 36 39
2610.0 42 43 38 37 37 29 42 43 37 47
2650.0 47 61 66 80 73 70 67 70 69 72
2690.0 83 79 77 83 84 77 77 83 89 104
2730.0 103 113 116 123 124 126 127 129 132 131
2770.0 135 145 161 157 171 185 200 215 245 259
2810.0 277 305 327 375 433 492 549 622 738 923
2850.0 1235 1741 2567 3488 4002 3919 3427 2937 2723 2602
2890.0 2387 2202 2205 2434 2779 3221 3734 4470 5487 7084
2930.0 8910 10000 9872 8836 7577 6207 5166 4706 4892 5255
2970.0 5310 4591 3579 2988 2929 2798 2373 1903 1592 1338
3010.0 1124 929 755 620 529 451 404 352 306 278
3050.0 242 213 205 186 162 164 161 143 141 158
3090.0 133 112 130 117 118 115 116 109 94 124
3130.0 108 100 99 112 107 106 110 104 119 103
3170.0 117 95 103 103 95 99 81 95 91 100
3210.0 87 102 93 82 96 91 84 81 93 80
3250.0 100 73 83 62 71 67 49 40 39 53
3290.0 31 48 42 43 42 21 29 33 0 10
3330.0 31 38 21 29 24 23 13 12 4 14
3370.0 21 32 44 26 23 14 29 1 20 23
3410.0 11 35 13 10 20 31 10 16 13 36
3450.0 44 34 13 26 41 28 48 46 62 70
3490.0 80 53 60 48 50 40 29 26 24 48
3530.0 26 24 28 30 23 19 22 12 35 48
3570.0 74 96 102 85 62 60 71 62 27 74
3610.0 59 63 72 53 46 49 62 53 63 40
3650.0 71 51 62 86 83 85 62 49 59 84
3690.0 84 71 90 57 75 54 57 58 74 53
3730.0 84 55 56 35 83 84 71 101 74 77
3770.0 62 83 64 59 83 62 65 71 65 66
3810.0 66 82 73 64 61 60 57 84 43 81
3850.0 89 109 93 73 104 81 22 23 60 72
3890.0 92 83 92 83 107 119 69 98 77 57
3930.0 122 57 80 66 76 85 128 101 103 75
##END=
