##TITLE=2-Butene, 1,4-dibromo-
##JCAMP-DX=4.24
##DATA TYPE=INFRARED SPECTRUM
##ORIGIN=Sadtler Research Labs Under US-EPA Contract
##OWNER=NIST Standard Reference Data Program
##CAS REGISTRY NO=6974-12-5
##MOLFORM=C 4 H 6 Br 2
##XUNITS=1/CM
##YUNITS=ABSORBANCE
##XFACTOR=1.0
##YFACTOR=0.000051538
##DELTAX=4.0
##FIRSTX=450.0
##LASTX=3966.0
##FIRSTY=0.021801
##MAXX=3966
##MINX=450
##MAXY=0.51538
##MINY=0
##NPOINTS=880
##XYDATA=(X++(Y..Y))
450.0 423 135 65 7 95 108 227 196 100 208
490.0 134 90 170 209 256 202 345 402 300 261
530.0 304 298 448 467 604 651 744 964 1214 1510
570.0 1789 1841 1819 1545 1363 1247 1147 1274 1334 1546
610.0 1820 2112 2508 2857 3201 3304 3068 2991 2986 2837
650.0 2536 2086 1653 1345 1157 1069 846 822 752 756
690.0 770 785 788 851 819 886 863 908 981 1078
730.0 1131 1151 1224 1266 1292 1433 1387 1363 1350 1528
770.0 1480 1392 1220 1028 888 720 644 532 452 451
810.0 452 461 467 428 446 457 441 445 470 493
850.0 520 532 524 558 599 631 688 700 681 684
890.0 624 609 610 590 669 797 832 1054 1603 2096
930.0 2245 2200 1806 1614 1781 2039 2421 2678 2691 2449
970.0 2047 1719 1529 1317 1150 934 791 714 635 619
1010.0 608 548 536 513 513 530 522 542 548 569
1050.0 590 595 598 592 625 683 734 798 793 793
1090.0 753 689 666 634 706 816 827 785 729 779
1130.0 934 1111 1297 1356 1290 1094 909 867 818 893
1170.0 1004 1053 1203 1332 1571 2125 3263 5508 8270 10000
1210.0 9252 6842 4946 4075 3406 2915 2524 2180 1892 1665
1250.0 1405 1172 1170 1352 1504 1558 1383 1248 1197 1200
1290.0 1158 1145 1132 1204 1324 1390 1357 1187 904 654
1330.0 534 440 413 371 334 344 337 344 362 323
1370.0 342 328 326 339 350 354 332 306 323 389
1410.0 506 576 770 891 1043 1203 1340 1462 1574 1564
1450.0 1319 1155 915 804 602 521 391 307 263 231
1490.0 229 168 172 131 104 167 116 141 110 117
1530.0 133 74 155 68 146 110 63 106 74 118
1570.0 121 116 171 105 144 103 136 126 149 148
1610.0 107 185 176 214 221 247 275 292 280 274
1650.0 279 215 241 183 251 181 226 165 165 130
1690.0 169 158 138 197 257 334 320 389 397 420
1730.0 407 293 319 265 296 267 242 200 221 193
1770.0 199 198 151 168 141 134 158 148 148 130
1810.0 149 134 136 116 120 154 133 183 147 177
1850.0 165 167 188 187 197 151 116 105 77 72
1890.0 58 64 69 64 57 58 51 68 59 60
1930.0 53 68 50 64 69 60 56 53 47 58
1970.0 51 39 66 32 52 50 62 42 36 43
2010.0 39 40 55 53 68 62 43 32 44 48
2050.0 47 36 33 56 60 39 36 65 45 43
2090.0 44 54 40 44 34 42 43 42 27 44
2130.0 43 38 37 31 34 48 45 43 50 33
2170.0 46 40 40 39 51 40 40 47 35 40
2210.0 48 31 54 49 48 58 55 66 73 64
2250.0 68 64 61 53 70 79 72 86 71 81
2290.0 80 83 86 84 67 106 96 110 109 104
2330.0 118 99 122 47 156 74 124 21 197 246
2370.0 77 151 104 88 94 82 82 74 113 93
2410.0 95 83 66 72 91 47 43 67 37 77
2450.0 52 43 14 35 39 50 14 43 37 34
2490.0 50 50 51 26 34 65 58 43 26 52
2530.0 47 51 33 44 40 45 48 53 43 48
2570.0 48 51 48 49 50 57 53 46 52 57
2610.0 60 62 59 72 67 80 83 102 109 132
2650.0 150 148 142 131 134 114 99 97 97 97
2690.0 92 91 89 77 93 94 103 107 89 114
2730.0 107 110 105 112 98 115 107 98 95 93
2770.0 83 96 84 96 100 103 93 113 122 133
2810.0 124 136 146 170 162 189 224 259 290 348
2850.0 383 431 472 505 527 539 529 515 487 486
2890.0 459 459 470 474 524 544 561 570 605 647
2930.0 709 774 856 936 1030 1124 1228 1341 1525 1755
2970.0 1952 2094 2149 2078 1872 1597 1339 1142 1008 919
3010.0 873 874 878 891 870 857 890 929 992 1050
3050.0 991 869 768 635 516 434 360 328 304 308
3090.0 346 394 423 429 386 341 241 185 140 136
3130.0 118 111 110 103 91 96 89 92 77 101
3170.0 98 91 105 80 84 82 80 90 87 83
3210.0 89 101 88 90 88 87 89 95 99 100
3250.0 101 89 82 98 101 109 103 81 93 97
3290.0 107 105 100 102 110 107 94 108 97 94
3330.0 98 110 107 107 101 101 119 106 110 102
3370.0 96 100 100 103 109 111 114 102 109 111
3410.0 106 117 114 114 103 119 106 103 102 105
3450.0 105 110 104 119 106 103 116 101 115 113
3490.0 117 115 111 114 116 93 119 116 118 115
3530.0 121 94 113 108 116 105 117 113 141 111
3570.0 154 120 149 132 156 126 154 128 123 131
3610.0 131 170 129 171 90 170 94 144 88 137
3650.0 58 183 74 143 123 69 197 16 166 77
3690.0 149 91 125 113 112 107 128 94 167 100
3730.0 146 151 99 231 0 264 11 222 102 156
3770.0 152 118 158 164 95 177 97 172 90 183
3810.0 134 180 119 99 162 146 118 143 97 181
3850.0 82 217 97 121 153 114 179 133 167 130
3890.0 182 109 196 60 159 169 122 190 76 164
3930.0 114 167 130 153 160 99 162 136 107 117
##END=
