##TITLE=Propane, 1-bromo-3-chloro-2-methyl-
##JCAMP-DX=4.24
##DATA TYPE=INFRARED SPECTRUM
##ORIGIN=Sadtler Research Labs Under US-EPA Contract
##OWNER=NIST Standard Reference Data Program
##CAS REGISTRY NO=6974-77-2
##MOLFORM=C 4 H 8 Br Cl
##XUNITS=1/CM
##YUNITS=ABSORBANCE
##XFACTOR=1.0
##YFACTOR=0.000044971
##DELTAX=4.0
##FIRSTX=450.0
##LASTX=3966.0
##FIRSTY=0.008230
##MAXX=3966
##MINX=450
##MAXY=0.44971
##MINY=0
##NPOINTS=880
##XYDATA=(X++(Y..Y))
450.0 183 147 94 198 178 192 226 192 260 382
490.0 462 267 480 301 446 306 257 194 58 101
530.0 48 81 26 32 3 25 15 55 19 72
570.0 100 257 93 82 188 119 165 223 312 402
610.0 538 730 911 1112 1241 1463 1550 1560 1469 1557
650.0 1598 1875 2447 2688 2712 2138 1510 645 617 598
690.0 907 1488 2108 2495 2668 2776 2300 2011 1877 1861
730.0 2297 3048 3800 4192 4095 3952 3617 2807 2305 1834
770.0 1133 664 582 516 449 461 584 830 1160 1538
810.0 1750 1914 1807 1565 1166 943 852 939 1064 1264
850.0 1525 1629 1602 1402 1207 788 504 460 509 611
890.0 728 868 784 747 596 439 334 325 383 534
930.0 852 1268 1778 2176 2443 2426 2260 1880 1319 784
970.0 480 330 234 171 145 141 106 107 68 107
1010.0 60 81 83 96 123 132 163 164 222 238
1050.0 265 272 290 284 282 249 207 199 166 180
1090.0 185 214 231 286 313 328 341 347 331 311
1130.0 340 340 368 395 432 447 453 447 406 361
1170.0 297 277 255 290 318 373 386 422 477 553
1210.0 694 945 1397 2214 3540 4484 5056 5465 5352 4796
1250.0 4574 4275 4160 4166 3971 3999 3637 2881 2278 1844
1290.0 1521 1283 1141 1141 1408 1896 2499 2935 3023 2751
1330.0 2326 1835 1614 1560 1410 1235 918 649 543 609
1370.0 831 1220 1782 2106 2271 2377 1973 1336 886 542
1410.0 403 363 450 640 1060 1961 2982 3996 4402 4332
1450.0 3958 3483 3337 3289 2963 2505 2020 1455 984 624
1490.0 416 283 226 174 163 155 130 125 123 112
1530.0 101 95 104 123 106 102 95 100 93 71
1570.0 71 67 73 68 69 74 89 87 88 79
1610.0 88 101 101 104 105 110 95 98 86 93
1650.0 92 95 88 89 93 84 96 75 89 81
1690.0 70 66 77 67 52 53 52 67 48 43
1730.0 52 60 67 67 76 97 108 107 137 125
1770.0 129 113 102 84 67 64 58 67 57 50
1810.0 38 42 29 39 30 28 36 28 26 29
1850.0 29 23 25 22 26 27 27 30 27 32
1890.0 21 31 20 29 34 23 24 29 25 15
1930.0 27 26 35 20 21 23 19 14 9 4
1970.0 2 12 8 13 0 13 5 9 14 8
2010.0 8 18 22 15 19 19 31 32 41 44
2050.0 54 59 52 47 54 67 59 56 46 41
2090.0 27 17 21 13 21 24 30 21 22 25
2130.0 30 28 27 36 31 36 46 48 41 42
2170.0 42 37 28 40 42 41 42 44 55 38
2210.0 40 29 32 27 31 31 32 50 40 48
2250.0 50 58 71 75 75 80 90 91 100 95
2290.0 98 93 91 91 78 70 71 66 69 70
2330.0 62 42 48 47 50 50 34 47 54 54
2370.0 66 68 76 64 68 51 59 52 54 51
2410.0 52 53 43 58 46 67 57 66 58 82
2450.0 70 64 83 63 75 60 52 50 68 50
2490.0 49 44 55 71 58 64 46 53 49 45
2530.0 49 50 52 45 51 51 42 50 61 43
2570.0 38 38 50 27 28 34 34 31 18 30
2610.0 23 14 19 29 30 23 18 16 25 17
2650.0 9 12 31 47 62 106 101 99 96 79
2690.0 82 87 60 88 76 116 107 108 124 95
2730.0 89 88 96 119 125 122 117 120 125 120
2770.0 98 91 80 101 96 92 113 109 136 139
2810.0 181 167 179 191 251 270 311 358 372 411
2850.0 477 570 700 837 1027 1268 1537 1835 2154 2433
2890.0 2680 2859 2769 2572 2361 2010 1815 1650 1589 1717
2930.0 1944 2270 2720 3229 3672 4256 4945 5788 6749 7781
2970.0 9651 10000 9965 9470 8127 6578 5314 4399 3465 2620
3010.0 2134 1815 1393 1020 849 622 461 349 257 246
3050.0 227 209 200 216 215 200 215 207 204 200
3090.0 189 182 193 181 169 163 184 192 168 163
3130.0 165 173 193 162 152 158 173 166 169 143
3170.0 196 182 178 176 178 172 191 152 131 128
3210.0 123 124 67 82 94 110 71 111 89 126
3250.0 56 133 106 70 97 93 92 138 110 104
3290.0 110 101 89 139 3 99 131 103 107 62
3330.0 94 123 126 129 125 100 77 72 134 66
3370.0 109 121 90 87 105 82 119 130 130 87
3410.0 81 101 69 124 76 127 118 93 150 114
3450.0 127 100 104 120 154 163 106 127 70 95
3490.0 95 165 136 165 140 99 170 174 134 121
3530.0 124 135 172 125 136 100 110 137 197 110
3570.0 149 190 123 233 182 202 202 210 139 250
3610.0 167 182 186 197 209 178 200 188 237 170
3650.0 104 202 194 212 266 305 225 258 251 195
3690.0 256 273 290 203 314 339 256 225 198 333
3730.0 325 293 188 259 301 372 248 360 288 320
3770.0 195 336 341 276 301 295 328 309 392 290
3810.0 251 292 335 288 275 318 325 367 283 263
3850.0 258 350 331 430 339 314 275 188 379 235
3890.0 291 223 315 274 343 340 284 318 288 372
3930.0 336 383 383 249 297 311 183 351 417 476
##END=
