##TITLE=Phenol, 3-ethyl-5-methyl-
##JCAMP-DX=4.24
##DATA TYPE=INFRARED SPECTRUM
##ORIGIN=Sadtler Research Labs Under US-EPA Contract
##OWNER=NIST Standard Reference Data Program
##CAS REGISTRY NO=698-71-5
##MOLFORM=C 9 H 12 O
##XUNITS=1/CM
##YUNITS=ABSORBANCE
##XFACTOR=1.0
##YFACTOR=0.000060498
##DELTAX=4.0
##FIRSTX=450.0
##LASTX=3966.0
##FIRSTY=0.012160
##MAXX=3966
##MINX=450
##MAXY=0.60498
##MINY=0
##NPOINTS=880
##XYDATA=(X++(Y..Y))
450.0 201 195 151 130 218 411 526 527 580 638
490.0 684 752 701 442 348 364 361 220 290 406
530.0 343 403 318 318 329 474 413 270 272 442
570.0 432 419 510 301 374 207 213 276 108 233
610.0 242 152 250 291 93 155 58 64 141 35
650.0 118 76 138 133 228 735 736 1216 1639 2367
690.0 2313 1697 1272 838 610 334 229 59 107 124
730.0 139 91 47 77 123 104 54 70 157 153
770.0 107 139 124 85 210 184 208 315 258 382
810.0 588 817 1150 1466 2161 2457 2366 2722 2854 2907
850.0 2140 1982 1790 1282 1166 987 765 659 649 692
890.0 877 1103 1313 1335 1225 984 686 458 369 343
930.0 338 339 461 718 1163 1700 2141 2240 2294 2199
970.0 1600 1207 1046 989 1005 900 932 954 920 1036
1010.0 1068 1048 1092 1081 1025 890 744 669 739 623
1050.0 722 775 915 959 906 859 749 634 576 511
1090.0 520 527 549 600 628 688 802 960 1222 1645
1130.0 2305 3396 4935 6866 8296 8617 8847 8093 6128 4784
1170.0 4279 3898 4073 4726 5041 4843 4602 3683 2451 1649
1210.0 1231 1009 945 941 1027 1214 1426 1738 1976 2051
1250.0 2069 1987 1885 1839 1964 2160 2477 3041 3716 4370
1290.0 4722 4792 4613 4019 3391 3036 2804 2626 2568 2603
1330.0 2626 2512 2240 1833 1359 904 589 407 336 324
1370.0 345 413 505 592 596 660 667 677 709 733
1410.0 814 872 970 1125 1309 1636 2082 2670 3287 3853
1450.0 4113 4204 4006 3491 3114 2831 2616 2442 2333 2183
1490.0 2077 1904 1766 1600 1486 1313 1118 974 884 861
1530.0 871 913 930 978 964 981 997 1100 1258 1533
1570.0 1990 2668 3575 4529 5556 6584 7531 8293 8985 9615
1610.0 10000 9564 8293 6437 4594 2974 1829 1152 813 677
1650.0 570 506 427 400 379 370 330 335 338 341
1690.0 312 319 354 386 403 421 438 445 427 387
1730.0 362 320 231 211 177 151 110 102 102 86
1770.0 72 79 75 55 63 59 69 52 70 45
1810.0 44 37 36 33 54 40 32 29 40 42
1850.0 38 44 44 44 44 43 37 37 30 32
1890.0 37 46 41 37 45 44 37 44 13 22
1930.0 13 10 20 19 24 21 17 27 18 12
1970.0 3 11 4 4 4 4 4 4 7 15
2010.0 3 10 11 12 20 19 27 29 28 22
2050.0 27 26 26 21 11 11 13 11 3 12
2090.0 23 26 36 43 64 72 75 71 61 51
2130.0 36 36 27 28 32 32 26 36 48 47
2170.0 49 44 38 44 43 36 24 12 17 34
2210.0 18 19 10 10 20 17 26 35 19 26
2250.0 27 35 28 31 35 34 44 50 49 58
2290.0 67 67 92 92 126 142 132 167 165 167
2330.0 188 210 174 184 189 198 238 226 279 233
2370.0 216 173 141 116 84 44 42 26 26 27
2410.0 27 28 37 54 58 64 83 96 116 130
2450.0 124 132 116 116 106 104 89 85 84 77
2490.0 57 59 51 34 27 25 25 10 15 19
2530.0 12 9 0 8 23 17 0 2 2 18
2570.0 2 3 7 1 10 23 24 28 21 30
2610.0 35 24 26 25 10 14 25 24 28 7
2650.0 13 8 1 8 0 0 1 1 0 16
2690.0 1 1 0 12 11 18 32 35 67 83
2730.0 93 135 159 193 208 214 173 155 133 124
2770.0 125 134 145 154 195 180 181 210 200 205
2810.0 217 225 256 295 326 382 448 523 600 686
2850.0 825 1005 1261 1555 1916 2259 2539 2794 2901 2999
2890.0 2918 2774 2735 2683 2723 2807 2947 3217 3634 4192
2930.0 4735 5252 5664 5695 5225 4669 4113 3743 3941 5045
2970.0 6282 6868 6543 5846 4170 2828 2254 2096 2120 2250
3010.0 2417 2605 2797 3028 3159 3116 2971 2706 2299 1903
3050.0 1595 1358 1165 1012 849 720 615 535 451 391
3090.0 354 302 296 265 225 208 191 183 151 128
3130.0 112 90 99 84 85 103 89 91 91 100
3170.0 91 90 78 59 48 37 30 20 24 22
3210.0 31 23 31 7 25 31 27 36 40 43
3250.0 35 14 18 20 12 20 21 12 15 15
3290.0 36 25 14 17 16 14 35 23 33 33
3330.0 58 59 70 83 84 86 75 63 84 60
3370.0 69 79 63 63 63 60 67 40 42 27
3410.0 38 50 63 39 60 43 42 53 26 36
3450.0 44 49 43 56 14 18 10 19 12 0
3490.0 48 31 3 0 47 37 31 27 27 28
3530.0 42 49 22 29 45 44 65 81 89 89
3570.0 62 55 41 45 47 75 73 82 82 84
3610.0 93 111 142 200 308 561 975 1771 3124 4732
3650.0 5492 5412 4890 3589 1864 827 366 221 119 84
3690.0 74 77 43 42 35 43 44 53 65 49
3730.0 39 62 50 47 62 75 90 72 64 58
3770.0 70 50 39 57 63 80 68 64 99 99
3810.0 79 85 102 95 105 113 122 122 142 117
3850.0 123 128 115 114 122 140 156 129 125 127
3890.0 163 134 132 148 125 113 135 129 119 120
3930.0 122 137 157 160 162 174 30 41 43 42
##END=
