##TITLE=Benzeneethanol, 4-methyl-
##JCAMP-DX=4.24
##DATA TYPE=INFRARED SPECTRUM
##ORIGIN=Sadtler Research Labs Under US-EPA Contract
##OWNER=NIST Standard Reference Data Program
##CAS REGISTRY NO=699-02-5
##MOLFORM=C 9 H 12 O
##XUNITS=1/CM
##YUNITS=ABSORBANCE
##XFACTOR=1.0
##YFACTOR=0.000059515
##DELTAX=4.0
##FIRSTX=450.0
##LASTX=3966.0
##FIRSTY=0.038745
##MAXX=3966
##MINX=450
##MAXY=0.59515
##MINY=0
##NPOINTS=880
##XYDATA=(X++(Y..Y))
450.0 651 587 734 729 931 1022 1009 1035 1089 1128
490.0 1256 1221 1038 915 748 656 569 501 484 526
530.0 579 728 915 1150 1383 1541 1686 1498 1188 860
570.0 621 403 309 229 210 183 170 146 121 103
610.0 100 87 95 92 91 73 86 84 77 61
650.0 52 31 48 51 1 66 55 28 40 68
690.0 56 84 93 137 184 228 273 294 289 278
730.0 272 236 225 234 281 375 435 491 511 534
770.0 579 650 830 1125 1590 2200 2951 3665 4192 4198
810.0 3673 2898 2099 1426 970 710 603 541 522 480
850.0 433 382 387 363 352 331 275 253 215 190
890.0 168 175 162 160 174 197 238 299 383 474
930.0 553 617 657 641 597 551 497 461 453 465
970.0 502 548 613 696 800 940 1146 1432 1752 2034
1010.0 2323 2745 3271 3778 4562 5543 6765 8266 9388 10000
1050.0 9770 8913 7937 6695 5364 4040 2961 2171 1651 1347
1090.0 1194 1132 1139 1197 1275 1350 1377 1351 1270 1182
1130.0 1062 955 857 762 691 637 626 637 679 720
1170.0 754 777 796 810 839 900 973 1036 1104 1176
1210.0 1189 1137 1061 956 864 842 854 849 836 802
1250.0 776 767 773 778 780 763 740 719 705 695
1290.0 693 702 723 735 767 787 821 847 894 943
1330.0 1004 1067 1097 1132 1144 1104 1064 1047 1099 1249
1370.0 1461 1742 2099 2447 2582 2546 2277 1853 1529 1329
1410.0 1218 1186 1151 1190 1210 1223 1204 1201 1186 1107
1450.0 1019 952 859 851 870 943 938 937 946 922
1490.0 901 1008 1209 1617 2361 3460 4327 4366 3902 2743
1530.0 1521 776 505 337 278 253 206 163 169 173
1570.0 164 161 179 170 183 172 171 156 169 166
1610.0 184 207 234 252 282 302 305 264 253 201
1650.0 147 106 115 77 76 60 45 48 36 16
1690.0 35 37 19 10 24 32 23 4 35 50
1730.0 49 51 63 73 51 48 68 72 74 91
1770.0 95 104 167 221 281 263 237 161 91 64
1810.0 42 41 42 41 39 35 44 58 49 52
1850.0 66 82 86 98 113 134 205 266 341 406
1890.0 443 450 439 387 315 255 198 157 122 110
1930.0 92 77 74 55 52 59 59 62 65 56
1970.0 57 58 60 60 66 58 58 65 59 62
2010.0 64 61 56 62 68 72 76 81 84 92
2050.0 99 97 100 98 94 92 88 88 79 79
2090.0 73 71 64 60 52 43 42 40 30 25
2130.0 24 27 27 24 21 16 15 10 11 6
2170.0 8 4 3 7 7 7 14 14 8 15
2210.0 12 11 8 7 2 8 5 10 13 9
2250.0 11 13 12 8 8 10 15 19 23 30
2290.0 33 46 51 70 66 67 55 55 35 26
2330.0 6 3 20 0 42 21 10 2 2 2
2370.0 2 12 31 42 48 44 44 39 44 44
2410.0 50 49 47 50 46 50 51 50 45 44
2450.0 42 41 38 37 37 40 41 39 41 36
2490.0 34 36 42 32 34 42 37 40 39 39
2530.0 40 44 39 33 36 24 29 29 34 31
2570.0 36 41 50 65 75 77 85 81 74 76
2610.0 67 72 72 67 74 79 88 101 108 104
2650.0 109 99 104 99 105 110 116 121 124 125
2690.0 128 135 137 146 150 161 174 190 216 239
2730.0 270 312 365 402 419 413 367 330 318 308
2770.0 310 305 307 317 325 334 347 369 391 415
2810.0 449 476 519 566 634 718 820 948 1113 1315
2850.0 1568 1862 2247 2747 3390 4172 4966 5591 5850 5746
2890.0 5268 4731 4284 4093 4119 4423 4988 5760 6690 7653
2930.0 8496 8893 8909 8513 7819 6995 6339 5833 5411 4959
2970.0 4374 3787 3177 2707 2506 2502 2583 2740 2935 3139
3010.0 3359 3683 4252 4961 5311 5180 4719 3783 3063 2899
3050.0 2905 2904 2801 2586 2266 1896 1567 1315 1153 1053
3090.0 981 915 843 753 652 545 437 352 300 279
3130.0 257 266 263 236 199 150 104 72 48 39
3170.0 34 29 19 16 18 19 10 8 14 16
3210.0 4 9 10 14 20 16 14 10 11 5
3250.0 9 2 14 10 6 6 10 15 8 3
3290.0 14 11 14 16 11 14 37 30 42 43
3330.0 43 46 34 40 39 23 22 25 29 33
3370.0 36 31 41 34 23 19 27 29 38 36
3410.0 31 36 38 33 35 38 34 37 39 49
3450.0 32 35 41 48 41 46 47 45 49 51
3490.0 46 55 53 45 44 49 36 29 35 23
3530.0 36 41 47 39 46 48 64 79 74 79
3570.0 74 77 77 87 103 86 98 85 110 156
3610.0 199 278 480 828 1115 1300 1286 1083 900 756
3650.0 805 1003 1156 1373 1470 1491 1325 1127 842 570
3690.0 409 302 264 209 172 153 129 105 98 69
3730.0 77 63 72 45 112 41 71 52 47 37
3770.0 31 39 38 34 46 28 29 36 11 54
3810.0 41 36 47 41 50 30 28 52 55 52
3850.0 59 87 68 52 45 48 37 58 43 59
3890.0 35 42 45 72 65 57 38 33 59 49
3930.0 60 75 33 57 24 2 7 17 12 15
##END=
