##TITLE=Benzenesulfonamide, 4-methyl-
##JCAMP-DX=4.24
##DATA TYPE=INFRARED SPECTRUM
##ORIGIN=Sadtler Research Labs Under US-EPA Contract
##OWNER=NIST Standard Reference Data Program
##CAS REGISTRY NO=70-55-3
##MOLFORM=C 7 H 9 N O 2 S
##XUNITS=1/CM
##YUNITS=ABSORBANCE
##XFACTOR=1.0
##YFACTOR=0.000042557
##DELTAX=4.0
##FIRSTX=450.0
##LASTX=3966.0
##FIRSTY=0.000000
##MAXX=3966
##MINX=450
##MAXY=0.42557
##MINY=0
##NPOINTS=880
##XYDATA=(X++(Y..Y))
450.0 0 804 709 974 676 949 743 946 841 998
490.0 938 977 961 999 1004 941 1169 1070 1356 1528
530.0 2014 2420 3076 3918 4498 5052 4823 4429 3190 2365
570.0 1827 1487 1418 1346 1262 1245 1252 1147 1154 1082
610.0 1148 1140 1242 1259 1308 1263 1287 1533 1998 2913
650.0 3801 4333 4485 3621 2949 2108 1844 1650 1524 1419
690.0 1331 1332 1323 1341 1325 1341 1295 1279 1241 1255
730.0 1208 1228 1178 1185 1184 1150 1164 1149 1142 1158
770.0 1186 1199 1267 1331 1396 1486 1615 1811 2073 2305
810.0 2556 2693 2493 2311 2156 2154 2282 2569 2988 3417
850.0 3760 3870 3790 3379 2890 2377 1954 1626 1368 1221
890.0 1087 1031 961 910 863 811 792 759 738 711
930.0 711 683 664 649 648 629 614 619 592 604
970.0 590 582 584 581 583 571 585 576 584 578
1010.0 616 705 746 750 733 679 627 633 627 643
1050.0 636 652 646 657 684 724 788 866 1004 1172
1090.0 1412 1617 1760 1729 1573 1328 1110 962 866 808
1130.0 755 759 768 848 971 1190 1590 2343 3776 6186
1170.0 8921 10000 9641 7441 4580 2772 1958 1464 1242 1128
1210.0 1074 1025 958 883 815 765 716 689 678 665
1250.0 672 673 685 709 735 748 772 781 772 772
1290.0 772 784 795 824 822 818 814 783 785 785
1330.0 843 907 1023 1180 1405 1692 2076 2591 3262 4182
1370.0 5186 6152 6620 6657 6125 5138 3983 2960 2264 1787
1410.0 1468 1295 1135 1046 935 900 814 805 754 755
1450.0 731 741 754 733 762 756 785 762 813 865
1490.0 966 1085 1131 1135 1089 971 889 899 907 978
1530.0 1016 1130 1257 1431 1549 1666 1652 1634 1391 1247
1570.0 1055 973 882 838 852 898 957 1040 1068 1042
1610.0 976 863 773 686 662 628 617 616 606 612
1650.0 608 599 563 546 537 530 539 509 527 521
1690.0 517 513 522 519 506 501 500 509 497 502
1730.0 511 510 517 517 520 536 550 541 540 521
1770.0 524 511 518 520 530 542 574 560 544 527
1810.0 508 491 485 486 485 493 479 484 477 484
1850.0 482 482 489 490 493 494 498 500 509 510
1890.0 525 533 543 557 571 584 583 577 562 547
1930.0 526 507 504 501 501 490 485 487 494 492
1970.0 495 495 492 486 478 480 481 474 479 479
2010.0 481 477 478 483 479 477 479 481 481 480
2050.0 477 475 481 480 479 480 479 479 482 484
2090.0 487 485 486 485 490 491 493 497 491 487
2130.0 484 480 484 481 483 486 483 484 485 483
2170.0 481 481 484 487 486 488 490 494 489 488
2210.0 484 482 481 482 486 481 482 484 486 487
2250.0 491 501 505 509 515 513 518 513 514 504
2290.0 508 511 507 508 514 509 507 505 504 500
2330.0 510 506 492 504 502 517 523 520 520 502
2370.0 511 507 504 504 503 505 507 508 510 508
2410.0 501 501 494 493 493 490 491 495 491 490
2450.0 494 493 492 497 496 495 495 498 497 497
2490.0 494 490 494 496 489 497 499 501 506 506
2530.0 510 516 525 526 524 524 518 518 519 508
2570.0 506 515 507 519 512 511 514 521 513 510
2610.0 509 506 504 503 501 495 491 490 489 486
2650.0 492 484 488 490 493 496 489 484 489 489
2690.0 493 488 492 494 491 491 481 477 478 480
2730.0 473 473 486 493 504 502 495 481 477 477
2770.0 476 486 491 493 499 495 501 501 502 502
2810.0 502 508 511 510 510 512 511 527 535 544
2850.0 561 585 598 625 665 706 753 772 784 779
2890.0 761 741 729 726 722 734 755 783 848 949
2930.0 1054 1147 1174 1125 1026 910 817 755 715 706
2970.0 697 693 684 691 700 711 727 747 759 766
3010.0 779 797 808 834 895 992 1079 1113 1134 1083
3050.0 1015 979 953 939 925 923 882 837 775 727
3090.0 694 680 666 637 609 590 573 569 552 537
3130.0 521 521 517 510 514 513 513 510 503 509
3170.0 512 510 496 507 501 500 506 501 500 506
3210.0 501 517 497 509 503 507 524 521 521 524
3250.0 519 523 518 524 519 525 528 528 528 520
3290.0 537 540 532 527 530 532 539 538 523 548
3330.0 552 573 604 633 708 800 930 1112 1306 1485
3370.0 1598 1620 1502 1336 1151 981 844 748 676 641
3410.0 611 579 568 567 590 588 602 640 698 748
3450.0 827 904 998 1076 1145 1196 1213 1208 1143 1076
3490.0 992 917 818 746 694 637 611 570 574 550
3530.0 534 520 538 520 518 509 520 517 512 518
3570.0 519 504 501 522 511 512 518 515 513 513
3610.0 531 497 542 524 493 531 491 526 504 520
3650.0 557 539 515 498 504 535 535 522 476 508
3690.0 508 506 490 509 505 509 521 496 508 523
3730.0 521 525 522 535 549 501 522 481 492 476
3770.0 491 482 472 487 497 490 486 495 519 499
3810.0 488 501 496 504 493 530 503 525 495 499
3850.0 510 556 516 505 502 528 494 481 505 507
3890.0 514 515 519 553 512 489 507 512 501 506
3930.0 500 500 495 493 525 525 509 481 533 514
##END=
