##TITLE=Benzene, 1-isocyanato-2-methoxy-
##JCAMP-DX=4.24
##DATA TYPE=INFRARED SPECTRUM
##ORIGIN=Sadtler Research Labs Under US-EPA Contract
##OWNER=NIST Standard Reference Data Program
##CAS REGISTRY NO=700-87-8
##MOLFORM=C 8 H 7 N O 2
##XUNITS=1/CM
##YUNITS=ABSORBANCE
##XFACTOR=1.0
##YFACTOR=0.000122867
##DELTAX=4.0
##FIRSTX=450.0
##LASTX=3966.0
##FIRSTY=0.000000
##MAXX=3966
##MINX=450
##MAXY=1.22867
##MINY=0
##NPOINTS=880
##XYDATA=(X++(Y..Y))
450.0 0 61 72 60 26 72 25 45 30 40
490.0 23 30 52 38 50 73 99 136 144 164
530.0 144 102 70 77 68 68 82 105 134 156
570.0 193 197 210 209 191 198 186 182 161 168
610.0 161 180 205 206 203 242 256 252 243 240
650.0 265 231 220 163 181 286 218 151 192 163
690.0 174 149 143 138 113 113 91 153 184 236
730.0 361 599 808 1129 1547 1255 929 670 390 233
770.0 149 127 112 110 105 94 106 118 144 168
810.0 197 202 198 178 136 101 72 62 49 53
850.0 50 49 51 44 39 30 30 27 28 30
890.0 29 32 36 28 28 39 44 60 83 98
930.0 77 56 45 26 22 19 22 25 30 32
970.0 39 44 53 55 62 67 79 93 116 148
1010.0 199 264 338 421 510 585 644 706 730 673
1050.0 570 437 294 174 128 117 136 177 244 387
1090.0 591 790 816 792 671 425 270 218 219 247
1130.0 263 266 255 225 199 197 217 234 244 258
1170.0 257 246 242 237 231 231 229 218 214 212
1210.0 222 249 279 315 397 526 754 1133 1559 1756
1250.0 1754 1572 1087 688 510 436 428 439 441 429
1290.0 426 428 461 508 515 473 402 294 195 144
1330.0 124 120 107 111 115 115 109 102 100 109
1370.0 107 112 113 120 116 126 136 145 155 154
1410.0 144 143 134 143 171 222 275 312 334 318
1450.0 352 366 461 631 765 845 792 738 570 431
1490.0 378 379 458 616 871 1197 1462 1581 1557 1314
1530.0 1075 805 596 411 315 231 175 122 108 120
1570.0 136 160 206 244 296 371 481 580 609 568
1610.0 501 384 285 214 201 190 191 179 191 183
1650.0 181 138 145 117 100 97 91 90 97 80
1690.0 97 98 96 103 123 133 133 141 149 161
1730.0 159 162 159 167 145 138 137 129 120 107
1770.0 97 72 71 50 55 34 40 31 32 35
1810.0 35 30 29 31 22 29 22 37 27 33
1850.0 35 34 29 30 27 25 35 40 49 48
1890.0 49 45 37 32 30 31 36 43 49 51
1930.0 49 42 32 23 22 19 21 19 23 20
1970.0 22 25 28 29 31 32 31 32 29 30
2010.0 26 29 27 31 34 35 39 43 45 50
2050.0 56 60 65 69 71 75 77 79 82 84
2090.0 82 78 75 73 71 73 74 77 86 94
2130.0 107 123 144 178 220 267 325 385 443 487
2170.0 513 519 518 516 532 569 606 646 691 737
2210.0 808 934 1149 1528 2169 3100 4082 4920 5585 6092
2250.0 6522 7294 8431 9510 10000 9696 8620 6862 5243 4062
2290.0 3316 2727 2206 1743 1451 1328 1188 1155 1197 1190
2330.0 1185 1165 1137 1138 1129 1065 1064 1299 1149 1101
2370.0 914 762 628 504 362 227 161 129 111 101
2410.0 97 95 85 80 67 58 45 42 37 34
2450.0 33 32 30 27 26 23 22 20 22 20
2490.0 21 21 20 20 19 22 24 28 27 32
2530.0 32 32 32 33 35 38 41 42 45 40
2570.0 43 38 37 34 30 32 31 29 29 32
2610.0 32 31 30 30 29 27 25 26 26 24
2650.0 27 25 23 23 23 25 26 30 33 29
2690.0 31 35 35 39 38 38 36 35 33 31
2730.0 31 27 27 29 29 30 32 30 30 29
2770.0 30 33 35 33 32 34 35 40 40 40
2810.0 43 45 53 59 68 83 114 156 213 256
2850.0 270 275 241 189 152 131 122 120 125 128
2890.0 141 158 175 192 206 217 231 247 271 281
2930.0 282 289 316 370 420 442 466 470 445 442
2970.0 413 336 285 238 201 185 184 189 205 243
3010.0 295 319 311 279 226 174 153 151 153 154
3050.0 155 165 187 226 277 319 338 346 330 297
3090.0 265 223 173 133 104 91 79 74 70 64
3130.0 60 59 53 53 50 48 46 46 50 41
3170.0 39 41 45 38 43 40 40 39 39 38
3210.0 36 37 36 36 38 37 41 38 39 38
3250.0 39 40 41 39 38 42 43 43 46 45
3290.0 46 47 51 50 52 51 57 56 60 61
3330.0 69 74 78 79 83 84 87 92 94 91
3370.0 85 83 76 79 75 78 80 79 87 91
3410.0 88 86 86 73 73 64 62 53 50 45
3450.0 43 43 41 41 41 38 39 37 31 34
3490.0 36 40 39 33 39 36 39 37 36 29
3530.0 35 32 35 31 24 26 33 36 26 29
3570.0 23 30 40 33 38 19 39 33 31 38
3610.0 32 29 34 45 42 22 56 48 60 53
3650.0 39 66 58 85 67 67 58 60 89 78
3690.0 76 69 81 65 58 49 36 44 57 46
3730.0 50 35 56 33 49 35 24 54 44 41
3770.0 45 52 56 44 67 49 51 49 39 45
3810.0 52 34 51 26 45 45 39 35 50 40
3850.0 45 26 28 50 39 28 36 50 40 47
3890.0 46 44 54 33 42 46 48 33 34 42
3930.0 36 44 41 47 51 35 40 51 47 45
##END=
