##TITLE=Pyridine, pentafluoro-
##JCAMP-DX=4.24
##DATA TYPE=INFRARED SPECTRUM
##ORIGIN=Sadtler Research Labs Under US-EPA Contract
##OWNER=NIST Standard Reference Data Program
##CAS REGISTRY NO=700-16-3
##MOLFORM=C 5 F 5 N
##XUNITS=1/CM
##YUNITS=ABSORBANCE
##XFACTOR=1.0
##YFACTOR=0.000085645
##DELTAX=4.0
##FIRSTX=450.0
##LASTX=3966.0
##FIRSTY=0.000000
##MAXX=3966
##MINX=450
##MAXY=0.85645
##MINY=0
##NPOINTS=880
##XYDATA=(X++(Y..Y))
450.0 0 45 26 187 11 206 226 391 445 405
490.0 471 271 394 251 309 254 194 246 181 315
530.0 167 452 270 265 311 311 250 164 309 113
570.0 198 52 142 140 324 292 170 288 79 425
610.0 188 228 225 284 342 129 247 117 322 150
650.0 338 218 250 354 109 274 112 291 147 270
690.0 277 333 304 255 305 239 306 223 350 289
730.0 202 282 279 244 189 287 209 211 251 315
770.0 228 207 248 153 173 130 160 201 253 243
810.0 224 196 175 323 234 300 191 205 197 209
850.0 236 169 203 163 149 199 218 269 210 222
890.0 202 227 235 170 198 181 190 190 186 203
930.0 214 212 244 220 228 248 312 462 693 1207
970.0 1850 2585 2819 2700 2221 1355 592 394 407 377
1010.0 361 371 307 349 375 441 428 441 409 453
1050.0 487 429 493 652 1168 2164 3248 3377 3475 2898
1090.0 1539 683 400 458 505 431 425 339 228 131
1130.0 176 160 180 180 181 178 179 230 183 207
1170.0 183 187 201 159 178 162 185 162 177 149
1210.0 202 172 171 187 193 209 133 222 181 212
1250.0 206 208 195 229 306 279 344 372 438 502
1290.0 524 543 440 372 256 295 235 194 198 181
1330.0 188 160 221 174 238 192 255 209 248 231
1370.0 215 285 185 214 147 186 165 213 194 220
1410.0 258 354 574 645 691 656 548 575 463 546
1450.0 519 548 574 479 466 557 1034 1638 3054 5452
1490.0 8522 10000 9883 7961 5069 1939 1250 1588 1988 2240
1530.0 2210 2077 1467 1162 830 615 655 672 672 438
1570.0 388 257 327 295 275 299 228 283 207 260
1610.0 208 270 400 423 611 734 1040 1327 1471 1515
1650.0 1206 891 417 311 206 289 188 216 176 220
1690.0 131 140 239 212 185 111 155 187 136 118
1730.0 131 224 137 197 134 194 140 167 147 136
1770.0 176 153 126 85 128 109 138 101 114 106
1810.0 87 106 90 126 109 135 101 110 104 134
1850.0 143 89 127 116 130 156 115 123 81 103
1890.0 98 110 87 89 82 79 91 103 97 80
1930.0 91 85 92 91 75 88 63 84 75 77
1970.0 66 73 75 73 83 68 92 69 62 67
2010.0 67 70 64 65 64 61 66 68 66 65
2050.0 64 69 70 57 64 61 63 88 71 85
2090.0 88 94 65 60 66 62 78 65 67 51
2130.0 64 56 51 58 54 68 53 64 43 56
2170.0 56 56 59 43 74 57 70 51 57 57
2210.0 55 55 52 56 32 56 50 72 54 49
2250.0 57 39 70 41 69 48 50 40 41 39
2290.0 17 66 24 52 38 57 55 43 89 42
2330.0 95 35 133 13 79 39 52 90 70 123
2370.0 39 90 34 53 39 35 48 32 65 35
2410.0 64 35 55 32 47 51 43 72 30 75
2450.0 43 60 50 61 66 49 73 35 69 34
2490.0 68 40 60 58 45 68 39 77 36 61
2530.0 52 58 72 47 75 41 83 63 87 65
2570.0 83 89 62 104 72 113 75 117 104 75
2610.0 69 56 78 55 76 42 72 62 74 69
2650.0 61 89 67 87 60 91 64 64 63 60
2690.0 88 65 97 61 95 58 74 74 61 64
2730.0 48 70 55 73 48 55 74 60 75 56
2770.0 78 55 82 57 57 61 67 60 57 68
2810.0 65 72 62 50 83 54 58 65 66 60
2850.0 65 75 66 78 71 93 62 82 64 71
2890.0 74 55 66 66 78 67 89 100 84 108
2930.0 103 100 81 110 75 58 77 61 70 47
2970.0 81 50 81 66 50 67 55 62 48 86
3010.0 54 71 77 77 88 57 79 71 98 84
3050.0 85 68 75 82 52 82 52 94 75 100
3090.0 78 81 112 73 101 58 109 66 76 73
3130.0 66 113 75 121 65 92 61 91 90 78
3170.0 101 64 104 50 95 66 122 91 100 111
3210.0 68 122 62 118 76 89 82 75 94 70
3250.0 121 58 132 75 134 71 71 119 69 131
3290.0 50 109 63 131 90 102 120 65 161 72
3330.0 114 72 119 92 72 109 68 146 78 151
3370.0 81 138 87 92 136 71 124 61 136 79
3410.0 118 87 101 137 93 148 77 141 75 125
3450.0 107 96 113 101 160 88 138 90 104 92
3490.0 121 120 92 153 80 157 91 122 95 121
3530.0 128 97 142 77 149 118 116 88 115 122
3570.0 116 136 93 149 110 184 127 125 138 138
3610.0 156 127 147 133 131 183 146 150 128 153
3650.0 198 175 128 127 147 170 163 162 125 136
3690.0 185 141 119 159 135 178 150 153 155 149
3730.0 149 158 182 156 226 193 177 131 150 141
3770.0 144 111 98 125 96 102 140 167 176 144
3810.0 160 145 157 120 125 107 105 142 94 138
3850.0 95 164 153 145 169 154 144 92 146 102
3890.0 111 81 82 113 113 147 117 134 109 162
3930.0 114 104 86 30 39 17 16 16 16 16
##END=
