##TITLE=5-Methyl-2-nitrophenol
##JCAMP-DX=4.24
##DATA TYPE=INFRARED SPECTRUM
##ORIGIN=Sadtler Research Labs Under US-EPA Contract
##OWNER=NIST Standard Reference Data Program
##CAS REGISTRY NO=700-38-9
##MOLFORM=C 7 H 7 N O 3
##XUNITS=1/CM
##YUNITS=ABSORBANCE
##XFACTOR=1.0
##YFACTOR=0.000109793
##DELTAX=4.0
##FIRSTX=450.0
##LASTX=3966.0
##FIRSTY=0.102217
##MAXX=3966
##MINX=450
##MAXY=1.09793
##MINY=0
##NPOINTS=880
##XYDATA=(X++(Y..Y))
450.0 931 473 189 453 406 229 385 20 214 367
490.0 213 231 257 258 292 351 355 385 491 562
530.0 411 649 576 188 653 520 675 0 353 230
570.0 152 220 215 289 241 338 314 309 404 392
610.0 494 650 598 582 543 426 477 514 600 682
650.0 763 898 973 1121 1189 1342 1637 1687 1854 1938
690.0 1658 1506 1212 1092 907 645 614 354 376 471
730.0 556 669 741 901 975 1198 1918 1846 1398 999
770.0 805 470 257 164 154 213 257 389 566 705
810.0 1044 1149 911 673 679 636 879 1282 1540 1648
850.0 1610 1311 951 744 785 838 594 413 381 284
890.0 176 154 103 130 124 139 140 136 142 158
930.0 221 346 542 886 1139 1183 1146 982 618 384
970.0 322 288 294 316 350 389 423 439 482 507
1010.0 521 485 503 457 424 419 379 348 301 280
1050.0 289 273 276 318 431 627 912 1092 1173 1133
1090.0 942 603 365 258 229 227 227 247 272 294
1130.0 305 315 342 402 496 720 1051 1390 1560 1628
1170.0 1686 1638 1539 1691 2026 2505 3020 3254 3247 3021
1210.0 2507 1953 1517 1278 1207 1268 1468 1852 2440 3018
1250.0 3492 3926 4176 4273 4379 4521 4672 4756 4764 4388
1290.0 3898 3440 2910 2575 2422 2614 3386 4917 7012 8828
1330.0 9799 10000 8629 6624 5215 4173 3275 2629 2320 2200
1370.0 2156 2131 2050 1946 1888 1766 1658 1525 1382 1230
1410.0 1134 1044 1126 1205 1458 1871 2350 2655 2870 2864
1450.0 2706 2529 2342 2214 2180 2358 2952 3776 4595 4974
1490.0 4811 4532 3520 2414 1754 1367 1236 1271 1505 1776
1530.0 2177 2706 3245 3742 3941 3757 3527 3181 2682 2443
1570.0 2508 2744 3267 4077 4864 5695 6042 5849 5652 4574
1610.0 3961 4140 4691 5447 6000 6087 5385 4168 3092 1747
1650.0 1090 782 499 421 362 330 379 314 386 414
1690.0 390 395 446 407 344 247 243 236 156 127
1730.0 158 215 152 141 162 166 150 169 190 177
1770.0 192 191 150 137 130 128 127 102 124 96
1810.0 98 120 107 99 96 96 52 30 43 58
1850.0 37 20 29 24 43 65 45 40 43 62
1890.0 79 97 113 125 132 122 112 91 84 47
1930.0 28 40 41 46 52 50 49 47 31 57
1970.0 43 34 33 27 28 44 33 19 24 28
2010.0 17 20 21 21 17 12 13 15 16 5
2050.0 5 9 10 11 17 8 16 15 7 7
2090.0 16 17 19 26 21 24 18 14 7 6
2130.0 2 1 7 10 21 18 25 39 37 36
2170.0 36 23 23 21 21 16 15 17 20 14
2210.0 12 12 6 5 6 7 1 6 9 16
2250.0 15 18 11 14 14 19 27 34 30 35
2290.0 37 34 42 42 46 73 78 84 90 91
2330.0 103 75 93 89 73 73 87 76 85 65
2370.0 69 62 66 63 57 57 62 80 86 99
2410.0 111 119 121 119 106 101 92 73 72 63
2450.0 56 45 46 42 41 35 37 38 46 55
2490.0 62 70 68 61 66 63 48 51 69 53
2530.0 63 61 59 61 63 70 74 77 81 81
2570.0 83 82 89 82 81 82 89 99 96 98
2610.0 106 101 99 88 87 91 85 87 87 86
2650.0 93 87 86 81 79 75 74 82 80 77
2690.0 74 82 78 84 84 84 87 91 89 94
2730.0 99 112 117 125 129 137 138 126 119 118
2770.0 122 117 119 119 120 123 123 125 123 124
2810.0 132 134 131 137 130 144 148 152 150 157
2850.0 174 186 220 262 312 359 390 407 398 377
2890.0 357 346 337 339 343 347 360 375 417 497
2930.0 616 731 783 768 689 583 478 414 385 366
2970.0 358 344 335 338 339 336 343 349 336 335
3010.0 343 352 355 348 327 318 334 360 410 450
3050.0 491 525 531 518 485 436 390 350 340 337
3090.0 317 291 258 213 170 138 128 128 133 134
3130.0 130 138 139 144 153 157 166 165 179 196
3170.0 205 230 246 271 291 332 374 418 481 554
3210.0 637 748 853 976 1076 1165 1222 1277 1312 1338
3250.0 1364 1381 1392 1385 1363 1326 1293 1249 1209 1169
3290.0 1127 1088 1031 996 968 935 907 869 851 832
3330.0 810 792 766 754 723 695 665 643 625 596
3370.0 563 533 504 489 463 446 428 400 395 382
3410.0 354 346 323 316 312 297 287 273 279 265
3450.0 262 261 246 250 241 241 236 226 226 216
3490.0 217 215 210 202 192 187 190 176 175 170
3530.0 169 166 152 148 151 157 159 145 131 116
3570.0 125 122 111 116 104 85 102 95 85 82
3610.0 70 53 51 45 54 46 44 53 59 65
3650.0 44 49 53 41 36 19 31 21 24 30
3690.0 28 31 1 25 23 10 18 23 30 26
3730.0 8 20 34 22 27 24 11 19 30 30
3770.0 16 36 22 25 21 31 47 59 44 37
3810.0 32 55 44 45 65 47 46 53 53 40
3850.0 68 84 44 52 57 47 47 53 68 73
3890.0 55 58 80 70 60 47 70 85 65 51
3930.0 67 84 36 61 69 94 94 47 90 80
##END=
