##TITLE=2,3,5,6-Tetrafluoroaniline
##JCAMP-DX=4.24
##DATA TYPE=INFRARED SPECTRUM
##ORIGIN=Sadtler Research Labs Under US-EPA Contract
##OWNER=NIST Standard Reference Data Program
##CAS REGISTRY NO=700-17-4
##MOLFORM=C 6 H 3 F 4 N
##XUNITS=1/CM
##YUNITS=ABSORBANCE
##XFACTOR=1.0
##YFACTOR=0.000089453
##DELTAX=4.0
##FIRSTX=450.0
##LASTX=3966.0
##FIRSTY=0.002415
##MAXX=3966
##MINX=450
##MAXY=0.89453
##MINY=0
##NPOINTS=880
##XYDATA=(X++(Y..Y))
450.0 27 66 105 130 197 129 53 36 76 154
490.0 262 270 192 127 97 161 198 211 221 105
530.0 60 0 122 155 210 290 284 247 168 226
570.0 225 257 198 136 283 241 284 318 210 143
610.0 206 249 302 321 297 194 182 281 344 331
650.0 313 354 368 431 448 546 579 399 220 318
690.0 282 410 449 598 729 861 1018 1224 1183 1007
730.0 741 675 534 533 517 488 452 417 389 452
770.0 386 307 266 277 308 409 546 717 842 1234
810.0 1259 921 791 611 414 313 262 240 218 219
850.0 152 170 171 239 414 657 1045 1427 1764 2063
890.0 2275 2337 2149 1874 1416 981 649 469 377 307
930.0 239 244 266 353 417 412 411 440 434 380
970.0 351 292 205 144 155 133 145 127 131 150
1010.0 151 187 252 249 239 243 207 268 295 322
1050.0 303 302 294 356 482 742 1192 1804 2441 2822
1090.0 2926 2780 2181 1595 1256 1163 1173 1067 846 651
1130.0 445 282 233 279 370 583 917 1313 1565 1885
1170.0 2221 2457 2571 2498 2241 1724 1131 655 468 438
1210.0 491 498 479 395 286 173 132 108 137 133
1250.0 177 277 462 773 1054 1111 1104 926 521 250
1290.0 151 131 112 84 84 84 88 93 82 67
1330.0 45 39 40 54 74 92 95 117 114 128
1370.0 119 84 74 58 86 155 240 316 332 299
1410.0 275 188 95 46 53 64 66 23 130 208
1450.0 280 316 240 376 368 427 462 743 1142 1717
1490.0 2440 3200 3537 3704 3644 3909 4690 6084 8028 9780
1530.0 10000 8777 6970 4382 2041 896 509 269 240 309
1570.0 269 282 224 282 317 404 503 633 787 934
1610.0 1024 1062 938 867 681 517 446 481 799 1207
1650.0 1878 2418 3010 2987 2646 1974 1257 730 473 243
1690.0 285 264 165 98 146 153 121 24 85 90
1730.0 69 11 45 54 82 43 60 41 28 61
1770.0 48 9 57 32 38 55 14 62 43 50
1810.0 44 62 89 98 87 75 85 75 74 35
1850.0 57 50 27 32 33 16 49 41 25 43
1890.0 41 50 57 51 41 33 44 38 51 45
1930.0 45 39 39 39 47 44 35 29 33 39
1970.0 57 57 56 38 52 41 48 49 36 35
2010.0 23 27 35 40 46 33 28 36 45 52
2050.0 52 53 37 39 49 57 58 58 41 36
2090.0 41 48 52 50 44 31 35 47 53 47
2130.0 36 24 29 29 36 48 27 18 27 29
2170.0 40 43 38 30 29 42 49 64 63 59
2210.0 54 49 62 72 68 67 66 70 82 75
2250.0 75 57 40 43 45 51 56 61 55 53
2290.0 66 70 87 82 77 60 51 56 75 66
2330.0 64 40 44 47 72 83 82 56 60 59
2370.0 64 61 59 54 35 32 32 32 33 21
2410.0 26 22 21 35 29 26 20 22 26 31
2450.0 35 22 17 10 17 23 29 27 27 35
2490.0 37 49 60 68 62 57 62 56 57 56
2530.0 44 33 31 33 36 47 48 41 35 46
2570.0 63 69 61 51 46 47 39 50 43 39
2610.0 30 35 46 53 63 57 42 30 32 46
2650.0 45 41 32 18 23 23 41 37 35 20
2690.0 15 25 36 40 31 21 17 23 24 25
2730.0 24 19 9 14 24 28 29 17 8 12
2770.0 30 37 46 40 21 29 36 40 45 33
2810.0 26 14 18 26 27 19 17 11 13 19
2850.0 37 38 23 22 30 32 52 54 30 35
2890.0 23 30 37 49 46 31 32 35 57 72
2930.0 78 71 48 52 53 54 54 42 39 41
2970.0 46 57 49 45 30 25 42 54 66 71
3010.0 60 45 50 61 69 62 53 36 50 46
3050.0 60 50 39 39 44 48 68 81 72 77
3090.0 90 124 142 151 152 112 77 73 77 78
3130.0 72 70 68 59 78 100 102 86 74 75
3170.0 86 93 111 111 97 107 102 119 135 119
3210.0 99 90 86 88 108 119 103 88 91 102
3250.0 99 103 112 85 87 80 104 99 99 91
3290.0 75 84 102 111 118 94 84 95 105 105
3330.0 117 93 76 73 89 99 116 109 99 94
3370.0 118 133 140 146 134 137 157 208 258 335
3410.0 425 556 708 846 945 964 931 842 702 581
3450.0 498 368 265 187 148 155 165 173 192 192
3490.0 199 234 290 390 493 580 670 729 751 712
3530.0 650 603 550 481 412 349 257 171 126 85
3570.0 77 106 126 108 106 82 92 98 110 116
3610.0 88 69 64 59 106 50 81 86 70 55
3650.0 15 67 72 78 66 39 28 27 81 80
3690.0 8 57 64 67 72 54 36 55 48 57
3730.0 64 22 13 13 7 7 24 57 40 33
3770.0 28 51 68 65 50 56 46 48 27 57
3810.0 61 47 13 23 55 60 53 21 13 18
3850.0 25 6 47 53 12 7 31 54 49 47
3890.0 40 29 27 35 49 64 49 26 24 37
3930.0 55 72 65 51 39 66 1 7 7 7
##END=
