##TITLE=Benzene, p-diisopropyl-,
##JCAMP-DX=4.24
##DATA TYPE=INFRARED SPECTRUM
##ORIGIN=Sadtler Research Labs Under US-EPA Contract
##OWNER=NIST Standard Reference Data Program
##CAS REGISTRY NO=700-18-5
##MOLFORM=C 12 H 18
##XUNITS=1/CM
##YUNITS=ABSORBANCE
##XFACTOR=1.0
##YFACTOR=0.000157535
##DELTAX=4.0
##FIRSTX=450.0
##LASTX=3966.0
##FIRSTY=0.011343
##MAXX=3966
##MINX=450
##MAXY=1.57535
##MINY=0
##NPOINTS=880
##XYDATA=(X++(Y..Y))
450.0 72 92 0 27 123 22 146 31 121 47
490.0 121 111 86 109 110 124 80 163 115 141
530.0 122 158 162 182 248 276 374 455 611 679
570.0 789 769 762 657 513 392 244 214 174 152
610.0 143 136 105 104 90 92 92 81 92 92
650.0 95 97 101 79 76 89 90 92 95 99
690.0 84 75 91 94 92 88 81 60 71 67
730.0 67 63 59 71 67 75 79 82 73 72
770.0 76 79 86 90 107 127 144 153 168 193
810.0 261 388 613 930 1251 1429 1292 1006 671 413
850.0 262 200 173 162 148 135 123 122 138 151
890.0 157 149 131 112 104 102 103 114 122 133
930.0 130 130 130 145 166 193 202 189 157 123
970.0 106 96 101 104 111 111 119 129 160 218
1010.0 364 554 603 538 337 240 236 204 231 351
1050.0 476 555 543 563 643 702 663 522 362 309
1090.0 291 302 335 390 458 480 460 392 315 260
1130.0 238 235 254 297 326 319 271 220 195 208
1170.0 219 217 219 224 215 204 180 153 146 149
1210.0 165 179 186 190 199 216 221 229 227 238
1250.0 281 388 581 757 827 732 537 410 372 342
1290.0 374 463 549 577 511 433 401 411 435 450
1330.0 437 402 372 374 423 497 571 638 719 778
1370.0 796 729 673 665 678 667 611 512 459 453
1410.0 465 490 497 498 466 418 384 363 386 420
1450.0 519 607 756 889 972 957 834 687 528 417
1490.0 379 386 459 608 755 952 1038 984 824 552
1530.0 361 184 116 75 74 74 67 58 71 82
1570.0 83 92 98 89 89 89 101 126 179 246
1610.0 283 262 200 126 99 95 92 90 98 110
1650.0 124 133 160 147 129 123 95 114 101 131
1690.0 179 289 452 613 640 542 340 212 144 130
1730.0 106 87 99 101 112 91 94 94 106 116
1770.0 118 114 125 127 123 103 75 60 48 49
1810.0 40 36 34 30 27 24 24 26 21 24
1850.0 25 27 30 31 31 35 42 53 65 82
1890.0 103 117 122 109 92 71 54 45 35 33
1930.0 33 32 29 22 21 22 19 19 16 13
1970.0 13 12 10 11 11 9 12 12 13 12
2010.0 14 11 12 12 15 15 17 14 14 14
2050.0 13 14 11 10 10 12 12 10 11 10
2090.0 9 8 9 8 8 6 8 7 8 7
2130.0 7 6 6 7 7 7 7 7 9 9
2170.0 9 9 8 6 6 6 8 6 8 9
2210.0 7 10 8 9 11 13 12 15 15 17
2250.0 20 22 25 24 26 26 27 25 23 19
2290.0 16 15 13 13 10 9 8 7 6 8
2330.0 9 10 15 10 17 12 6 6 11 21
2370.0 26 31 30 31 27 22 21 20 21 18
2410.0 19 16 17 16 15 15 15 13 14 16
2450.0 17 17 19 22 26 29 29 27 23 22
2490.0 23 26 26 25 25 23 22 22 22 22
2530.0 23 23 24 22 23 24 26 28 29 32
2570.0 33 36 40 47 55 61 68 75 75 72
2610.0 63 57 48 44 41 39 36 36 34 33
2650.0 33 35 33 33 39 40 44 47 46 46
2690.0 44 45 43 45 50 55 65 79 93 103
2730.0 109 105 100 96 94 91 92 95 100 106
2770.0 104 91 89 87 84 89 97 111 132 145
2810.0 164 181 196 197 197 194 192 199 220 262
2850.0 308 374 455 578 767 1059 1525 2025 2323 2352
2890.0 2170 2017 1987 2006 2031 2021 1960 1889 1842 1880
2930.0 2030 2314 2686 2955 2947 2811 2860 3706 5990 8635
2970.0 10000 8868 6251 4019 2488 1717 1307 1060 918 841
3010.0 841 907 1050 1194 1254 1190 989 779 671 649
3050.0 665 685 688 650 587 519 461 433 418 424
3090.0 431 414 380 321 269 220 192 173 169 166
3130.0 162 154 137 123 106 94 88 84 84 86
3170.0 86 89 93 96 99 98 100 99 94 90
3210.0 87 86 80 76 71 61 57 51 49 40
3250.0 37 36 33 29 29 26 26 26 22 25
3290.0 21 21 24 23 22 24 25 25 26 27
3330.0 26 24 25 21 19 20 19 20 22 23
3370.0 23 23 23 27 28 32 31 32 33 31
3410.0 30 29 27 27 27 27 25 25 22 25
3450.0 23 23 21 20 20 20 21 18 19 21
3490.0 24 19 14 19 18 20 22 17 20 19
3530.0 21 17 17 17 13 17 19 14 20 9
3570.0 21 18 18 23 11 20 16 14 19 14
3610.0 19 18 24 23 27 38 42 53 43 46
3650.0 55 49 50 37 39 14 32 23 29 18
3690.0 18 29 24 26 25 24 29 28 19 28
3730.0 18 20 24 28 7 22 15 19 24 17
3770.0 15 22 21 22 20 17 22 18 24 19
3810.0 38 22 28 16 28 31 28 39 35 33
3850.0 26 25 29 26 30 30 31 26 27 25
3890.0 30 31 27 27 31 28 37 28 28 32
3930.0 30 31 32 28 22 27 23 35 28 37
##END=
