##TITLE=.alpha.-Ethyl-4-fluorobenzyl alcohol
##JCAMP-DX=4.24
##DATA TYPE=INFRARED SPECTRUM
##ORIGIN=Sadtler Research Labs Under US-EPA Contract
##OWNER=NIST Standard Reference Data Program
##CAS REGISTRY NO=701-47-3
##MOLFORM=C 9 H 11 F O
##XUNITS=1/CM
##YUNITS=ABSORBANCE
##XFACTOR=1.0
##YFACTOR=0.000087036
##DELTAX=4.0
##FIRSTX=450.0
##LASTX=3966.0
##FIRSTY=0.016972
##MAXX=3966
##MINX=450
##MAXY=0.87036
##MINY=0
##NPOINTS=880
##XYDATA=(X++(Y..Y))
450.0 195 222 246 280 389 390 329 309 287 300
490.0 318 333 323 285 229 272 296 383 514 675
530.0 830 942 1015 984 868 665 577 557 733 930
570.0 1025 920 699 426 257 152 96 79 68 93
610.0 136 193 193 183 150 120 120 120 94 52
650.0 29 12 0 16 18 7 35 48 64 82
690.0 93 112 157 180 182 149 110 81 92 109
730.0 136 183 221 262 309 378 427 439 354 302
770.0 259 245 265 312 377 413 447 462 497 619
810.0 774 1003 1295 1749 2331 2995 3514 3777 3594 3085
850.0 2336 1602 965 573 417 370 354 343 322 306
890.0 344 411 459 452 394 319 257 198 177 163
930.0 177 202 219 252 283 344 440 605 818 1068
970.0 1316 1476 1524 1439 1284 1118 1007 1011 1157 1445
1010.0 1812 1966 1891 1629 1301 1177 1194 1273 1314 1255
1050.0 1125 970 828 741 733 802 941 1112 1293 1431
1090.0 1497 1461 1369 1219 1067 953 838 710 565 448
1130.0 346 307 285 328 403 911 1822 2155 2165 1702
1170.0 942 800 792 784 741 709 669 659 702 821
1210.0 1051 1471 2119 2847 4077 6367 9115 10000 9428 6191
1250.0 3192 1976 1579 1380 1264 1162 1103 1047 1009 1001
1290.0 1059 1140 1185 1165 1082 970 894 805 747 684
1330.0 649 670 696 853 1041 1137 1147 1146 1151 1188
1370.0 1189 1127 1084 1058 988 924 814 666 591 519
1410.0 466 488 401 458 428 430 366 401 474 525
1450.0 579 650 703 851 941 952 858 797 773 690
1490.0 713 992 1484 2581 4528 7004 8056 7277 5102 2550
1530.0 1342 952 708 471 346 311 231 144 175 210
1570.0 212 245 292 332 454 600 905 1406 2164 2844
1610.0 2939 2368 1554 959 601 494 376 318 324 300
1650.0 224 195 203 151 112 84 39 81 30 18
1690.0 66 89 38 56 95 140 123 81 170 213
1730.0 189 142 190 186 154 133 194 226 267 310
1770.0 276 225 211 153 130 100 85 86 62 85
1810.0 58 40 47 34 23 12 27 47 23 9
1850.0 41 63 66 81 84 80 140 171 204 219
1890.0 220 205 179 143 114 93 77 70 51 63
1930.0 68 62 67 52 62 71 71 64 69 55
1970.0 66 66 68 69 69 58 62 73 76 74
2010.0 76 69 65 74 86 89 90 85 83 90
2050.0 93 89 82 73 65 71 70 71 71 69
2090.0 61 56 51 44 39 36 33 34 32 29
2130.0 26 26 31 27 26 24 22 24 22 23
2170.0 22 24 22 21 19 17 15 16 20 19
2210.0 17 19 18 17 19 20 23 27 28 29
2250.0 32 33 35 36 32 27 24 22 18 11
2290.0 9 4 2 3 1 1 14 22 27 42
2330.0 37 42 44 39 46 39 53 49 53 44
2370.0 36 35 34 31 40 54 63 65 64 57
2410.0 55 54 58 55 55 49 50 51 52 57
2450.0 65 75 81 87 90 85 76 65 54 43
2490.0 40 41 39 40 37 36 40 41 41 40
2530.0 43 41 44 45 48 48 54 56 60 66
2570.0 74 81 88 86 84 76 68 65 59 57
2610.0 58 56 53 53 53 51 51 49 48 50
2650.0 55 55 58 62 65 67 67 70 71 72
2690.0 69 73 74 73 75 69 72 75 79 85
2730.0 90 97 106 112 120 126 122 121 117 113
2770.0 114 116 118 121 125 132 133 137 141 145
2810.0 151 159 166 184 202 228 257 296 346 405
2850.0 483 603 757 938 1139 1349 1563 1804 2081 2223
2890.0 2134 1878 1501 1216 1062 1000 1007 1083 1243 1482
2930.0 1777 2113 2413 2578 2581 2324 1992 1765 1784 2118
2970.0 2655 3271 3442 3130 2524 1665 1072 765 583 488
3010.0 446 426 397 373 360 378 423 514 624 685
3050.0 690 630 535 466 423 416 455 506 517 477
3090.0 380 286 236 209 193 186 187 188 187 172
3130.0 156 136 109 89 82 71 68 66 61 57
3170.0 53 44 44 36 31 31 31 27 30 25
3210.0 23 18 17 12 6 3 10 9 7 7
3250.0 7 5 12 12 8 10 10 3 2 0
3290.0 1 7 2 1 0 5 2 2 7 5
3330.0 10 7 9 10 7 14 16 17 13 22
3370.0 27 29 25 24 26 23 24 25 28 25
3410.0 26 29 27 27 29 28 27 31 25 23
3450.0 24 22 31 25 20 26 25 25 28 24
3490.0 21 24 23 18 21 24 20 18 19 18
3530.0 25 25 22 21 21 25 25 29 30 30
3570.0 33 46 42 48 51 42 45 34 54 56
3610.0 63 67 74 89 119 179 277 443 684 893
3650.0 1040 1078 937 721 497 328 190 143 101 96
3690.0 90 81 70 64 53 52 41 43 41 43
3730.0 44 39 36 26 50 29 40 20 19 33
3770.0 30 28 23 38 24 34 23 15 26 31
3810.0 15 33 23 31 24 25 35 35 34 40
3850.0 47 50 40 43 44 51 44 43 49 53
3890.0 55 45 31 39 37 54 55 48 23 37
3930.0 40 50 61 33 36 37 41 30 31 18
##END=
