##TITLE=Cyclohexanepropanoic acid
##JCAMP-DX=4.24
##DATA TYPE=INFRARED SPECTRUM
##ORIGIN=Sadtler Research Labs Under US-EPA Contract
##OWNER=NIST Standard Reference Data Program
##CAS REGISTRY NO=701-97-3
##MOLFORM=C 9 H 16 O 2
##XUNITS=1/CM
##YUNITS=ABSORBANCE
##XFACTOR=1.0
##YFACTOR=0.000069504
##DELTAX=4.0
##FIRSTX=450.0
##LASTX=3966.0
##FIRSTY=0.014179
##MAXX=3966
##MINX=450
##MAXY=0.69504
##MINY=0
##NPOINTS=880
##XYDATA=(X++(Y..Y))
450.0 204 200 212 212 215 223 246 255 267 273
490.0 336 346 374 415 458 434 473 467 493 500
530.0 530 563 658 679 789 905 987 1075 1103 1084
570.0 1044 996 885 899 915 898 959 981 1025 1056
610.0 1084 1062 1037 1004 972 957 843 759 647 543
650.0 455 407 369 329 321 271 256 270 244 238
690.0 224 222 193 187 176 170 145 150 165 148
730.0 137 128 113 112 105 117 140 181 184 181
770.0 153 100 63 63 57 122 109 105 80 68
810.0 39 24 1 7 7 22 52 96 113 102
850.0 88 55 47 50 66 85 100 123 146 161
890.0 160 138 116 110 103 92 90 76 74 69
930.0 73 97 110 141 148 163 170 183 196 220
970.0 228 224 214 194 178 156 133 127 133 142
1010.0 150 152 167 181 197 211 245 276 320 371
1050.0 444 512 596 664 752 891 1067 1245 1414 1533
1090.0 1657 1800 2026 2366 2826 3258 3477 3422 3114 2692
1130.0 2365 2156 2088 2058 1967 1817 1617 1410 1286 1213
1170.0 1168 1129 1098 1038 959 896 842 809 777 751
1210.0 720 661 602 549 499 454 423 418 406 410
1250.0 412 427 462 499 522 536 535 526 485 446
1290.0 410 369 348 335 349 364 379 378 380 389
1330.0 420 472 502 536 567 597 615 623 636 663
1370.0 723 797 843 861 850 797 700 576 448 360
1410.0 315 296 286 318 339 369 400 463 580 746
1450.0 901 1042 1023 856 624 395 240 143 91 54
1490.0 47 36 33 34 34 34 20 22 19 13
1530.0 5 13 6 5 12 7 7 1 3 8
1570.0 8 8 7 7 9 16 9 8 9 9
1610.0 12 8 16 17 7 11 17 16 18 23
1650.0 16 23 32 29 26 36 34 46 53 67
1690.0 74 83 103 118 150 187 233 303 383 492
1730.0 601 700 829 997 1208 1465 1778 2198 2785 3618
1770.0 4666 5636 6222 6095 5271 4167 3157 2397 1853 1428
1810.0 1094 815 605 445 329 250 200 158 126 114
1850.0 96 89 74 59 66 52 51 51 50 46
1890.0 42 42 48 45 39 40 33 33 33 34
1930.0 34 34 37 33 33 29 25 29 28 28
1970.0 28 28 28 25 29 28 29 30 25 20
2010.0 16 7 7 6 1 0 7 1 1 0
2050.0 2 1 1 8 8 8 15 21 30 29
2090.0 37 37 29 29 26 18 20 24 22 22
2130.0 22 23 21 23 20 31 31 21 30 29
2170.0 31 37 38 30 37 36 36 37 37 37
2210.0 40 36 35 39 37 37 43 29 36 30
2250.0 29 29 29 29 31 25 25 23 22 23
2290.0 31 25 33 35 28 38 38 44 46 40
2330.0 54 26 39 32 9 16 48 39 54 6
2370.0 1 9 5 12 15 21 15 22 28 21
2410.0 21 21 22 22 13 19 15 15 15 20
2450.0 15 15 15 14 14 7 15 15 15 14
2490.0 14 10 8 14 7 14 8 1 7 7
2530.0 15 19 20 11 10 8 8 8 8 2
2570.0 16 16 17 22 22 28 35 33 35 38
2610.0 38 39 39 45 46 52 55 54 51 63
2650.0 74 95 113 138 153 153 147 124 116 95
2690.0 80 65 60 56 58 59 53 48 54 41
2730.0 47 40 47 41 41 43 36 42 32 41
2770.0 40 49 61 69 77 99 121 122 142 144
2810.0 149 157 156 169 175 211 253 378 587 937
2850.0 1422 2023 2756 3314 3273 2829 2089 1511 1173 1019
2890.0 994 1089 1278 1518 1831 2237 2829 3625 4767 6384
2930.0 8398 9904 10000 8652 6439 4314 2554 1488 989 732
2970.0 577 487 421 366 329 292 248 217 180 144
3010.0 123 115 101 79 78 66 61 62 59 54
3050.0 53 52 52 46 53 47 37 54 62 53
3090.0 54 46 40 46 47 33 47 45 38 42
3130.0 43 48 44 39 47 60 61 55 62 62
3170.0 56 53 55 39 37 46 42 47 41 48
3210.0 47 42 41 55 55 54 65 64 64 58
3250.0 63 55 44 43 36 21 28 20 0 4
3290.0 34 22 26 23 29 29 36 38 36 37
3330.0 37 22 25 23 26 33 30 19 32 43
3370.0 36 25 30 44 31 30 24 30 39 22
3410.0 18 19 20 30 19 15 24 11 33 29
3450.0 48 25 40 26 35 35 40 50 46 55
3490.0 35 42 44 45 61 50 53 67 74 114
3530.0 105 108 125 123 137 140 148 223 328 662
3570.0 1373 2289 2543 2337 1407 674 347 227 138 108
3610.0 107 89 70 63 65 90 60 32 53 52
3650.0 88 62 52 31 47 53 72 50 29 29
3690.0 54 40 32 35 25 51 78 46 54 70
3730.0 43 69 79 56 75 98 60 57 49 47
3770.0 58 44 42 38 43 32 39 47 64 42
3810.0 40 34 78 59 52 40 60 65 70 32
3850.0 35 93 57 46 86 82 90 66 91 73
3890.0 86 71 79 89 97 46 42 55 58 58
3930.0 60 70 50 62 73 71 40 42 48 52
##END=
