##TITLE=Benzeneethanol, .alpha.-ethyl-
##JCAMP-DX=4.24
##DATA TYPE=INFRARED SPECTRUM
##ORIGIN=Sadtler Research Labs Under US-EPA Contract
##OWNER=NIST Standard Reference Data Program
##CAS REGISTRY NO=701-70-2
##MOLFORM=C 10 H 14 O
##XUNITS=1/CM
##YUNITS=ABSORBANCE
##XFACTOR=1.0
##YFACTOR=0.000059552
##DELTAX=4.0
##FIRSTX=450.0
##LASTX=3966.0
##FIRSTY=0.001846
##MAXX=3966
##MINX=450
##MAXY=0.59552
##MINY=0
##NPOINTS=880
##XYDATA=(X++(Y..Y))
450.0 31 94 0 172 74 208 246 201 229 196
490.0 191 239 225 249 256 252 281 393 428 621
530.0 867 1107 1204 1229 1079 1012 1069 1091 1158 979
570.0 760 471 285 200 172 180 196 235 280 302
610.0 295 224 180 151 148 125 116 152 175 198
650.0 255 348 424 477 487 511 485 486 705 1412
690.0 2954 5006 7013 7309 6111 3761 2062 1063 699 657
730.0 766 998 1264 1636 2019 2585 3034 3197 2807 2080
770.0 1321 816 519 387 310 299 328 353 365 380
810.0 367 376 380 362 322 229 190 140 96 82
850.0 93 126 153 153 125 97 43 48 25 35
890.0 75 147 228 285 320 303 290 281 334 386
930.0 436 494 553 640 767 923 1032 1098 1073 1036
970.0 1015 1050 1126 1221 1296 1340 1370 1366 1401 1476
1010.0 1590 1780 2076 2590 3477 4773 6196 7232 7724 7663
1050.0 7160 6710 6291 5561 4592 3753 3190 2694 2156 1698
1090.0 1451 1387 1411 1410 1343 1250 1167 1065 951 845
1130.0 757 681 600 551 541 570 622 685 772 888
1170.0 1019 1119 1149 1122 1062 920 796 721 694 692
1210.0 695 671 574 476 419 425 436 467 513 562
1250.0 599 609 648 672 702 710 716 702 696 694
1290.0 696 713 737 780 821 854 871 882 920 980
1330.0 1049 1099 1130 1109 1087 1030 1001 1006 1072 1192
1370.0 1399 1760 2185 2540 2649 2494 2062 1566 1163 876
1410.0 706 599 557 510 494 477 533 645 905 1269
1450.0 1792 2279 2404 2293 2233 2032 1793 1515 1361 1572
1490.0 2073 2472 2325 1800 1143 545 355 283 259 229
1530.0 228 240 248 239 194 182 143 144 138 129
1570.0 153 188 250 335 425 560 742 994 1103 1063
1610.0 879 624 372 198 140 101 97 80 84 86
1650.0 107 134 153 148 156 139 138 103 111 108
1690.0 107 116 150 161 165 154 145 114 97 87
1730.0 113 176 230 306 359 370 326 235 162 116
1770.0 86 56 18 0 26 91 204 301 351 335
1810.0 272 223 192 164 147 120 111 102 110 115
1850.0 135 167 210 247 279 293 300 297 290 270
1890.0 235 183 151 132 122 110 111 117 128 161
1930.0 212 280 343 391 379 358 350 313 270 213
1970.0 147 108 98 99 100 93 90 86 83 83
2010.0 83 82 85 88 89 91 96 100 103 103
2050.0 103 102 102 102 98 98 94 85 77 75
2090.0 74 69 69 68 62 58 52 45 37 34
2130.0 32 29 25 25 22 16 14 12 16 8
2170.0 10 8 11 12 10 10 12 4 3 4
2210.0 0 4 1 3 5 1 5 6 8 9
2250.0 10 12 13 10 17 14 17 17 21 28
2290.0 33 36 34 40 59 76 84 89 84 68
2330.0 61 63 80 67 82 82 70 60 28 25
2370.0 31 38 38 49 45 43 37 34 29 22
2410.0 19 20 25 24 26 26 31 32 30 32
2450.0 33 26 24 24 19 23 19 22 20 18
2490.0 22 17 24 25 25 25 33 26 28 31
2530.0 32 33 28 33 31 39 48 42 48 49
2570.0 48 48 53 50 46 45 49 47 49 59
2610.0 53 48 51 50 49 53 61 70 68 64
2650.0 66 73 77 86 91 95 97 105 109 108
2690.0 118 120 129 139 140 155 152 168 180 189
2730.0 210 230 254 283 303 311 316 312 311 309
2770.0 316 326 331 345 358 375 387 398 416 437
2810.0 458 485 504 527 563 620 693 782 894 1023
2850.0 1195 1425 1795 2402 3251 4261 5363 6255 6823 7067
2890.0 6737 6005 5137 4449 4116 4181 4570 5191 6083 7048
2930.0 7900 8277 8162 7638 6969 6332 5959 6150 6810 8166
2970.0 9752 10000 8722 6801 4234 2373 1475 1131 1000 978
3010.0 991 1075 1298 1756 2555 3444 4189 4324 3805 3034
3050.0 2211 1739 1732 2116 2827 3516 3711 3633 3167 2595
3090.0 2269 1988 1590 1291 1036 863 725 593 443 323
3130.0 244 196 169 156 156 143 138 142 139 137
3170.0 124 113 91 80 68 61 57 57 59 60
3210.0 62 57 56 51 51 43 46 42 48 53
3250.0 49 47 45 37 43 50 48 51 58 55
3290.0 59 61 61 59 63 73 73 75 82 85
3330.0 84 85 84 86 91 80 72 85 95 90
3370.0 99 99 94 90 87 87 88 90 95 95
3410.0 102 99 91 84 86 87 85 82 78 94
3450.0 79 85 86 91 73 78 78 79 54 57
3490.0 60 46 45 35 29 28 26 21 7 11
3530.0 16 24 28 29 15 13 26 17 17 0
3570.0 16 11 10 17 22 10 29 29 34 74
3610.0 115 233 546 1038 1340 1459 1294 949 667 552
3650.0 505 590 699 862 995 1054 997 809 593 387
3690.0 233 149 92 61 24 12 8 0 0 0
3730.0 0 0 0 0 0 0 0 0 0 0
3770.0 0 0 0 0 0 0 0 0 0 0
3810.0 0 0 0 0 0 0 0 0 0 0
3850.0 0 0 0 0 0 0 0 0 0 0
3890.0 0 0 0 0 0 0 0 0 0 0
3930.0 0 0 0 0 0 0 0 0 0 0
##END=
