##TITLE=4-Methoxyphenethyl alcohol
##JCAMP-DX=4.24
##DATA TYPE=INFRARED SPECTRUM
##ORIGIN=Sadtler Research Labs Under US-EPA Contract
##OWNER=NIST Standard Reference Data Program
##CAS REGISTRY NO=702-23-8
##MOLFORM=C 9 H 12 O 2
##XUNITS=1/CM
##YUNITS=ABSORBANCE
##XFACTOR=1.0
##YFACTOR=0.000132324
##DELTAX=4.0
##FIRSTX=450.0
##LASTX=3966.0
##FIRSTY=0.021701
##MAXX=3966
##MINX=450
##MAXY=1.32324
##MINY=0
##NPOINTS=880
##XYDATA=(X++(Y..Y))
450.0 164 150 178 158 159 169 182 161 176 188
490.0 205 217 218 336 365 450 502 539 489 461
530.0 406 383 374 377 474 552 651 688 685 604
570.0 536 418 322 252 179 141 125 106 92 64
610.0 62 44 41 40 57 36 43 38 47 43
650.0 35 24 23 19 1 35 31 32 52 101
690.0 162 244 342 352 301 215 143 138 137 129
730.0 122 113 101 93 92 110 135 134 134 108
770.0 111 122 153 182 240 320 450 609 858 1117
810.0 1335 1545 1720 1863 1853 1663 1385 1130 887 690
850.0 519 390 301 239 206 174 149 136 126 115
890.0 113 107 107 112 116 124 149 173 198 229
930.0 255 275 278 275 266 253 236 236 234 249
970.0 261 289 329 378 448 526 642 791 934 1071
1010.0 1199 1328 1524 1829 2286 3005 3955 4984 5732 5971
1050.0 5500 4715 3829 3015 2341 1760 1313 995 787 673
1090.0 628 630 664 723 770 776 734 672 589 533
1130.0 489 468 457 448 451 468 521 627 833 1243
1170.0 2007 2643 2821 2521 1772 1216 944 837 836 871
1210.0 934 1024 1169 1390 1741 2297 3185 4619 6765 8875
1250.0 10000 9347 7281 4851 3343 2581 2214 2052 2023 2085
1290.0 2226 2382 2378 2134 1717 1281 1013 882 834 795
1330.0 757 739 693 677 652 608 559 523 510 544
1370.0 615 675 800 910 933 894 778 632 561 506
1410.0 453 480 395 468 490 574 615 792 1009 1068
1450.0 1062 1019 957 1170 1404 1453 1311 1177 994 847
1490.0 878 1142 1670 2867 4811 7363 8698 7569 5358 2602
1530.0 1278 737 465 272 288 295 253 134 207 290
1570.0 315 384 493 612 723 757 822 921 1180 1506
1610.0 1837 1995 1809 1505 1035 714 437 325 306 258
1650.0 137 127 179 188 152 137 64 142 56 16
1690.0 91 101 1 21 65 120 87 17 112 152
1730.0 115 48 112 131 116 116 153 155 140 164
1770.0 111 72 112 92 102 75 62 75 73 102
1810.0 93 94 109 98 90 68 95 116 94 86
1850.0 120 146 148 162 158 155 199 207 200 179
1890.0 154 144 137 131 120 109 100 94 81 101
1930.0 106 107 111 99 107 117 115 110 108 94
1970.0 97 102 106 110 115 106 110 120 121 116
2010.0 109 97 93 97 101 104 111 114 125 141
2050.0 158 173 186 190 187 189 188 183 175 166
2090.0 145 129 109 89 75 61 55 47 40 34
2130.0 30 26 25 20 19 16 14 14 10 10
2170.0 8 9 7 8 7 9 8 11 13 13
2210.0 14 14 13 13 8 8 6 4 2 1
2250.0 3 5 5 10 15 20 24 29 33 37
2290.0 40 41 42 40 41 42 40 38 41 37
2330.0 26 19 10 13 22 24 21 16 10 10
2370.0 12 9 11 12 7 5 6 7 10 12
2410.0 16 22 27 31 31 30 26 21 19 16
2450.0 16 16 16 20 22 25 32 36 41 44
2490.0 46 52 50 47 42 37 35 37 42 44
2530.0 49 55 60 66 70 69 61 51 39 29
2570.0 22 20 20 23 26 30 30 34 35 33
2610.0 27 27 26 27 27 29 36 40 43 44
2650.0 40 40 36 33 35 34 32 36 38 39
2690.0 42 43 46 45 50 55 58 59 70 76
2730.0 82 85 89 96 101 109 117 121 125 128
2770.0 129 131 133 140 150 162 174 190 207 227
2810.0 251 284 320 374 457 581 801 1128 1393 1510
2850.0 1470 1285 1158 1142 1207 1335 1490 1626 1706 1686
2890.0 1588 1489 1441 1485 1636 1887 2192 2463 2633 2699
2930.0 2740 2792 2964 3156 3250 3202 3046 2836 2601 2319
2970.0 1963 1576 1219 979 882 885 987 1194 1537 1793
3010.0 1776 1559 1180 909 882 967 1094 1126 1043 847
3050.0 630 500 438 426 452 486 507 501 457 391
3090.0 340 313 312 302 283 257 220 184 155 135
3130.0 121 105 91 77 62 52 45 39 35 36
3170.0 29 22 21 18 17 21 15 12 11 11
3210.0 8 8 5 7 5 6 7 5 4 3
3250.0 5 1 4 5 6 5 7 7 7 4
3290.0 7 7 5 8 9 8 11 14 15 18
3330.0 15 13 20 19 17 18 13 19 19 22
3370.0 17 19 21 19 21 24 23 26 24 23
3410.0 28 27 30 32 30 26 28 34 34 38
3450.0 39 31 40 40 45 35 37 40 50 47
3490.0 46 46 45 50 54 48 43 42 46 64
3530.0 55 49 54 44 65 65 47 61 52 76
3570.0 90 58 70 54 74 88 66 77 68 81
3610.0 96 121 178 295 397 446 419 343 274 249
3650.0 263 339 411 471 500 483 416 347 257 170
3690.0 104 93 76 59 54 40 34 35 24 39
3730.0 17 17 27 4 17 1 4 13 8 7
3770.0 10 3 9 1 8 3 2 1 1 1
3810.0 1 10 1 1 6 1 1 6 0 10
3850.0 3 1 15 20 20 23 21 29 40 33
3890.0 21 18 25 43 38 15 21 20 25 27
3930.0 29 43 22 31 31 25 22 12 13 20
##END=
