##TITLE=Adamantane, 1,3-dimethyl-
##JCAMP-DX=4.24
##DATA TYPE=INFRARED SPECTRUM
##ORIGIN=Sadtler Research Labs Under US-EPA Contract
##OWNER=NIST Standard Reference Data Program
##CAS REGISTRY NO=702-79-4
##MOLFORM=C 12 H 20
##XUNITS=1/CM
##YUNITS=ABSORBANCE
##XFACTOR=1.0
##YFACTOR=0.000197629
##DELTAX=4.0
##FIRSTX=450.0
##LASTX=3966.0
##FIRSTY=0.076680
##MAXX=3966
##MINX=450
##MAXY=1.97629
##MINY=0
##NPOINTS=880
##XYDATA=(X++(Y..Y))
450.0 388 151 44 70 54 58 46 44 60 10
490.0 39 152 40 54 22 59 40 51 23 70
530.0 27 14 58 49 53 39 69 39 58 54
570.0 43 30 53 59 36 65 44 55 43 60
610.0 52 43 52 55 64 19 59 50 32 42
650.0 51 57 49 52 42 59 38 53 40 49
690.0 52 52 42 43 51 45 55 42 49 39
730.0 25 24 43 45 41 46 49 49 41 51
770.0 43 45 44 36 45 54 58 50 55 44
810.0 57 49 55 50 51 51 44 53 41 45
850.0 42 49 39 41 49 46 48 43 45 46
890.0 47 46 47 48 48 49 46 50 49 61
930.0 69 94 99 102 126 86 90 84 83 90
970.0 98 75 68 59 46 50 52 51 52 61
1010.0 50 48 47 43 40 45 53 57 63 60
1050.0 62 54 54 53 51 50 48 47 43 44
1090.0 45 46 47 62 69 112 125 128 110 85
1130.0 54 45 37 41 37 38 40 50 63 80
1170.0 96 106 84 73 52 38 39 37 38 36
1210.0 40 39 40 41 44 43 44 45 42 43
1250.0 43 46 41 40 40 39 42 41 45 41
1290.0 42 40 46 45 57 66 95 120 130 118
1330.0 101 118 131 185 201 209 248 262 253 240
1370.0 231 234 284 300 235 177 78 50 48 51
1410.0 51 59 59 80 91 108 132 214 336 521
1450.0 807 920 1086 1074 748 586 340 179 100 72
1490.0 53 48 48 36 37 30 24 27 28 29
1530.0 25 26 33 26 24 26 32 28 42 25
1570.0 31 25 40 22 33 30 31 30 30 32
1610.0 27 39 26 38 28 36 25 34 24 33
1650.0 16 46 28 23 32 27 23 34 20 37
1690.0 27 30 31 37 26 27 25 26 29 27
1730.0 23 19 35 18 23 21 28 23 28 27
1770.0 22 29 20 25 21 29 22 24 22 25
1810.0 24 23 26 23 26 21 25 22 25 21
1850.0 23 27 25 25 24 22 26 28 27 26
1890.0 26 24 27 26 26 26 26 27 29 31
1930.0 31 28 28 23 22 27 24 24 26 26
1970.0 25 25 25 26 26 24 26 26 25 27
2010.0 25 23 23 24 19 21 20 19 19 22
2050.0 27 23 19 15 16 17 19 21 24 25
2090.0 25 26 24 30 30 28 29 29 28 25
2130.0 27 26 25 27 26 28 28 29 29 30
2170.0 27 28 25 24 26 26 25 25 23 24
2210.0 25 25 25 25 27 28 26 25 24 25
2250.0 25 26 24 25 25 25 25 25 23 24
2290.0 21 18 13 9 4 1 3 2 5 9
2330.0 8 11 18 18 28 9 1 2 24 40
2370.0 48 45 44 34 29 28 31 31 30 28
2410.0 24 24 25 25 25 26 28 27 24 24
2450.0 24 25 26 24 25 24 24 22 21 21
2490.0 22 25 29 28 25 25 22 22 22 20
2530.0 21 24 25 25 25 25 25 24 26 27
2570.0 29 29 32 32 30 31 32 35 33 36
2610.0 32 30 35 40 48 54 64 68 73 74
2650.0 75 83 90 105 119 126 122 113 97 82
2690.0 76 76 83 83 82 76 73 76 78 78
2730.0 75 70 66 66 67 68 62 59 52 48
2770.0 48 53 64 70 79 86 100 110 129 146
2810.0 158 180 195 224 268 413 665 1148 1851 2364
2850.0 2886 2721 2284 2048 1760 1709 1774 1721 1743 1799
2890.0 2059 2794 4499 5998 7623 10000 7977 8569 5828 4739
2930.0 3364 2669 2113 2120 2591 2828 3473 2864 1875 1162
2970.0 374 176 98 84 63 39 55 33 39 20
3010.0 36 21 24 25 19 23 17 33 17 28
3050.0 22 25 22 24 28 23 30 24 28 19
3090.0 27 22 17 22 22 24 16 24 17 27
3130.0 25 32 28 36 41 42 48 49 59 57
3170.0 60 60 60 58 53 59 49 51 48 51
3210.0 44 40 40 37 30 23 27 25 32 31
3250.0 32 35 36 33 23 24 20 24 22 28
3290.0 18 24 36 26 29 29 38 28 30 28
3330.0 36 43 48 47 36 46 37 34 31 31
3370.0 25 22 24 20 28 21 24 14 14 19
3410.0 16 11 12 13 11 13 19 18 15 18
3450.0 28 25 28 25 21 13 21 20 13 20
3490.0 15 7 9 12 11 14 12 17 10 3
3530.0 3 15 15 21 6 15 16 13 11 8
3570.0 14 15 15 14 5 18 9 16 17 13
3610.0 13 18 11 5 22 16 24 15 12 9
3650.0 11 24 22 17 7 12 14 24 19 1
3690.0 20 10 15 10 13 10 12 22 5 8
3730.0 14 23 33 8 12 18 18 6 6 11
3770.0 18 11 12 16 9 19 20 16 15 25
3810.0 9 30 25 22 7 7 10 12 2 12
3850.0 5 10 16 9 12 6 12 10 9 21
3890.0 12 14 4 22 13 23 8 16 5 2
3930.0 1 1 19 4 1 4 18 18 0 16
##END=
