##TITLE=Acetamide, N-(2-chloro-6-methylphenyl)-, 2-N,N-dimethyl-,
##JCAMP-DX=4.24
##DATA TYPE=INFRARED SPECTRUM
##ORIGIN=Sadtler Research Labs Under US-EPA Contract
##OWNER=NIST Standard Reference Data Program
##CAS REGISTRY NO=70289-10-0
##MOLFORM=C 11 H 15 Cl N 2 O
##XUNITS=1/CM
##YUNITS=ABSORBANCE
##XFACTOR=1.0
##YFACTOR=0.000049146
##DELTAX=4.0
##FIRSTX=450.0
##LASTX=3966.0
##FIRSTY=0.000000
##MAXX=3966
##MINX=450
##MAXY=0.49146
##MINY=0
##NPOINTS=880
##XYDATA=(X++(Y..Y))
450.0 0 170 321 456 217 652 504 357 479 340
490.0 484 637 758 800 606 487 600 740 831 628
530.0 637 468 393 539 505 652 838 430 357 216
570.0 503 660 756 742 934 888 873 654 748 451
610.0 619 589 398 421 533 391 369 547 395 391
650.0 408 341 176 429 374 416 342 284 376 477
690.0 540 759 815 628 738 620 390 418 392 473
730.0 487 496 578 554 699 449 767 1093 1737 2629
770.0 2532 1891 1110 589 369 274 239 365 278 243
810.0 352 478 446 472 406 497 652 745 814 785
850.0 871 916 1015 1083 990 856 810 697 686 698
890.0 507 521 396 316 318 231 246 262 243 312
930.0 315 221 325 459 510 546 594 638 604 653
970.0 727 737 730 683 584 499 575 532 552 578
1010.0 577 412 479 635 662 833 1176 1552 1922 2236
1050.0 2197 1633 1237 930 812 740 818 744 784 902
1090.0 983 907 757 670 612 564 523 557 611 644
1130.0 733 898 1129 1301 1482 1529 1399 1189 1174 1247
1170.0 1275 1303 1209 1059 879 845 730 778 795 914
1210.0 950 944 899 920 953 973 887 763 730 679
1250.0 782 907 1104 1422 1755 2002 2061 1902 1692 1519
1290.0 1355 1232 1089 906 802 788 732 694 665 691
1330.0 800 842 893 885 693 582 555 601 567 554
1370.0 631 625 723 685 733 707 798 861 995 1077
1410.0 1318 1644 2000 2489 2481 2385 2250 2328 2706 2975
1450.0 3580 4162 4733 5275 5839 6846 7934 8854 9642 10000
1490.0 9736 8679 6894 5122 4181 3169 2488 2294 1837 1695
1530.0 1453 1402 1285 1241 1151 1033 1115 1069 1114 1006
1570.0 1064 1073 962 925 807 782 839 753 705 553
1610.0 473 436 458 418 432 424 398 478 434 425
1650.0 618 520 602 462 512 578 560 630 683 831
1690.0 828 933 1179 1407 1681 2323 3107 4708 6196 7271
1730.0 7786 6432 4792 3166 2126 1577 1193 961 781 685
1770.0 621 590 507 473 434 447 414 441 356 386
1810.0 343 322 341 286 322 317 335 327 311 391
1850.0 295 296 274 226 279 240 258 243 242 240
1890.0 256 249 253 240 270 269 301 305 314 303
1930.0 257 249 222 225 206 201 191 207 191 210
1970.0 191 202 196 185 198 191 201 201 194 203
2010.0 199 209 206 200 207 199 203 201 202 210
2050.0 203 200 203 195 207 196 208 221 209 215
2090.0 206 201 213 216 220 210 211 212 201 219
2130.0 210 205 207 195 202 202 201 198 201 211
2170.0 210 204 208 196 207 207 207 203 204 204
2210.0 204 200 206 202 203 213 207 208 221 232
2250.0 264 293 344 385 430 455 438 428 399 380
2290.0 382 381 400 402 391 371 360 317 307 280
2330.0 228 257 227 210 267 275 256 233 198 207
2370.0 213 212 263 260 244 212 201 195 200 195
2410.0 208 199 203 198 215 201 209 216 203 195
2450.0 200 198 194 193 188 194 198 194 193 194
2490.0 190 191 197 197 199 199 199 194 203 201
2530.0 195 196 198 194 197 202 198 206 191 190
2570.0 185 177 194 191 187 194 198 196 206 190
2610.0 200 199 199 206 203 208 202 212 205 200
2650.0 207 207 218 229 218 220 224 239 228 241
2690.0 238 245 256 264 274 285 301 322 342 375
2730.0 418 452 499 501 520 518 535 562 607 669
2770.0 768 910 1134 1502 2111 2775 3115 2891 2242 1644
2810.0 1279 1110 1099 1198 1420 1782 2239 2589 2597 2301
2850.0 1981 1858 1904 1958 1925 1782 1598 1468 1446 1474
2890.0 1514 1532 1507 1448 1403 1380 1357 1364 1396 1500
2930.0 1638 1794 1923 1963 1999 2107 2282 2383 2231 1970
2970.0 1729 1714 1944 2175 2249 1969 1450 1020 781 646
3010.0 600 558 560 571 599 582 560 530 522 521
3050.0 534 568 614 714 822 913 941 910 817 693
3090.0 556 444 367 336 311 297 286 279 275 276
3130.0 270 262 253 256 249 251 255 243 254 261
3170.0 259 267 279 280 283 299 293 299 307 302
3210.0 331 314 329 336 334 342 342 358 397 384
3250.0 392 419 425 435 468 501 506 560 601 627
3290.0 651 645 638 614 604 619 658 682 720 752
3330.0 833 929 1064 1207 1381 1530 1566 1521 1411 1295
3370.0 1200 1105 1027 949 884 807 733 679 657 618
3410.0 572 527 506 482 463 464 465 438 427 398
3450.0 375 353 306 310 293 307 284 313 272 275
3490.0 273 313 271 292 292 302 273 277 278 273
3530.0 273 272 264 282 245 272 269 291 250 329
3570.0 283 283 255 233 288 290 311 247 319 228
3610.0 315 261 257 272 260 300 302 203 258 275
3650.0 297 365 199 284 175 362 227 386 243 284
3690.0 339 248 251 232 235 269 296 255 257 272
3730.0 261 376 369 279 395 319 390 257 273 284
3770.0 243 315 223 295 255 195 297 291 318 343
3810.0 224 381 196 415 276 319 287 333 369 269
3850.0 362 278 399 224 392 354 277 363 311 349
3890.0 316 402 284 335 369 237 345 331 374 300
3930.0 354 405 285 298 368 287 304 307 352 339
##END=
