##TITLE=Sulfide, allyl sec-butyl,
##JCAMP-DX=4.24
##DATA TYPE=INFRARED SPECTRUM
##ORIGIN=Sadtler Research Labs Under US-EPA Contract
##OWNER=NIST Standard Reference Data Program
##CAS REGISTRY NO=70289-07-5
##MOLFORM=C 7 H 14 S
##XUNITS=1/CM
##YUNITS=ABSORBANCE
##XFACTOR=1.0
##YFACTOR=0.000064853
##DELTAX=4.0
##FIRSTX=450.0
##LASTX=3966.0
##FIRSTY=0.000000
##MAXX=3966
##MINX=450
##MAXY=0.64853
##MINY=0
##NPOINTS=880
##XYDATA=(X++(Y..Y))
450.0 0 272 817 700 587 705 500 366 319 400
490.0 412 349 686 691 596 667 494 729 412 689
530.0 469 459 583 657 429 636 555 790 605 529
570.0 682 710 654 817 749 783 777 778 627 605
610.0 679 665 587 668 632 627 599 605 550 607
650.0 615 536 542 574 612 654 605 635 599 537
690.0 592 579 581 639 558 608 532 559 555 569
730.0 802 450 751 954 1274 904 981 744 601 740
770.0 622 714 769 741 822 853 859 783 709 699
810.0 729 693 683 679 665 722 713 702 730 710
850.0 747 760 773 760 731 768 770 712 722 782
890.0 761 856 965 1273 1836 2353 2700 2779 2604 2040
930.0 1614 1305 1184 1088 1047 1019 1028 1066 1066 1055
970.0 1109 1176 1337 1580 1730 1843 1876 1829 1710 1589
1010.0 1492 1450 1322 1229 1133 1051 1008 969 979 1052
1050.0 1132 1217 1226 1192 1129 1053 1006 967 936 899
1090.0 886 872 873 881 901 944 975 1007 962 991
1130.0 982 1054 1172 1277 1366 1345 1249 1088 920 817
1170.0 774 736 728 724 737 765 802 893 1002 1214
1210.0 1482 1822 2160 2388 2414 2228 1914 1589 1277 1067
1250.0 952 874 864 862 881 955 1033 1126 1184 1233
1290.0 1254 1259 1223 1141 1022 935 856 826 772 748
1330.0 741 770 848 903 918 901 865 875 930 1041
1370.0 1267 1578 1870 2040 2017 1771 1463 1212 1063 1016
1410.0 1058 1059 1136 1142 1216 1260 1306 1364 1465 1661
1450.0 1938 2106 2262 2254 2156 1867 1563 1246 1006 817
1490.0 697 596 550 512 505 458 534 434 425 430
1530.0 428 444 380 376 412 460 426 399 390 492
1570.0 472 464 472 459 490 483 439 501 458 496
1610.0 513 490 532 572 712 817 993 1054 1085 989
1650.0 753 601 468 525 445 443 425 450 450 426
1690.0 493 538 612 693 822 826 770 616 613 678
1730.0 650 696 637 680 667 633 592 554 512 495
1770.0 478 433 460 460 458 431 415 407 434 406
1810.0 397 411 428 461 498 514 562 550 542 479
1850.0 453 413 389 383 364 366 352 350 347 344
1890.0 341 347 334 344 341 346 340 328 335 336
1930.0 338 339 330 333 332 336 335 333 337 340
1970.0 337 334 327 322 324 323 322 316 322 320
2010.0 307 316 317 312 306 309 307 313 307 306
2050.0 303 307 303 312 313 308 308 298 299 297
2090.0 298 295 291 292 290 290 290 290 287 284
2130.0 285 285 284 283 284 286 286 286 291 289
2170.0 282 288 288 281 281 275 279 275 279 276
2210.0 277 278 279 285 285 284 288 284 286 280
2250.0 285 289 287 291 291 291 292 288 296 296
2290.0 290 295 289 294 291 281 290 296 297 293
2330.0 286 302 289 314 289 291 270 270 270 270
2370.0 270 270 270 274 279 288 285 285 293 296
2410.0 287 288 298 292 294 302 296 300 298 296
2450.0 293 295 294 291 285 292 289 298 288 292
2490.0 297 295 298 292 293 295 295 293 301 295
2530.0 299 298 292 298 306 305 295 311 309 313
2570.0 313 320 323 324 328 326 332 334 332 332
2610.0 324 325 323 318 323 326 330 331 334 334
2650.0 334 337 344 347 355 348 362 368 371 376
2690.0 372 375 378 388 406 416 425 440 439 457
2730.0 453 462 478 480 467 458 441 431 429 423
2770.0 426 431 449 460 478 501 526 549 580 602
2810.0 639 661 683 715 745 770 804 859 929 1042
2850.0 1215 1477 1798 2146 2483 2797 3109 3468 3775 3936
2890.0 3904 3761 3583 3552 3703 4015 4478 5016 5655 6250
2930.0 6663 6822 6666 6235 5654 5116 4938 5329 6417 7837
2970.0 9281 10000 9685 8391 6584 4723 3227 2262 1729 1433
3010.0 1290 1234 1179 1081 976 869 776 724 699 704
3050.0 705 711 734 748 791 828 894 1000 1144 1310
3090.0 1393 1317 1191 989 744 603 543 503 472 456
3130.0 439 427 413 420 409 422 404 398 405 407
3170.0 404 401 384 393 397 377 378 369 354 346
3210.0 342 337 342 329 314 316 309 310 313 303
3250.0 302 310 300 301 306 311 302 311 308 304
3290.0 310 315 296 318 308 304 301 292 305 296
3330.0 297 297 289 293 302 284 284 304 301 297
3370.0 305 285 305 290 287 305 302 290 285 285
3410.0 297 296 291 286 292 292 283 278 297 279
3450.0 290 279 291 287 304 290 299 299 286 296
3490.0 286 287 299 298 290 291 291 299 316 305
3530.0 288 283 293 300 311 308 292 307 312 326
3570.0 335 297 312 327 323 316 317 305 309 301
3610.0 312 313 313 289 290 295 324 317 317 321
3650.0 315 310 332 364 323 322 277 319 323 323
3690.0 294 314 336 342 343 297 299 318 307 338
3730.0 309 287 344 281 286 272 280 303 294 311
3770.0 292 321 325 312 308 313 325 302 301 273
3810.0 317 319 271 272 296 323 298 280 332 314
3850.0 334 268 297 296 287 284 303 284 334 299
3890.0 311 308 337 296 295 294 290 292 323 320
3930.0 334 328 316 343 308 319 285 320 321 285
##END=
