##TITLE=3-Cyclohexene-1-methanol, 6-methyl-, acetate
##JCAMP-DX=4.24
##DATA TYPE=INFRARED SPECTRUM
##ORIGIN=Sadtler Research Labs Under US-EPA Contract
##OWNER=NIST Standard Reference Data Program
##CAS REGISTRY NO=70289-14-4
##MOLFORM=C 10 H 16 O 2
##XUNITS=1/CM
##YUNITS=ABSORBANCE
##XFACTOR=1.0
##YFACTOR=0.000167184
##DELTAX=4.0
##FIRSTX=450.0
##LASTX=3966.0
##FIRSTY=0.013040
##MAXX=3966
##MINX=450
##MAXY=1.67184
##MINY=0
##NPOINTS=880
##XYDATA=(X++(Y..Y))
450.0 78 71 100 66 81 183 157 120 157 148
490.0 131 107 144 129 83 56 54 65 66 98
530.0 66 68 20 25 44 16 41 23 43 63
570.0 40 19 71 66 67 60 81 109 155 168
610.0 214 179 164 173 205 204 251 311 372 434
650.0 490 623 785 889 902 778 531 390 197 152
690.0 94 85 65 49 63 12 32 15 37 59
730.0 32 17 38 47 60 71 55 98 90 69
770.0 57 72 63 62 48 52 61 74 61 89
810.0 64 107 92 136 142 136 160 162 169 159
850.0 183 153 154 157 140 140 177 194 202 229
890.0 236 246 249 245 228 196 193 179 152 158
930.0 163 196 241 272 291 302 323 325 357 358
970.0 347 347 345 329 326 340 384 458 573 755
1010.0 939 1096 1225 1301 1397 1540 1649 1660 1596 1447
1050.0 1348 1299 1309 1305 1239 1121 991 850 754 688
1090.0 638 602 558 481 415 336 285 270 250 265
1130.0 264 239 212 188 177 171 176 226 233 267
1170.0 300 348 397 432 451 473 556 712 954 1307
1210.0 1817 2616 3761 5349 7753 8793 10000 9713 7644 5970
1250.0 4089 2838 2084 1689 1502 1402 1334 1244 1090 901
1290.0 727 591 491 412 370 328 286 267 246 238
1330.0 239 243 247 247 269 316 427 668 1092 1565
1370.0 1773 1780 1551 1294 1280 1166 1032 836 588 424
1410.0 307 262 262 257 277 345 452 552 617 609
1450.0 554 574 556 616 603 559 501 414 320 260
1490.0 227 179 158 145 148 167 111 133 127 118
1530.0 112 107 128 116 113 81 91 106 90 68
1570.0 78 74 66 66 62 58 73 61 72 74
1610.0 85 106 123 130 139 144 140 136 115 130
1650.0 184 199 253 204 227 179 172 150 185 213
1690.0 230 263 330 393 425 445 473 499 487 535
1730.0 629 767 997 1227 1680 2411 3686 5259 6216 6035
1770.0 4904 3094 2012 1410 1001 799 599 474 397 303
1810.0 274 226 185 172 146 147 116 111 98 97
1850.0 81 68 63 64 64 66 60 48 59 52
1890.0 55 47 43 51 47 48 39 48 45 40
1930.0 40 38 37 38 34 30 30 29 24 27
1970.0 28 28 27 26 25 28 31 28 32 28
2010.0 34 35 30 35 32 30 30 27 30 29
2050.0 32 31 36 37 33 34 34 32 33 34
2090.0 33 35 33 36 36 37 40 39 42 41
2130.0 43 41 37 35 29 26 24 20 21 18
2170.0 19 19 17 17 17 16 17 16 16 12
2210.0 13 14 13 13 11 11 12 10 11 11
2250.0 12 14 14 12 11 10 12 12 13 12
2290.0 12 15 14 16 17 18 20 21 15 20
2330.0 17 12 25 5 31 9 40 15 40 21
2370.0 15 16 12 13 9 9 10 9 11 11
2410.0 11 11 11 13 11 14 14 13 18 19
2450.0 19 24 25 26 23 23 21 20 21 17
2490.0 14 12 10 11 11 9 8 8 6 6
2530.0 6 8 7 8 7 7 7 10 13 11
2570.0 11 14 14 18 18 20 17 20 21 20
2610.0 20 22 23 25 23 24 24 22 23 27
2650.0 27 26 30 31 28 28 31 32 32 32
2690.0 30 31 28 29 31 33 39 36 37 44
2730.0 47 51 53 56 57 54 54 47 48 49
2770.0 51 53 54 52 52 51 56 62 67 71
2810.0 78 88 102 125 169 246 394 601 799 906
2850.0 917 824 720 632 581 578 640 763 937 1131
2890.0 1364 1629 1901 2129 2286 2412 2445 2328 2052 1717
2930.0 1472 1346 1272 1220 1197 1230 1342 1545 1747 1841
2970.0 1800 1639 1451 1249 1020 799 589 442 341 271
3010.0 244 234 288 421 709 1277 1732 1731 1443 791
3050.0 360 229 167 156 174 167 178 154 125 108
3090.0 82 77 69 67 65 54 51 45 45 44
3130.0 35 35 29 26 35 28 34 31 29 36
3170.0 29 33 28 28 30 30 29 23 23 22
3210.0 15 18 17 15 25 19 19 23 18 18
3250.0 17 17 22 20 19 19 22 20 21 26
3290.0 29 31 36 34 36 25 29 23 19 19
3330.0 21 20 17 17 20 14 19 22 18 22
3370.0 16 18 18 15 18 15 21 20 17 20
3410.0 19 18 14 19 28 18 24 22 17 28
3450.0 20 19 20 20 21 24 25 24 27 26
3490.0 40 44 62 57 73 69 64 51 36 27
3530.0 18 19 18 11 23 10 23 6 27 19
3570.0 36 20 35 25 34 21 28 30 31 19
3610.0 26 28 16 34 10 41 16 35 13 42
3650.0 14 60 15 30 30 16 47 12 44 10
3690.0 36 17 18 24 22 22 26 7 15 6
3730.0 26 31 9 52 0 77 5 43 15 25
3770.0 26 18 35 30 12 26 5 43 18 37
3810.0 11 34 12 36 27 24 27 39 14 21
3850.0 17 51 23 15 14 13 21 17 22 19
3890.0 36 12 31 9 25 24 14 15 6 21
3930.0 11 22 27 21 46 18 22 25 12 21
##END=
