##TITLE=o-Isobutyrotoluidide, 6-chloro-,
##JCAMP-DX=4.24
##DATA TYPE=INFRARED SPECTRUM
##ORIGIN=Sadtler Research Labs Under US-EPA Contract
##OWNER=NIST Standard Reference Data Program
##CAS REGISTRY NO=70289-11-1
##MOLFORM=C 11 H 14 Cl N O
##XUNITS=1/CM
##YUNITS=ABSORBANCE
##XFACTOR=1.0
##YFACTOR=0.000054401
##DELTAX=4.0
##FIRSTX=450.0
##LASTX=3966.0
##FIRSTY=0.000000
##MAXX=3966
##MINX=450
##MAXY=0.54401
##MINY=0
##NPOINTS=880
##XYDATA=(X++(Y..Y))
450.0 0 835 857 352 462 528 746 778 513 662
490.0 487 845 827 745 493 699 809 719 593 696
530.0 775 754 603 821 721 530 474 434 555 387
570.0 336 592 360 250 156 123 157 348 360 295
610.0 293 355 191 223 267 242 130 514 545 331
650.0 585 348 574 400 696 523 672 299 467 454
690.0 404 299 188 299 385 513 554 658 446 299
730.0 383 226 357 544 709 476 877 1419 2087 3155
770.0 3106 2282 1364 862 524 334 371 329 409 396
810.0 426 560 622 659 717 681 566 528 503 532
850.0 649 814 834 817 731 617 552 627 585 563
890.0 484 361 404 360 269 284 359 341 352 281
930.0 385 387 472 586 612 620 413 439 379 289
970.0 278 274 370 319 340 464 466 545 548 590
1010.0 560 534 517 510 580 564 564 583 641 665
1050.0 739 755 782 806 720 774 720 923 965 1123
1090.0 1123 1128 1131 1040 1073 1169 1221 1301 1350 1426
1130.0 1663 1979 2406 2923 3219 3188 2796 2203 1729 1455
1170.0 1486 1586 1850 2058 2053 1841 1459 1132 948 910
1210.0 925 976 1209 1438 1672 1804 1844 1658 1299 985
1250.0 967 1104 1287 1732 2073 2293 2134 1768 1455 1226
1290.0 1149 957 715 627 530 523 469 419 400 385
1330.0 429 345 412 477 479 541 519 650 758 730
1370.0 855 919 873 1038 1163 1346 1291 1124 1116 1124
1410.0 1296 1429 1811 2168 2500 2891 3129 3518 3835 4289
1450.0 4966 5369 5952 6591 7392 8556 9507 10000 9298 8330
1490.0 6583 5196 3953 2900 2489 1783 1601 1333 1180 1090
1530.0 1008 964 884 844 797 749 696 711 650 758
1570.0 773 798 795 729 696 673 609 665 499 435
1610.0 362 293 329 281 333 267 324 317 323 434
1650.0 358 475 404 501 417 491 507 613 633 714
1690.0 758 757 1000 1158 1747 2801 4056 6376 7761 8540
1730.0 7779 5320 3115 1731 1009 717 626 599 582 618
1770.0 621 566 488 395 363 311 317 273 278 228
1810.0 195 200 170 184 185 165 219 189 257 235
1850.0 239 195 167 175 149 165 129 147 132 145
1890.0 161 163 165 170 196 198 231 251 279 255
1930.0 224 195 167 161 142 139 136 127 132 127
1970.0 131 128 129 123 122 127 124 122 110 125
2010.0 120 119 133 119 131 140 136 143 144 138
2050.0 138 146 132 130 144 132 132 130 122 124
2090.0 130 126 125 120 123 121 121 126 116 115
2130.0 111 111 116 115 116 117 121 125 125 128
2170.0 132 127 122 132 126 123 123 120 121 127
2210.0 121 123 133 131 133 136 141 157 174 189
2250.0 228 275 341 403 461 494 495 473 435 419
2290.0 402 412 427 429 420 405 356 306 290 272
2330.0 236 245 190 248 229 284 242 276 251 241
2370.0 220 197 209 222 186 140 127 130 117 125
2410.0 120 117 123 121 113 121 118 115 108 106
2450.0 112 111 106 105 99 103 109 110 104 102
2490.0 99 99 99 103 103 107 109 112 117 125
2530.0 115 117 121 116 121 113 113 116 113 114
2570.0 105 111 108 97 100 102 95 110 93 94
2610.0 107 108 116 108 115 117 115 117 114 121
2650.0 123 117 113 112 113 116 106 115 107 111
2690.0 101 108 112 109 117 127 119 124 139 151
2730.0 161 165 177 182 183 177 170 165 150 160
2770.0 161 158 165 165 155 159 151 159 168 165
2810.0 191 192 203 221 231 248 266 279 290 321
2850.0 361 417 490 569 665 772 890 1054 1203 1281
2890.0 1281 1258 1261 1307 1357 1385 1388 1424 1481 1628
2930.0 1815 2014 2224 2326 2261 2135 1996 2009 2239 2705
2970.0 3453 4160 4391 3979 3127 2261 1664 1263 972 796
3010.0 686 629 603 591 594 582 549 519 495 498
3050.0 496 547 612 710 839 946 1006 986 898 745
3090.0 610 460 367 303 302 261 248 242 229 225
3130.0 213 212 205 194 197 183 189 197 187 188
3170.0 188 190 195 202 204 196 208 199 191 195
3210.0 182 190 188 169 174 172 165 173 178 163
3250.0 175 159 157 149 146 138 152 164 148 133
3290.0 158 156 152 155 161 165 166 172 187 191
3330.0 193 169 171 175 190 179 174 188 186 187
3370.0 209 200 212 203 226 261 275 321 356 349
3410.0 359 377 406 473 577 750 981 1206 1342 1233
3450.0 1023 752 535 405 325 289 255 257 247 242
3490.0 257 244 233 240 220 210 194 184 190 184
3530.0 179 173 184 178 180 194 157 193 182 214
3570.0 196 206 177 241 178 219 193 220 163 189
3610.0 176 171 196 122 215 129 212 189 218 148
3650.0 235 90 271 159 249 218 148 219 188 266
3690.0 131 279 216 260 229 217 190 246 199 253
3730.0 217 214 241 127 240 69 255 111 266 174
3770.0 177 212 190 181 204 192 241 142 266 123
3810.0 314 108 283 161 221 230 227 198 179 204
3850.0 228 174 148 243 135 162 172 175 167 191
3890.0 170 261 182 243 209 254 215 164 241 237
3930.0 303 276 333 313 181 260 233 298 232 181
##END=
