##TITLE=1-Butanol, 4-diisobutylamino-,
##JCAMP-DX=4.24
##DATA TYPE=INFRARED SPECTRUM
##ORIGIN=Sadtler Research Labs Under US-EPA Contract
##OWNER=NIST Standard Reference Data Program
##CAS REGISTRY NO=70289-33-7
##MOLFORM=C 12 H 27 N O
##XUNITS=1/CM
##YUNITS=ABSORBANCE
##XFACTOR=1.0
##YFACTOR=0.000112299
##DELTAX=4.0
##FIRSTX=450.0
##LASTX=3966.0
##FIRSTY=0.000000
##MAXX=3966
##MINX=450
##MAXY=1.12299
##MINY=0
##NPOINTS=880
##XYDATA=(X++(Y..Y))
450.0 0 135 204 233 308 270 200 138 255 303
490.0 179 375 298 237 290 140 274 275 318 307
530.0 228 288 187 266 233 163 229 299 268 212
570.0 196 264 211 207 249 212 211 174 220 197
610.0 158 173 175 214 151 156 181 175 162 191
650.0 155 137 187 178 171 152 165 172 212 198
690.0 150 169 164 168 154 182 209 188 161 169
730.0 211 220 254 287 222 172 212 197 209 224
770.0 186 210 190 186 203 222 236 253 254 291
810.0 338 379 379 362 362 326 314 326 341 361
850.0 417 455 409 398 400 377 361 341 368 381
890.0 363 421 365 412 425 438 497 519 565 583
930.0 539 545 537 516 496 484 497 504 500 477
970.0 463 477 487 531 579 606 642 659 650 691
1010.0 727 799 922 1096 1278 1485 1656 1752 1941 2189
1050.0 2545 2958 3238 3418 3385 3188 2910 2610 2450 2291
1090.0 2071 1828 1579 1377 1190 1075 958 848 801 776
1130.0 713 682 651 624 620 626 629 638 661 689
1170.0 691 684 673 669 726 786 889 957 958 905
1210.0 808 731 701 685 675 655 644 639 617 618
1250.0 601 603 628 654 710 752 810 847 858 856
1290.0 816 791 765 726 690 663 645 637 627 663
1330.0 710 757 809 779 786 789 811 917 1051 1302
1370.0 1501 1549 1548 1659 1851 1905 1778 1340 996 764
1410.0 632 571 521 502 508 519 558 596 675 745
1450.0 877 1042 1333 1591 1884 1970 1898 1433 1011 698
1490.0 490 435 362 352 314 274 289 246 221 231
1530.0 210 227 184 176 196 196 202 143 167 185
1570.0 179 189 171 195 191 194 192 195 191 189
1610.0 194 179 186 172 195 188 183 193 196 189
1650.0 184 145 191 198 194 178 197 191 198 187
1690.0 213 244 254 287 320 321 283 226 222 228
1730.0 216 213 212 219 217 210 226 229 227 240
1770.0 223 225 231 232 226 223 194 198 189 186
1810.0 183 173 183 171 162 163 152 168 151 153
1850.0 150 154 156 154 157 144 158 160 162 158
1890.0 152 156 164 157 158 157 152 156 154 159
1930.0 155 157 159 150 149 152 150 150 151 154
1970.0 149 149 150 149 152 155 152 153 154 154
2010.0 155 155 156 153 152 157 153 156 152 154
2050.0 155 151 152 148 146 148 142 146 146 144
2090.0 141 143 140 140 145 141 140 142 140 143
2130.0 144 139 140 141 140 142 138 144 140 143
2170.0 142 141 145 145 144 144 141 144 141 139
2210.0 140 136 140 141 138 139 140 140 141 141
2250.0 141 140 141 142 145 147 142 147 150 150
2290.0 151 154 153 149 146 150 147 148 143 142
2330.0 139 136 147 139 141 143 136 139 154 149
2370.0 149 145 151 156 158 154 153 154 153 154
2410.0 155 157 155 156 152 155 154 153 152 148
2450.0 149 149 150 151 149 152 151 152 156 155
2490.0 159 156 157 158 159 162 162 162 163 165
2530.0 165 167 171 176 177 179 183 183 188 189
2570.0 197 203 203 211 218 227 234 236 238 243
2610.0 248 248 252 254 259 266 275 284 298 302
2650.0 309 315 327 335 340 343 351 358 369 386
2690.0 408 430 457 490 519 563 603 659 726 772
2730.0 800 816 827 842 859 882 917 946 991 1050
2770.0 1131 1231 1349 1486 1651 1880 2195 2576 2944 3123
2810.0 3007 2713 2381 2102 1877 1704 1579 1489 1456 1454
2850.0 1499 1588 1714 1937 2304 2912 3770 4497 4591 4072
2890.0 3461 3130 3134 3388 3779 4231 4571 4723 4780 4903
2930.0 5234 5744 6234 6526 6574 6759 7704 9078 10000 9303
2970.0 7492 5395 4041 3233 2518 1750 1183 882 717 602
3010.0 520 454 401 363 324 295 273 252 238 221
3050.0 210 207 199 196 188 191 185 179 178 174
3090.0 174 167 161 167 159 166 159 155 155 157
3130.0 156 161 158 160 167 162 166 169 171 171
3170.0 175 177 176 172 172 170 165 157 152 147
3210.0 145 140 140 140 139 142 136 142 153 151
3250.0 148 156 152 161 156 156 156 156 155 152
3290.0 161 154 156 155 152 156 156 153 158 149
3330.0 158 156 149 156 158 159 158 153 152 167
3370.0 157 162 163 157 165 162 165 162 154 157
3410.0 149 151 155 153 157 163 151 153 154 156
3450.0 161 155 162 161 156 161 160 162 156 142
3490.0 161 163 156 161 156 144 150 158 154 165
3530.0 156 151 158 150 151 163 145 174 163 182
3570.0 165 175 177 170 157 173 158 168 141 161
3610.0 176 156 161 165 180 166 192 212 238 252
3650.0 302 348 437 499 518 533 518 463 362 317
3690.0 224 210 203 175 180 167 144 166 151 153
3730.0 143 138 136 136 138 136 136 136 143 136
3770.0 138 158 152 136 140 140 148 136 136 136
3810.0 158 150 150 136 136 160 162 158 151 141
3850.0 144 136 136 140 153 136 144 152 147 163
3890.0 152 137 146 136 136 144 136 135 136 157
3930.0 143 136 140 136 140 144 135 153 164 140
##END=
