##TITLE=Propionitrile, 3-decyloxy-2,2-diethoxy/-,
##JCAMP-DX=4.24
##DATA TYPE=INFRARED SPECTRUM
##ORIGIN=Sadtler Research Labs Under US-EPA Contract
##OWNER=NIST Standard Reference Data Program
##CAS REGISTRY NO=70289-41-7
##MOLFORM=C 17 H 33 N O 3
##XUNITS=1/CM
##YUNITS=ABSORBANCE
##XFACTOR=1.0
##YFACTOR=0.000048572
##DELTAX=4.0
##FIRSTX=450.0
##LASTX=3966.0
##FIRSTY=0.023800
##MAXX=3966
##MINX=450
##MAXY=0.48572
##MINY=0
##NPOINTS=880
##XYDATA=(X++(Y..Y))
450.0 490 339 813 274 119 823 278 589 469 641
490.0 978 565 937 340 273 763 718 473 119 245
530.0 760 519 908 441 543 608 286 811 498 654
570.0 570 400 421 358 464 519 394 584 320 478
610.0 416 366 418 418 416 445 433 456 316 459
650.0 434 305 416 335 454 363 259 443 439 465
690.0 508 347 407 492 668 516 383 443 485 534
730.0 611 380 607 752 659 286 514 475 445 348
770.0 324 373 456 451 446 393 523 517 522 453
810.0 504 468 538 545 581 648 556 531 607 708
850.0 663 580 569 606 637 652 584 622 641 605
890.0 576 553 616 602 719 721 683 680 763 797
930.0 806 728 756 820 805 823 708 772 724 712
970.0 780 790 752 806 916 872 935 1020 977 1071
1010.0 1136 1049 1106 1134 1100 1090 1222 1264 1256 1238
1050.0 1307 1424 1406 1579 1673 1703 1723 1824 2091 2292
1090.0 2649 3103 3502 4004 4834 5604 6157 6858 6969 6736
1130.0 6613 6147 5478 4868 4341 3871 3269 2730 2277 1850
1170.0 1657 1412 1311 1175 1128 1086 959 844 738 801
1210.0 858 785 817 730 884 932 846 963 901 931
1250.0 1041 972 1060 989 938 950 968 961 961 957
1290.0 1043 986 1055 965 964 885 832 852 828 853
1330.0 863 898 954 1046 1213 1410 1526 1540 1408 1321
1370.0 1214 1102 1038 1011 928 822 718 669 642 577
1410.0 586 576 594 600 636 648 694 768 844 942
1450.0 1114 1196 1317 1314 1310 1128 1057 905 761 679
1490.0 567 428 361 354 291 265 301 247 219 227
1530.0 218 241 159 159 190 228 216 122 141 173
1570.0 198 198 165 207 190 215 181 219 177 185
1610.0 220 131 165 138 190 167 162 159 172 153
1650.0 127 80 134 200 136 154 135 164 141 138
1690.0 153 158 117 90 171 175 187 156 196 229
1730.0 201 225 204 287 306 342 368 402 412 414
1770.0 362 294 255 242 216 203 145 176 171 146
1810.0 143 132 145 141 144 120 129 135 124 127
1850.0 133 131 126 150 126 131 136 127 140 128
1890.0 133 130 131 137 135 143 149 136 150 143
1930.0 149 148 142 152 142 156 152 153 154 157
1970.0 158 152 141 143 135 144 142 143 136 131
2010.0 128 127 126 124 130 124 125 125 127 120
2050.0 117 122 107 122 124 116 114 112 118 116
2090.0 112 114 113 110 106 100 107 103 101 110
2130.0 107 108 97 98 93 90 99 97 99 86
2170.0 83 89 82 82 81 88 73 83 76 66
2210.0 69 72 72 66 67 74 84 85 83 92
2250.0 101 122 114 101 92 75 79 75 75 71
2290.0 76 88 91 80 81 83 61 61 60 18
2330.0 17 7 11 2 42 16 20 0 0 0
2370.0 0 1 20 45 46 29 21 17 20 23
2410.0 17 18 26 13 22 20 21 13 11 19
2450.0 24 7 5 11 11 5 0 8 11 20
2490.0 2 10 13 14 13 12 22 31 27 22
2530.0 23 36 28 29 23 24 24 34 31 41
2570.0 38 37 35 30 49 47 58 59 60 60
2610.0 71 56 66 61 70 75 74 84 86 94
2650.0 98 102 106 105 123 118 139 147 162 171
2690.0 177 195 202 206 218 234 227 256 260 265
2730.0 279 303 298 314 319 306 313 321 331 343
2770.0 346 359 387 406 448 469 495 541 580 616
2810.0 644 691 742 802 902 1012 1161 1368 1673 2127
2850.0 2768 3633 4686 5657 6137 6111 5817 5430 5071 4735
2890.0 4408 4231 4200 4329 4609 5023 5511 6166 7091 8275
2930.0 9393 10000 9757 8875 7754 6577 5617 4966 4617 4393
2970.0 3944 3253 2438 1787 1357 1064 828 691 581 515
3010.0 421 377 347 318 283 250 228 198 186 181
3050.0 163 140 131 127 131 107 107 103 91 89
3090.0 80 93 82 76 84 67 83 79 63 64
3130.0 59 57 50 57 58 47 35 45 44 57
3170.0 33 68 48 42 59 58 27 36 38 35
3210.0 44 42 37 23 25 17 25 42 31 29
3250.0 13 9 27 23 37 10 33 35 22 4
3290.0 30 15 39 15 42 39 37 27 29 42
3330.0 44 19 17 10 33 35 34 24 29 46
3370.0 35 29 22 36 30 26 29 41 42 46
3410.0 43 37 29 42 33 40 51 23 32 66
3450.0 56 42 48 36 46 47 65 62 58 48
3490.0 38 34 19 43 53 70 75 64 51 63
3530.0 88 56 70 70 67 68 75 62 93 80
3570.0 82 46 62 69 66 41 58 94 75 74
3610.0 76 75 62 112 59 47 55 154 121 44
3650.0 69 76 124 113 101 71 71 51 134 72
3690.0 94 77 100 105 86 70 77 117 106 111
3730.0 121 74 62 120 2 93 46 129 91 83
3770.0 131 100 64 107 127 149 124 76 69 81
3810.0 113 114 94 91 167 131 136 83 65 134
3850.0 113 73 111 95 70 54 189 112 191 144
3890.0 126 23 151 109 55 148 156 211 138 92
3930.0 217 165 171 152 126 104 156 162 44 162
##END=
