##TITLE=Acetamide, 2-chloro-N-(o-chlorobenzyl)-,
##JCAMP-DX=4.24
##DATA TYPE=INFRARED SPECTRUM
##ORIGIN=Sadtler Research Labs Under US-EPA Contract
##OWNER=NIST Standard Reference Data Program
##CAS REGISTRY NO=70289-13-3
##MOLFORM=C 9 H 9 Cl 2 N O
##XUNITS=1/CM
##YUNITS=ABSORBANCE
##XFACTOR=1.0
##YFACTOR=0.000084283
##DELTAX=4.0
##FIRSTX=450.0
##LASTX=3966.0
##FIRSTY=0.070545
##MAXX=3966
##MINX=450
##MAXY=0.84283
##MINY=0
##NPOINTS=880
##XYDATA=(X++(Y..Y))
450.0 837 890 1044 987 934 969 994 830 811 874
490.0 911 1006 1061 1106 1118 993 1053 853 576 487
530.0 385 332 279 199 217 105 6 187 163 272
570.0 202 191 287 320 441 587 510 454 384 256
610.0 325 242 120 96 106 89 180 98 94 33
650.0 64 99 145 171 175 238 371 371 566 654
690.0 449 527 468 258 302 324 347 227 451 469
730.0 514 1011 1264 2229 3795 5052 3821 2909 2028 1716
770.0 1488 1209 934 737 493 349 290 272 255 289
810.0 298 280 261 361 265 301 179 162 131 133
850.0 146 111 119 99 123 137 112 124 99 90
890.0 104 76 77 111 102 106 108 123 153 171
930.0 176 156 194 191 177 123 109 82 48 48
970.0 49 78 60 35 65 95 84 98 84 126
1010.0 207 144 221 256 354 535 725 1004 1312 1714
1050.0 1926 1983 1800 1472 1071 773 547 477 412 357
1090.0 355 347 351 283 329 269 258 294 360 429
1130.0 523 522 558 428 358 286 265 278 326 256
1170.0 314 309 324 356 378 389 419 504 540 587
1210.0 683 737 846 915 1049 1250 1419 1667 1959 2339
1250.0 2698 2805 2636 2234 1898 1692 1486 1292 1120 1000
1290.0 906 834 867 950 991 904 691 504 370 296
1330.0 270 258 248 277 288 361 406 528 575 517
1370.0 457 326 305 311 277 278 297 297 402 437
1410.0 574 789 991 1242 1217 1227 1185 1391 1705 1808
1450.0 1878 1707 1554 1639 1737 2031 2114 2403 2435 2477
1490.0 2878 3485 4389 5668 7017 9046 9545 9804 7945 6069
1530.0 4326 3073 2314 1655 1296 1053 886 714 623 642
1570.0 581 563 573 470 472 431 418 398 351 292
1610.0 258 221 193 184 176 204 165 209 191 230
1650.0 216 221 380 408 529 649 715 989 1121 1533
1690.0 2125 3044 4772 6614 9074 10000 9368 8077 5870 4401
1730.0 3019 2094 1529 1149 881 662 566 465 394 360
1770.0 287 253 243 233 227 204 198 191 158 169
1810.0 128 109 105 77 79 57 83 76 57 43
1850.0 39 47 33 26 31 6 39 42 43 45
1890.0 34 28 33 47 82 89 105 97 69 72
1930.0 51 58 66 57 87 80 69 51 26 11
1970.0 13 12 9 11 9 1 7 17 11 18
2010.0 13 12 16 15 20 9 12 11 6 6
2050.0 6 4 5 2 3 8 9 11 10 16
2090.0 10 16 20 19 17 16 17 21 19 21
2130.0 13 13 14 12 11 9 6 11 7 8
2170.0 0 2 7 1 3 4 3 1 2 5
2210.0 3 5 7 6 12 15 13 11 22 22
2250.0 27 31 30 39 40 41 39 45 44 42
2290.0 45 41 38 38 35 27 27 34 37 24
2330.0 11 14 14 10 38 29 27 35 34 25
2370.0 29 14 23 36 29 22 15 15 14 16
2410.0 12 16 18 17 17 17 17 23 16 13
2450.0 14 6 10 14 13 14 14 14 13 15
2490.0 19 19 16 17 17 18 14 16 11 14
2530.0 16 17 18 14 18 22 23 21 22 28
2570.0 26 28 36 25 19 24 18 30 24 24
2610.0 17 21 26 28 29 26 29 33 25 26
2650.0 28 23 30 30 27 36 34 40 38 33
2690.0 35 33 31 34 38 38 37 39 30 38
2730.0 44 34 37 34 37 38 35 31 34 36
2770.0 32 37 39 37 36 44 42 53 53 53
2810.0 53 52 51 61 59 54 55 59 51 62
2850.0 73 75 80 89 100 109 112 125 142 154
2890.0 181 188 201 199 197 203 212 220 240 271
2930.0 298 340 388 434 477 506 513 503 478 441
2970.0 407 390 368 343 308 278 244 223 197 170
3010.0 176 174 182 211 238 257 235 204 179 173
3050.0 182 213 274 374 543 738 898 928 814 642
3090.0 462 317 237 174 112 83 71 56 51 48
3130.0 58 57 59 68 63 61 61 47 40 35
3170.0 30 37 37 30 32 32 32 36 34 33
3210.0 33 29 37 36 38 44 36 30 28 31
3250.0 37 27 34 36 30 29 34 26 38 33
3290.0 34 45 32 41 45 48 43 34 45 45
3330.0 46 41 39 41 41 44 38 45 57 53
3370.0 58 57 73 77 88 107 119 144 169 171
3410.0 196 220 248 318 404 522 691 912 1172 1424
3450.0 1547 1487 1242 911 634 474 350 278 214 168
3490.0 138 102 77 78 66 55 56 43 40 34
3530.0 46 48 44 46 28 35 25 29 31 36
3570.0 32 46 23 27 32 25 32 19 32 12
3610.0 24 12 18 13 8 2 35 14 15 8
3650.0 13 28 10 27 20 20 8 24 11 9
3690.0 24 23 17 33 23 10 23 5 23 38
3730.0 23 41 41 20 29 27 43 41 36 26
3770.0 36 37 32 15 27 23 30 36 26 27
3810.0 13 10 17 41 16 26 37 33 36 34
3850.0 37 57 40 32 36 54 49 62 79 56
3890.0 42 52 35 59 20 33 35 39 56 35
3930.0 64 23 53 58 25 20 48 68 86 43
##END=
