##TITLE=2-Pyridinecarboxaldehyde, 6-methyl-, O-(phenylmethyl)oxime
##JCAMP-DX=4.24
##DATA TYPE=INFRARED SPECTRUM
##ORIGIN=Sadtler Research Labs Under US-EPA Contract
##OWNER=NIST Standard Reference Data Program
##CAS REGISTRY NO=70289-35-9
##MOLFORM=C 14 H 14 N 2 O
##XUNITS=1/CM
##YUNITS=ABSORBANCE
##XFACTOR=1.0
##YFACTOR=0.000047079
##DELTAX=4.0
##FIRSTX=450.0
##LASTX=3966.0
##FIRSTY=0.020056
##MAXX=3966
##MINX=450
##MAXY=0.47079
##MINY=0
##NPOINTS=880
##XYDATA=(X++(Y..Y))
450.0 426 359 239 72 0 236 226 363 273 70
490.0 105 104 115 156 188 371 394 660 837 877
530.0 914 781 640 596 351 262 325 261 233 243
570.0 226 144 244 267 303 357 397 549 686 838
610.0 944 1072 1124 927 747 651 643 740 881 1051
650.0 1283 1079 776 566 454 673 748 963 1314 1683
690.0 2179 2666 2601 2262 1921 1763 1679 1727 1842 1948
730.0 2342 2671 2967 2898 2220 2018 1766 1485 1127 1327
770.0 1666 2486 3340 3658 3484 2790 2053 1501 1192 929
810.0 783 661 602 564 485 483 435 388 336 330
850.0 325 346 415 435 548 586 636 666 719 779
890.0 870 1028 1278 1663 2332 3299 4366 4803 4402 3807
930.0 3581 3684 3959 4291 4316 4075 3572 2989 2551 2367
970.0 2396 2667 3067 3348 3465 3601 3968 4470 4773 4787
1010.0 4811 5188 6173 7468 8231 7991 8011 9213 10000 9347
1050.0 7750 6159 4896 4009 3372 2886 2469 2153 1958 1754
1090.0 1636 1387 1150 910 682 536 404 376 330 316
1130.0 295 261 267 307 548 1043 1205 838 436 310
1170.0 323 298 364 360 370 425 517 737 954 1031
1210.0 876 662 508 382 410 458 537 742 1018 1284
1250.0 1349 1175 967 783 613 423 358 340 314 324
1290.0 399 436 581 618 616 591 650 835 1006 1112
1330.0 1067 970 871 870 1019 1228 1710 2548 3227 3355
1370.0 2589 1762 1313 946 700 539 385 357 375 403
1410.0 388 431 396 589 579 823 965 1410 1997 2556
1450.0 4172 5783 6679 5908 3954 2626 1959 1270 1045 837
1490.0 832 1033 1021 1014 695 516 465 446 614 584
1530.0 535 656 590 737 675 918 1129 1434 2479 2981
1570.0 4388 5215 5482 5653 4221 3254 2595 1949 1682 1495
1610.0 1309 986 643 449 311 315 213 233 173 161
1650.0 166 139 136 110 140 151 103 184 130 223
1690.0 129 172 171 197 179 217 244 269 286 296
1730.0 302 246 279 168 107 123 125 107 82 152
1770.0 146 186 192 186 214 254 264 338 219 244
1810.0 204 173 219 149 203 177 188 159 111 172
1850.0 124 181 206 195 278 283 373 409 358 276
1890.0 252 219 180 147 149 140 155 154 172 186
1930.0 202 215 217 234 301 279 286 316 277 206
1970.0 166 124 86 97 86 64 34 36 50 62
2010.0 51 42 41 56 56 55 35 36 39 33
2050.0 54 37 43 46 32 45 29 37 27 36
2090.0 12 26 51 34 18 19 20 12 26 21
2130.0 43 14 21 28 32 47 16 38 33 20
2170.0 23 25 45 31 30 17 27 34 15 29
2210.0 15 12 3 36 33 40 19 45 61 62
2250.0 10 52 63 26 26 28 62 78 33 35
2290.0 57 55 75 78 111 112 139 110 85 117
2330.0 70 135 79 77 110 80 98 104 153 95
2370.0 96 58 57 39 61 48 29 45 44 57
2410.0 31 38 44 50 56 43 45 49 48 40
2450.0 54 48 52 56 49 56 47 53 51 53
2490.0 61 60 76 68 68 67 63 71 74 69
2530.0 70 57 66 58 61 56 49 43 54 74
2570.0 64 51 58 66 72 72 60 61 62 81
2610.0 64 80 111 94 108 96 65 78 87 70
2650.0 88 70 74 76 64 65 69 87 92 77
2690.0 90 78 91 95 94 94 115 121 100 98
2730.0 107 114 128 117 102 94 78 80 80 88
2770.0 102 108 110 124 138 149 180 190 196 213
2810.0 216 230 220 233 256 253 289 310 326 363
2850.0 410 485 613 765 933 1057 1108 1124 1110 1055
2890.0 965 874 836 836 895 999 1146 1389 1721 2171
2930.0 2605 2914 2938 2600 2166 1784 1523 1390 1293 1204
2970.0 1051 905 804 728 693 706 698 712 751 866
3010.0 1011 1143 1220 1295 1478 1728 2004 2209 2247 2084
3050.0 1887 1833 2004 2429 3107 3675 3560 2789 2036 1642
3090.0 1406 1187 1019 859 748 631 529 442 345 245
3130.0 194 166 155 138 127 141 135 124 104 105
3170.0 90 92 86 77 68 66 49 61 51 46
3210.0 47 45 53 61 49 65 60 64 63 64
3250.0 57 67 56 61 57 64 75 53 53 41
3290.0 59 75 61 50 53 62 52 79 59 62
3330.0 77 45 43 48 66 66 68 67 57 61
3370.0 45 64 69 56 57 65 60 66 63 70
3410.0 69 74 93 71 56 62 59 64 45 68
3450.0 61 79 85 59 45 67 62 46 69 57
3490.0 51 60 62 71 59 65 53 71 56 45
3530.0 61 39 62 60 67 69 56 48 36 76
3570.0 44 50 20 47 45 54 49 38 57 12
3610.0 71 76 86 63 34 72 115 70 93 73
3650.0 108 152 55 55 3 128 48 144 29 31
3690.0 91 41 19 36 32 77 60 31 35 28
3730.0 51 106 88 74 146 123 156 31 50 68
3770.0 20 92 32 81 31 27 61 89 90 145
3810.0 30 113 84 199 27 59 130 123 142 92
3850.0 118 101 193 81 129 172 34 79 85 171
3890.0 66 108 79 134 170 131 121 19 87 132
3930.0 134 103 93 50 102 64 83 58 78 93
##END=
