##TITLE=Succinimide, N-(m-chloroanilinomethyl)-,
##JCAMP-DX=4.24
##DATA TYPE=INFRARED SPECTRUM
##ORIGIN=Sadtler Research Labs Under US-EPA Contract
##OWNER=NIST Standard Reference Data Program
##CAS REGISTRY NO=70289-21-3
##MOLFORM=C 11 H 11 Cl N 2 O 2
##XUNITS=1/CM
##YUNITS=ABSORBANCE
##XFACTOR=1.0
##YFACTOR=0.000128494
##DELTAX=4.0
##FIRSTX=450.0
##LASTX=3966.0
##FIRSTY=0.000000
##MAXX=3966
##MINX=450
##MAXY=1.28494
##MINY=0
##NPOINTS=880
##XYDATA=(X++(Y..Y))
450.0 0 43 272 367 204 46 402 319 357 383
490.0 381 302 335 378 207 456 404 362 489 399
530.0 492 399 468 394 613 526 645 490 419 441
570.0 357 350 443 402 468 520 592 601 722 775
610.0 768 831 932 1044 1126 1242 1416 1656 1842 1980
650.0 1984 1933 1908 1788 1691 1543 1569 1353 1175 1119
690.0 948 889 834 744 665 573 589 558 471 484
730.0 474 438 496 539 577 556 576 637 855 962
770.0 842 777 680 622 602 589 587 460 408 419
810.0 442 498 584 474 593 526 570 579 640 799
850.0 826 872 894 990 824 911 830 943 1160 1160
890.0 1158 1192 1155 921 620 503 464 414 376 368
930.0 340 376 322 304 310 261 284 297 257 304
970.0 368 320 311 329 390 394 388 419 375 405
1010.0 336 287 271 262 300 307 339 311 319 317
1050.0 340 331 395 420 496 559 697 689 702 695
1090.0 667 633 615 579 605 640 719 909 1114 1411
1130.0 1658 1896 2273 2719 3131 3128 3101 2841 2478 2220
1170.0 1708 1112 844 738 671 670 711 735 681 700
1210.0 804 827 798 824 833 799 821 804 808 794
1250.0 791 809 753 804 865 924 948 997 1097 1217
1290.0 1219 1202 1189 1170 1169 1190 1289 1507 1753 2087
1330.0 2201 2286 2414 2132 1897 1631 1320 999 765 595
1370.0 561 479 419 361 372 386 369 399 417 398
1410.0 414 407 438 455 464 527 575 598 570 605
1450.0 664 685 677 671 709 806 935 1062 1077 1066
1490.0 960 819 654 528 444 389 384 372 393 386
1530.0 377 374 382 359 368 373 400 469 543 611
1570.0 731 837 985 1247 1387 1610 1783 1685 1558 1349
1610.0 1236 1206 1166 1180 1162 1093 972 779 662 528
1650.0 454 419 379 367 380 374 410 437 493 530
1690.0 616 750 950 1157 1436 1620 1813 1985 1963 2061
1730.0 2108 2277 2559 2822 3383 4169 5087 6128 7287 8923
1770.0 9779 10000 9961 8800 8225 7514 5322 3180 1956 1407
1810.0 1290 1177 1083 1052 936 791 622 496 410 319
1850.0 281 242 226 226 203 218 207 197 200 194
1890.0 199 199 191 194 191 195 192 197 203 191
1930.0 191 185 183 187 181 176 169 160 157 149
1970.0 143 140 136 131 131 131 123 118 119 113
2010.0 113 113 107 108 100 104 109 110 112 106
2050.0 108 113 117 128 128 128 125 115 110 94
2090.0 94 96 90 91 92 95 99 97 97 98
2130.0 95 101 101 101 96 104 106 103 104 107
2170.0 110 104 105 105 103 99 96 97 98 101
2210.0 98 101 104 103 93 98 103 103 104 103
2250.0 102 106 111 116 126 126 137 130 126 120
2290.0 118 121 116 119 127 124 124 127 123 102
2330.0 106 106 116 122 122 125 139 116 141 137
2370.0 128 126 114 117 108 96 91 88 93 88
2410.0 86 89 85 83 85 84 85 78 86 81
2450.0 82 84 80 87 86 87 85 90 90 86
2490.0 85 86 82 73 79 71 63 63 64 64
2530.0 65 62 56 59 63 62 65 67 64 61
2570.0 60 66 66 65 62 62 58 63 60 62
2610.0 67 70 67 71 73 64 61 62 64 71
2650.0 73 72 65 68 74 73 66 58 63 65
2690.0 60 55 52 44 45 42 49 50 50 62
2730.0 55 56 57 57 51 52 54 56 57 49
2770.0 51 52 50 48 51 55 56 58 61 61
2810.0 61 60 67 60 75 76 73 78 88 86
2850.0 97 108 99 103 106 109 121 123 136 158
2890.0 155 139 141 139 128 124 113 105 109 105
2930.0 123 118 135 162 206 232 253 268 247 241
2970.0 251 216 174 152 131 155 182 177 132 137
3010.0 142 153 190 223 267 285 281 281 241 197
3050.0 181 192 202 220 231 234 226 218 221 213
3090.0 202 178 152 141 125 105 111 82 74 74
3130.0 70 71 64 69 71 73 68 58 65 48
3170.0 59 62 58 49 54 47 50 54 64 63
3210.0 46 63 64 69 64 54 58 65 71 77
3250.0 59 78 52 59 56 66 57 50 79 63
3290.0 63 57 57 56 80 74 73 76 65 65
3330.0 66 58 67 68 71 64 53 78 69 73
3370.0 80 69 87 88 88 108 111 124 144 165
3410.0 168 194 227 249 302 360 427 517 624 722
3450.0 846 902 843 771 783 781 648 446 334 238
3490.0 219 192 172 147 137 138 156 136 148 162
3530.0 149 144 127 122 128 136 158 139 130 114
3570.0 127 123 114 131 103 116 92 75 56 58
3610.0 51 60 62 68 71 65 61 96 106 51
3650.0 82 59 65 42 97 98 89 60 70 68
3690.0 65 76 64 69 59 64 71 73 75 80
3730.0 61 65 86 72 47 52 82 99 78 45
3770.0 53 72 86 55 54 82 57 86 110 43
3810.0 64 41 58 41 57 94 87 104 91 52
3850.0 102 113 66 52 83 126 89 94 41 83
3890.0 66 109 126 172 132 75 46 93 41 88
3930.0 92 78 132 65 82 44 38 103 82 38
##END=
