##TITLE=2-Norbornaneethanol
##JCAMP-DX=4.24
##DATA TYPE=INFRARED SPECTRUM
##ORIGIN=Sadtler Research Labs Under US-EPA Contract
##OWNER=NIST Standard Reference Data Program
##CAS REGISTRY NO=70289-06-4
##MOLFORM=C 9 H 16 N
##XUNITS=1/CM
##YUNITS=ABSORBANCE
##XFACTOR=1.0
##YFACTOR=0.000182516
##DELTAX=4.0
##FIRSTX=450.0
##LASTX=3966.0
##FIRSTY=0.000000
##MAXX=3966
##MINX=450
##MAXY=1.82516
##MINY=0
##NPOINTS=880
##XYDATA=(X++(Y..Y))
450.0 0 84 227 254 129 241 129 131 122 177
490.0 200 241 166 131 200 227 211 211 191 171
530.0 122 78 134 135 100 103 46 56 105 166
570.0 113 182 121 131 70 107 143 128 96 76
610.0 106 81 87 102 78 61 105 122 78 78
650.0 113 120 106 110 119 105 98 81 115 71
690.0 91 99 47 74 78 110 72 93 107 93
730.0 121 67 47 80 172 103 135 126 99 89
770.0 70 87 116 135 134 103 126 138 107 115
810.0 99 143 132 115 137 144 170 162 170 179
850.0 190 192 185 170 161 171 199 227 230 226
890.0 214 186 164 170 194 227 264 294 294 305
930.0 299 280 271 278 280 270 254 256 238 243
970.0 256 338 391 437 494 515 530 541 598 658
1010.0 691 747 865 1003 1178 1354 1460 1561 1609 1676
1050.0 1794 1846 1848 1739 1541 1293 1029 793 606 467
1090.0 403 361 364 343 357 352 346 318 329 327
1130.0 311 313 296 295 278 263 264 252 257 254
1170.0 251 262 273 275 293 296 300 305 326 327
1210.0 369 381 401 408 387 371 345 330 318 312
1250.0 324 328 336 354 363 368 366 370 359 362
1290.0 361 356 358 361 373 368 366 353 337 323
1330.0 326 329 331 330 325 310 293 292 299 313
1370.0 342 378 417 458 495 509 501 468 401 351
1410.0 296 262 244 241 245 263 285 319 367 438
1450.0 525 619 657 657 592 511 450 405 363 309
1490.0 239 171 121 108 99 97 90 92 86 83
1530.0 86 75 85 74 78 75 76 79 72 66
1570.0 71 65 71 64 66 60 65 57 61 60
1610.0 55 64 56 63 59 59 58 59 53 57
1650.0 56 54 59 51 55 50 56 48 60 50
1690.0 54 55 56 58 56 57 54 58 51 48
1730.0 55 51 58 48 52 52 48 54 52 54
1770.0 52 50 52 50 50 45 49 49 53 50
1810.0 50 48 46 47 48 51 47 47 48 48
1850.0 48 50 52 49 52 48 47 48 47 49
1890.0 50 51 53 49 48 48 46 48 47 48
1930.0 46 47 48 43 45 45 48 47 48 48
1970.0 44 45 46 46 46 46 45 47 46 46
2010.0 46 45 48 49 50 50 50 53 54 55
2050.0 56 53 56 59 59 60 59 60 55 56
2090.0 52 51 50 50 47 47 47 49 45 46
2130.0 45 44 44 43 42 43 44 45 45 42
2170.0 44 43 47 48 49 51 48 49 44 45
2210.0 44 46 44 45 43 42 43 45 45 47
2250.0 48 46 47 44 45 46 43 42 40 38
2290.0 36 31 29 33 35 40 54 69 78 95
2330.0 104 102 117 105 102 78 125 87 119 86
2370.0 73 58 44 31 27 31 39 39 41 45
2410.0 46 45 45 45 43 44 45 44 46 47
2450.0 43 44 43 43 45 44 45 44 43 41
2490.0 43 42 43 44 43 42 42 41 43 43
2530.0 44 45 44 46 46 46 47 51 54 58
2570.0 58 60 59 56 55 58 62 59 58 63
2610.0 62 62 63 62 65 63 64 62 60 61
2650.0 62 63 62 67 70 72 73 75 76 79
2690.0 85 90 94 95 96 97 98 100 103 105
2730.0 108 111 114 116 120 127 132 138 146 152
2770.0 160 166 170 172 177 181 181 181 182 182
2810.0 184 193 204 220 240 271 314 367 432 511
2850.0 609 755 967 1298 1761 2370 3099 3721 3978 3855
2890.0 3422 2826 2381 2173 2137 2273 2557 2919 3275 3591
2930.0 3912 4227 4584 5089 5949 7348 8855 10000 9626 8478
2970.0 6415 3994 2338 1364 826 540 388 302 244 215
3010.0 184 166 149 141 129 118 114 112 106 101
3050.0 91 88 79 74 67 64 64 58 57 57
3090.0 55 49 50 46 45 52 49 48 48 48
3130.0 45 47 45 43 41 44 37 39 36 38
3170.0 39 41 41 41 42 45 45 46 47 44
3210.0 42 40 40 37 35 34 37 34 38 34
3250.0 35 34 33 34 34 36 34 36 33 31
3290.0 31 32 34 30 34 31 31 30 36 36
3330.0 40 41 44 43 41 42 45 41 46 48
3370.0 44 41 40 38 35 35 37 35 45 48
3410.0 47 50 51 55 58 59 61 51 49 46
3450.0 45 40 50 49 53 52 47 47 48 47
3490.0 47 51 47 48 50 43 45 54 52 48
3530.0 42 46 47 45 46 40 49 43 48 43
3570.0 38 41 38 42 38 40 39 45 40 45
3610.0 36 49 45 49 53 63 63 87 113 142
3650.0 218 282 370 430 501 507 493 406 310 220
3690.0 128 108 78 73 64 51 44 50 59 57
3730.0 55 52 32 53 31 45 42 33 32 27
3770.0 30 27 32 31 33 39 43 40 39 36
3810.0 48 34 53 39 52 43 37 47 42 61
3850.0 53 61 45 57 61 42 61 74 79 65
3890.0 67 55 66 49 48 60 51 53 51 37
3930.0 40 53 46 44 48 46 49 34 46 65
##END=
