##TITLE=Heptanoic acid, 3-ethyl-3-methyl-
##JCAMP-DX=4.24
##DATA TYPE=INFRARED SPECTRUM
##ORIGIN=Sadtler Research Labs Under US-EPA Contract
##OWNER=NIST Standard Reference Data Program
##CAS REGISTRY NO=70289-01-9
##MOLFORM=C 10 H 20 O 2
##XUNITS=1/CM
##YUNITS=ABSORBANCE
##XFACTOR=1.0
##YFACTOR=0.000068445
##DELTAX=4.0
##FIRSTX=450.0
##LASTX=3966.0
##FIRSTY=0.032580
##MAXX=3966
##MINX=450
##MAXY=0.68445
##MINY=0
##NPOINTS=880
##XYDATA=(X++(Y..Y))
450.0 476 397 241 269 179 323 121 33 138 44
490.0 96 288 318 261 332 334 328 304 350 312
530.0 288 278 300 321 393 650 845 990 1240 1461
570.0 1524 1527 1353 1125 830 588 681 681 776 1010
610.0 1248 1531 1778 1904 1828 1765 1508 1204 1063 960
650.0 753 691 668 648 656 848 753 949 969 1038
690.0 964 830 616 436 413 255 186 208 231 286
730.0 219 296 157 176 218 413 205 228 257 221
770.0 234 146 108 211 283 273 194 193 164 196
810.0 118 18 32 31 81 111 53 72 67 132
850.0 143 179 166 163 197 205 219 252 219 251
890.0 238 255 275 314 324 299 271 263 261 260
930.0 247 246 243 227 207 230 200 215 223 179
970.0 130 157 163 188 198 214 219 255 347 407
1010.0 441 427 429 394 412 397 446 488 556 608
1050.0 743 883 1031 1207 1509 1813 2166 2455 2766 3116
1090.0 3494 4188 4926 5870 6782 7177 6915 5863 4693 3626
1130.0 2888 2430 2094 2013 1990 2020 2069 2369 2619 2830
1170.0 2919 2873 2786 2615 2446 2231 1976 1771 1534 1363
1210.0 1183 1087 1006 930 951 946 901 825 808 758
1250.0 738 699 662 658 612 615 569 570 565 585
1290.0 634 695 701 753 789 793 784 818 823 878
1330.0 934 1027 1143 1306 1481 1603 1752 1839 1945 2065
1370.0 2108 2138 2239 2224 2278 1974 1573 1090 738 610
1410.0 498 513 473 512 551 592 649 690 781 816
1450.0 915 1239 1448 1858 1934 2012 1740 1312 893 548
1490.0 414 315 219 223 152 153 36 159 92 151
1530.0 66 81 147 134 102 51 150 110 208 68
1570.0 120 149 55 127 67 40 109 7 105 47
1610.0 81 91 137 93 80 143 86 133 107 51
1650.0 245 106 246 72 191 142 192 175 202 237
1690.0 181 222 283 359 375 450 538 706 833 945
1730.0 1217 1427 1885 2283 2919 3732 4722 5914 7217 8407
1770.0 9206 9267 8422 7134 5604 4435 3324 2554 1896 1428
1810.0 1121 828 645 535 449 388 275 294 221 236
1850.0 166 170 154 120 103 82 117 74 83 84
1890.0 75 70 84 59 66 68 67 73 68 54
1930.0 61 54 65 63 71 71 66 101 60 90
1970.0 68 75 64 62 56 55 55 56 71 64
2010.0 75 71 52 57 66 65 70 63 50 50
2050.0 54 41 50 48 41 53 56 46 54 46
2090.0 44 41 41 43 47 37 35 44 49 49
2130.0 51 49 47 48 42 50 49 50 48 48
2170.0 52 60 66 70 76 75 82 80 78 80
2210.0 79 69 74 72 58 63 71 55 51 63
2250.0 66 64 58 56 60 55 47 49 49 45
2290.0 48 45 40 39 35 20 15 11 5 5
2330.0 5 5 5 0 8 5 1 8 2 5
2370.0 10 4 20 44 57 72 61 56 61 53
2410.0 65 62 59 54 52 55 52 55 53 50
2450.0 48 45 36 43 39 51 47 51 51 42
2490.0 48 43 45 46 34 33 36 35 46 43
2530.0 47 49 54 56 56 66 57 58 63 57
2570.0 62 61 57 62 58 56 58 70 75 75
2610.0 71 83 85 90 83 89 84 84 87 86
2650.0 91 94 98 94 102 93 93 93 90 79
2690.0 73 71 64 79 82 87 99 107 113 120
2730.0 123 131 139 145 153 151 142 132 128 122
2770.0 129 135 141 151 159 166 194 206 213 236
2810.0 252 273 310 331 370 415 472 539 620 729
2850.0 888 1126 1472 1949 2504 3001 3313 3506 3636 3704
2890.0 3626 3404 3179 3075 3124 3367 3729 4143 4571 5105
2930.0 5824 6714 7529 7913 7664 6949 6321 6304 7186 8739
2970.0 9998 10000 8564 6360 4358 2926 2016 1450 1103 867
3010.0 708 601 534 467 422 373 332 289 266 240
3050.0 221 212 208 203 207 202 195 193 198 187
3090.0 181 175 165 161 157 149 150 149 152 149
3130.0 135 143 143 135 136 129 128 126 128 126
3170.0 137 142 141 157 165 149 158 153 141 136
3210.0 121 128 122 119 103 128 132 124 132 125
3250.0 134 135 124 139 132 117 117 118 113 125
3290.0 129 136 125 138 126 118 117 133 117 113
3330.0 111 121 103 117 113 125 126 138 140 143
3370.0 148 138 121 129 130 116 124 111 132 126
3410.0 115 125 129 135 141 121 136 111 118 120
3450.0 112 124 115 120 123 116 126 133 117 126
3490.0 120 143 118 129 122 145 158 156 174 165
3530.0 199 202 218 258 263 321 456 811 1972 3662
3570.0 4770 4613 3373 1567 716 308 266 134 215 129
3610.0 186 163 136 151 104 168 145 124 101 180
3650.0 88 240 13 198 32 188 91 183 105 45
3690.0 197 22 152 69 104 145 140 132 154 112
3730.0 157 156 136 163 177 227 130 156 75 145
3770.0 117 178 135 155 171 151 156 205 142 270
3810.0 60 298 89 298 121 199 180 266 199 124
3850.0 249 153 264 60 177 223 118 212 123 221
3890.0 214 186 237 184 228 145 155 137 125 121
3930.0 113 122 99 106 167 156 203 233 214 227
##END=
