##TITLE=Butanenitrile, 4-(dipropylamino)-
##JCAMP-DX=4.24
##DATA TYPE=INFRARED SPECTRUM
##ORIGIN=Sadtler Research Labs Under US-EPA Contract
##OWNER=NIST Standard Reference Data Program
##CAS REGISTRY NO=70288-99-2
##MOLFORM=C 10 H 20 N 2
##XUNITS=1/CM
##YUNITS=ABSORBANCE
##XFACTOR=1.0
##YFACTOR=0.000085547
##DELTAX=4.0
##FIRSTX=450.0
##LASTX=3966.0
##FIRSTY=0.029257
##MAXX=3966
##MINX=450
##MAXY=0.85547
##MINY=0
##NPOINTS=880
##XYDATA=(X++(Y..Y))
450.0 342 274 372 334 332 468 458 375 359 229
490.0 397 349 385 314 304 322 320 134 173 173
530.0 216 233 28 0 346 126 280 76 360 424
570.0 188 295 182 343 393 277 226 360 304 287
610.0 242 187 403 222 201 200 92 331 145 194
650.0 100 257 258 176 59 266 270 225 218 139
690.0 349 348 219 338 291 421 336 262 402 427
730.0 478 413 476 387 490 385 424 312 377 462
770.0 256 279 285 288 341 169 257 276 345 327
810.0 256 332 473 431 436 557 513 533 461 452
850.0 449 457 524 407 431 524 429 499 501 536
890.0 572 596 437 454 397 456 376 311 363 370
930.0 356 358 278 374 367 298 319 300 385 394
970.0 388 478 568 586 658 545 656 693 746 830
1010.0 831 840 862 765 740 720 800 833 849 864
1050.0 983 1075 1210 1253 1379 1634 1816 2098 2234 2249
1090.0 2118 1783 1524 1301 1090 998 859 790 763 746
1130.0 660 651 570 696 784 901 963 886 833 688
1170.0 577 630 749 980 1126 1203 1183 1067 872 776
1210.0 671 625 596 496 544 534 574 581 544 549
1250.0 581 592 660 655 709 752 778 782 811 837
1290.0 963 933 960 928 862 829 716 690 701 698
1330.0 710 745 858 1039 1122 1148 1181 1153 1185 1171
1370.0 1149 1291 1340 1504 1450 1316 1081 855 679 596
1410.0 502 531 561 621 723 879 995 1118 1026 1092
1450.0 1223 1403 1741 1882 2115 2047 1803 1367 954 671
1490.0 556 404 395 368 355 392 315 287 350 265
1530.0 294 234 223 308 242 197 201 198 270 176
1570.0 154 177 225 172 171 146 201 183 178 193
1610.0 172 218 231 172 192 208 174 231 158 194
1650.0 202 253 188 159 188 217 152 196 134 226
1690.0 172 118 175 238 189 195 189 229 255 225
1730.0 230 233 204 206 144 128 145 122 149 91
1770.0 112 116 100 90 91 51 125 92 91 82
1810.0 70 107 89 56 100 76 102 73 46 111
1850.0 84 74 65 69 72 114 48 72 63 79
1890.0 83 45 61 65 59 81 41 65 65 69
1930.0 44 47 53 85 56 50 68 46 91 46
1970.0 62 76 55 69 56 45 77 49 57 43
2010.0 54 54 59 22 52 33 61 43 21 48
2050.0 51 46 43 23 59 61 39 40 51 52
2090.0 66 34 39 57 35 57 19 49 46 42
2130.0 33 27 35 46 24 24 28 39 38 35
2170.0 16 62 36 57 22 39 73 49 54 41
2210.0 56 65 55 33 53 61 68 74 92 158
2250.0 217 227 219 123 112 62 59 43 43 55
2290.0 58 27 39 58 47 41 19 29 93 30
2330.0 57 47 77 101 68 14 16 79 102 100
2370.0 78 126 91 77 30 26 46 38 33 51
2410.0 33 70 33 31 38 52 58 46 38 59
2450.0 64 39 52 29 68 59 37 48 35 55
2490.0 59 25 53 49 63 41 40 44 85 51
2530.0 64 55 72 97 63 82 85 102 109 72
2570.0 90 118 119 118 113 119 151 144 127 162
2610.0 138 184 160 159 174 181 207 200 187 243
2650.0 238 256 246 271 304 336 312 348 364 367
2690.0 372 338 398 415 447 479 509 594 647 673
2730.0 727 764 828 878 905 911 958 957 1020 1007
2770.0 1106 1194 1288 1380 1477 1648 1944 2274 2757 3338
2810.0 3815 4129 4044 3693 3283 2774 2391 2070 1784 1684
2850.0 1515 1485 1486 1598 1851 2225 2679 3311 3792 3956
2890.0 3701 3154 2852 2750 2792 2952 3028 3251 3425 3710
2930.0 4251 4986 5881 6589 6686 6467 6112 6346 7682 9132
2970.0 10000 9293 7279 5250 3464 2220 1553 1103 924 763
3010.0 710 642 568 506 511 481 446 396 351 367
3050.0 327 263 256 226 257 201 196 218 188 213
3090.0 184 172 183 204 169 187 133 185 177 155
3130.0 163 144 169 177 113 150 148 176 137 130
3170.0 132 169 137 123 120 107 157 102 103 129
3210.0 114 126 86 88 117 95 127 83 104 118
3250.0 136 85 130 89 135 99 64 105 99 118
3290.0 74 56 112 87 81 58 69 101 86 58
3330.0 87 102 98 134 50 118 86 122 113 73
3370.0 104 138 96 101 63 96 119 94 53 90
3410.0 74 108 31 67 107 67 85 38 84 100
3450.0 90 65 92 77 121 93 78 90 102 97
3490.0 103 18 117 68 90 42 49 87 91 37
3530.0 36 37 60 47 30 55 75 40 50 24
3570.0 76 82 30 68 30 104 58 66 44 57
3610.0 79 103 42 55 52 96 34 39 15 69
3650.0 59 36 41 38 59 33 22 67 51 25
3690.0 78 16 57 53 44 51 48 58 73 36
3730.0 50 48 110 44 95 35 97 27 33 14
3770.0 30 29 14 14 14 14 48 25 44 28
3810.0 58 58 51 76 73 79 61 78 49 113
3850.0 63 103 66 64 106 64 17 33 31 26
3890.0 12 14 12 41 13 14 14 39 61 25
3930.0 62 69 128 119 106 128 3 14 14 14
##END=
