##TITLE=1-Butanone, 4-chloro-1-[4-(1-methylethyl)phenyl]-
##JCAMP-DX=4.24
##DATA TYPE=INFRARED SPECTRUM
##ORIGIN=Sadtler Research Labs Under US-EPA Contract
##OWNER=NIST Standard Reference Data Program
##CAS REGISTRY NO=70289-38-2
##MOLFORM=C 13 H 17 Cl O
##XUNITS=1/CM
##YUNITS=ABSORBANCE
##XFACTOR=1.0
##YFACTOR=0.000049451
##DELTAX=4.0
##FIRSTX=450.0
##LASTX=3966.0
##FIRSTY=0.063692
##MAXX=3966
##MINX=450
##MAXY=0.49451
##MINY=0
##NPOINTS=880
##XYDATA=(X++(Y..Y))
450.0 1288 833 66 752 494 727 715 0 561 198
490.0 498 85 440 598 315 234 164 380 612 512
530.0 760 712 842 446 558 308 422 394 601 775
570.0 733 384 362 624 517 415 563 483 300 377
610.0 405 257 231 336 449 419 348 343 293 459
650.0 479 399 397 466 368 281 300 383 431 489
690.0 483 777 900 1131 1400 1448 1374 1176 1015 767
730.0 700 661 677 613 564 529 576 488 555 472
770.0 470 477 391 459 487 440 563 596 544 588
810.0 626 866 1005 1191 1432 1536 1861 1979 1792 1500
850.0 1134 782 593 497 467 466 497 558 562 621
890.0 521 394 323 310 321 308 350 418 542 782
930.0 960 1132 1250 1330 1492 1780 2086 1925 1554 1093
970.0 932 921 902 911 945 974 1004 989 931 834
1010.0 1001 1439 1773 1513 973 546 607 757 1056 1526
1050.0 2054 2858 3677 3840 3298 2328 1522 1129 853 710
1090.0 629 550 573 594 651 666 599 517 436 397
1130.0 382 434 470 566 528 492 452 421 395 439
1170.0 445 525 775 1194 1599 1531 1081 811 809 944
1210.0 1200 1480 1889 2190 2418 2418 2259 2111 2028 2128
1250.0 2001 1977 1858 1609 1493 1417 1400 1264 1263 1279
1290.0 1347 1547 1815 2157 2455 2375 2200 1852 1479 1207
1330.0 1053 1031 984 985 1053 1121 1227 1382 1494 1600
1370.0 1560 1406 1138 899 784 757 709 666 758 942
1410.0 1178 1490 1482 1280 1048 787 685 683 690 779
1450.0 939 975 1040 996 1072 1011 938 799 711 628
1490.0 460 526 561 622 881 1233 1213 948 443 260
1530.0 104 129 67 56 83 104 144 119 232 306
1570.0 361 362 232 218 269 351 497 772 1275 1632
1610.0 1752 1420 902 618 527 588 624 762 820 826
1650.0 779 645 572 538 447 505 449 688 823 1363
1690.0 2204 3179 4048 3789 3014 1777 1142 607 482 402
1730.0 244 247 150 196 175 146 205 206 212 241
1770.0 202 187 182 198 193 172 153 156 115 149
1810.0 97 107 112 67 94 47 94 74 67 66
1850.0 64 82 70 74 74 74 108 107 129 145
1890.0 158 186 211 221 231 205 213 171 158 151
1930.0 128 144 144 129 131 124 131 118 115 115
1970.0 112 112 113 110 122 117 126 134 133 135
2010.0 136 126 125 110 116 115 113 114 107 107
2050.0 115 102 96 102 104 95 104 111 100 105
2090.0 88 88 107 100 98 93 97 99 92 92
2130.0 88 89 93 87 86 87 84 77 71 75
2170.0 81 81 79 67 72 74 72 77 67 68
2210.0 72 71 72 71 79 80 89 84 85 89
2250.0 91 95 96 100 96 105 111 103 102 108
2290.0 104 108 108 107 108 97 97 91 96 78
2330.0 79 76 60 86 63 105 56 86 46 66
2370.0 91 70 85 87 91 92 82 87 88 84
2410.0 91 89 85 81 90 87 82 84 82 77
2450.0 90 82 94 90 94 91 82 87 93 84
2490.0 85 88 97 86 81 84 78 83 77 76
2530.0 90 79 84 84 90 96 87 94 93 98
2570.0 102 109 117 115 125 130 118 140 136 118
2610.0 107 93 97 105 118 101 89 103 101 82
2650.0 109 114 111 105 97 104 114 147 124 105
2690.0 115 103 131 165 173 135 150 167 173 220
2730.0 253 197 183 199 162 218 225 192 185 194
2770.0 204 230 278 185 218 208 233 307 312 248
2810.0 293 293 351 456 407 414 449 482 583 702
2850.0 766 990 1279 1794 2364 2711 2837 2879 2898 2939
2890.0 2896 2900 2980 3017 3044 2975 2936 2993 3203 3530
2930.0 3828 3983 4119 4232 4148 4068 4088 4736 6346 8481
2970.0 10000 9308 6949 4765 3131 2288 1892 1681 1474 1241
3010.0 1183 1097 1009 915 993 1197 1297 1245 1077 951
3050.0 852 832 825 804 732 709 700 682 712 751
3090.0 761 711 634 525 444 437 410 377 321 272
3130.0 240 211 192 180 156 148 154 141 161 144
3170.0 126 121 133 141 137 152 136 111 116 132
3210.0 124 106 114 117 93 124 110 97 109 106
3250.0 105 105 110 101 98 126 102 112 106 100
3290.0 99 96 89 98 95 80 96 95 92 87
3330.0 102 106 105 116 93 91 97 109 116 127
3370.0 137 119 126 139 127 122 117 97 92 86
3410.0 89 89 81 79 80 86 88 104 79 88
3450.0 83 82 77 104 89 77 96 88 116 94
3490.0 73 100 96 90 82 98 87 70 94 120
3530.0 83 85 108 91 117 102 83 103 117 164
3570.0 140 146 153 150 192 175 165 81 159 94
3610.0 153 127 92 121 128 160 154 98 121 113
3650.0 108 190 89 146 91 182 103 168 132 105
3690.0 151 103 139 92 107 109 135 138 126 167
3730.0 133 110 156 133 152 132 140 121 117 156
3770.0 97 140 87 117 113 101 96 98 123 186
3810.0 77 181 71 188 96 135 165 139 149 100
3850.0 186 167 156 89 149 176 81 169 178 150
3890.0 108 149 169 134 166 49 115 77 132 166
3930.0 101 191 98 80 130 176 140 104 100 93
##END=
