##TITLE=Citric acid, tripentyl ester
##JCAMP-DX=4.24
##DATA TYPE=INFRARED SPECTRUM
##ORIGIN=Sadtler Research Labs Under US-EPA Contract
##OWNER=NIST Standard Reference Data Program
##CAS REGISTRY NO=70289-34-8
##MOLFORM=C 21 H 38 O 7
##XUNITS=1/CM
##YUNITS=ABSORBANCE
##XFACTOR=1.0
##YFACTOR=0.000034155
##DELTAX=4.0
##FIRSTX=450.0
##LASTX=3966.0
##FIRSTY=0.001605
##MAXX=3966
##MINX=450
##MAXY=0.34155
##MINY=0
##NPOINTS=880
##XYDATA=(X++(Y..Y))
450.0 47 75 879 712 494 474 240 501 312 604
490.0 42 120 355 276 217 450 530 317 185 559
530.0 591 318 445 380 381 336 246 209 363 549
570.0 395 398 398 402 393 384 403 307 362 332
610.0 439 345 384 422 314 290 403 308 287 254
650.0 352 396 389 334 224 429 589 232 292 400
690.0 327 303 222 257 295 462 390 238 325 243
730.0 353 451 591 317 321 319 317 314 256 353
770.0 470 445 472 414 321 396 375 301 206 444
810.0 407 347 220 238 252 177 449 261 160 430
850.0 487 260 284 428 331 386 514 585 562 514
890.0 454 629 542 516 494 565 558 512 632 559
930.0 588 611 570 682 598 693 756 930 1014 1219
970.0 1461 1821 2116 2458 2534 2397 2174 1898 1683 1510
1010.0 1440 1389 1462 1561 1640 1794 2003 2116 2309 2319
1050.0 2261 2145 2117 2143 2206 2262 2327 2339 2268 2181
1090.0 2096 1989 1960 1951 2034 2115 2157 2221 2219 2299
1130.0 2298 2416 2598 2777 3163 3651 4275 4872 5730 6714
1170.0 7577 8297 8829 8902 8725 8488 7859 7390 6940 6454
1210.0 6041 5581 5218 4981 4755 4495 4493 4377 4207 4084
1250.0 4041 3955 3784 3545 3390 3198 3093 2943 2832 2690
1290.0 2666 2641 2547 2519 2448 2478 2489 2562 2685 2764
1330.0 2877 3000 3053 3081 2911 2726 2422 2065 1924 1702
1370.0 1592 1559 1603 1705 1917 1986 1952 1796 1594 1521
1410.0 1454 1453 1359 1333 1255 1230 1189 1188 1132 1127
1450.0 1128 1283 1411 1596 1527 1604 1407 1142 894 766
1490.0 669 625 636 558 552 610 337 445 393 297
1530.0 325 306 299 269 263 242 236 404 364 291
1570.0 252 291 286 278 270 179 224 189 237 262
1610.0 141 342 251 274 253 323 274 285 276 369
1650.0 443 433 392 244 393 418 419 430 473 617
1690.0 632 656 830 1040 1179 1361 1587 2111 2481 3037
1730.0 3669 4155 5465 6603 8306 10000 9962 9601 8130 6171
1770.0 4655 3281 2421 1847 1453 1181 994 811 696 586
1810.0 516 455 367 368 306 318 243 229 220 209
1850.0 207 189 188 168 152 155 156 148 149 132
1890.0 134 143 126 137 119 110 98 130 114 122
1930.0 133 111 107 123 119 118 110 105 85 132
1970.0 119 86 99 119 120 92 110 86 69 85
2010.0 101 94 88 121 110 106 116 87 117 101
2050.0 110 108 105 101 86 94 113 98 99 78
2090.0 88 110 84 98 82 91 93 85 97 85
2130.0 85 84 74 76 72 68 77 73 79 69
2170.0 83 74 64 61 65 62 72 76 68 66
2210.0 58 64 58 61 59 67 70 71 72 68
2250.0 64 83 62 64 68 78 76 75 78 97
2290.0 107 109 115 129 133 150 126 89 99 69
2330.0 74 53 34 55 93 138 114 73 50 65
2370.0 20 40 74 84 75 49 41 42 45 41
2410.0 40 50 24 33 36 39 37 29 31 42
2450.0 37 25 24 29 26 26 23 25 20 23
2490.0 23 22 9 18 15 19 28 22 21 30
2530.0 17 23 21 37 25 25 33 17 30 38
2570.0 36 29 45 40 46 44 42 46 39 34
2610.0 38 49 44 48 39 53 47 56 56 64
2650.0 68 68 71 74 67 88 90 98 87 100
2690.0 103 104 110 105 116 98 118 120 119 129
2730.0 136 152 155 174 171 172 165 183 174 198
2770.0 195 204 210 215 238 258 266 289 320 345
2810.0 370 393 423 456 474 536 605 686 783 944
2850.0 1144 1383 1698 2029 2371 2668 2809 2856 2906 2897
2890.0 2731 2561 2508 2593 2784 3021 3332 3743 4172 4694
2930.0 5275 5891 6375 6658 6572 6142 5796 5915 6453 7047
2970.0 7056 6253 4877 3629 2795 2249 1817 1448 1147 922
3010.0 762 649 569 504 462 429 375 363 322 312
3050.0 302 288 275 265 267 254 245 249 246 265
3090.0 239 237 208 197 193 171 149 154 131 110
3130.0 117 124 143 119 117 87 90 110 107 113
3170.0 84 106 97 112 107 110 105 92 77 88
3210.0 76 98 102 81 80 73 77 57 61 73
3250.0 79 61 67 42 51 57 37 36 54 29
3290.0 36 43 53 56 50 52 20 34 65 62
3330.0 54 52 59 56 58 54 47 74 93 64
3370.0 58 86 87 73 90 101 104 112 127 142
3410.0 163 119 146 158 133 157 167 146 155 188
3450.0 201 204 208 265 234 272 254 283 259 288
3490.0 298 273 301 288 266 307 376 351 329 399
3530.0 410 440 433 486 524 490 489 505 438 413
3570.0 387 367 359 353 262 279 257 254 246 256
3610.0 251 196 254 161 220 157 123 80 127 111
3650.0 229 138 157 101 175 203 195 177 114 116
3690.0 75 171 9 59 75 54 63 38 41 33
3730.0 68 123 63 56 164 34 134 19 55 30
3770.0 70 41 8 32 8 14 18 50 96 19
3810.0 69 10 55 154 18 70 42 68 77 47
3850.0 64 69 59 11 9 27 29 16 10 59
3890.0 41 31 9 10 36 35 63 9 26 9
3930.0 104 93 73 92 0 83 24 67 50 117
##END=
