##TITLE=Hydrocinnamonitrile, p-chloro-.beta.-ethyl-.beta.-methyl-
##JCAMP-DX=4.24
##DATA TYPE=INFRARED SPECTRUM
##ORIGIN=Sadtler Research Labs Under US-EPA Contract
##OWNER=NIST Standard Reference Data Program
##CAS REGISTRY NO=70289-03-1
##MOLFORM=C 12 H 14 Cl N
##XUNITS=1/CM
##YUNITS=ABSORBANCE
##XFACTOR=1.0
##YFACTOR=0.000049097
##DELTAX=4.0
##FIRSTX=450.0
##LASTX=3966.0
##FIRSTY=0.000000
##MAXX=3966
##MINX=450
##MAXY=0.49097
##MINY=0
##NPOINTS=880
##XYDATA=(X++(Y..Y))
450.0 0 773 1173 1042 1076 1865 972 1439 1196 1546
490.0 1660 1448 1957 1548 1763 1419 1984 1855 1560 1796
530.0 1802 1811 1384 1484 1396 1474 1062 1380 1249 1354
570.0 1281 1099 1258 817 899 907 1083 895 838 884
610.0 1024 1075 1090 1179 1077 948 984 758 788 843
650.0 774 949 886 674 699 861 892 805 787 772
690.0 930 797 1094 1038 1037 805 1088 1319 1548 2117
730.0 2089 2752 2865 2548 2011 1802 1094 971 857 808
770.0 857 1014 1061 1138 1280 1354 1424 1233 1615 1795
810.0 2381 3575 4657 5637 5511 4037 2798 2278 1779 1596
850.0 1462 1191 1019 1164 1147 1169 1109 1221 1319 1280
890.0 1249 1324 1504 1433 1613 1496 1532 1524 1528 1632
930.0 1535 1478 1480 1508 1516 1489 1359 1429 1307 1144
970.0 1059 875 977 798 849 884 1023 1316 1964 3386
1010.0 5753 6619 4978 2526 1126 929 790 767 881 975
1050.0 1030 1075 862 847 816 938 998 1402 1798 2333
1090.0 3311 4161 5355 6663 7369 7304 5729 3565 1817 1281
1130.0 979 961 1039 866 888 789 782 851 881 814
1170.0 828 827 785 779 625 720 859 768 906 1100
1210.0 1138 1351 1491 1428 1444 1337 1252 1269 1223 1196
1250.0 1224 1191 1174 1155 1175 1174 1107 1101 983 979
1290.0 1026 998 989 1068 1095 1239 1372 1470 1622 1504
1330.0 1414 1223 1239 1205 1092 1003 896 838 949 981
1370.0 1056 1171 1469 1876 2396 2734 2806 2678 2389 2082
1410.0 1667 1425 1437 1591 1822 2079 2217 2081 1882 1741
1450.0 1971 2284 2833 3439 3785 4177 4190 4137 4432 5337
1490.0 6910 8496 9065 7925 5469 3065 1981 1472 1277 1231
1530.0 1070 1119 1089 1085 1075 955 1006 991 1024 986
1570.0 1086 1144 1144 1229 1252 1370 1567 1495 1429 1293
1610.0 1093 966 944 897 883 929 1003 1049 995 912
1650.0 968 871 793 689 730 703 735 677 742 785
1690.0 737 730 834 827 746 718 752 815 776 737
1730.0 813 849 855 836 864 922 922 945 972 974
1770.0 998 999 884 828 779 784 781 782 757 742
1810.0 748 738 726 726 751 766 755 764 763 805
1850.0 763 741 750 759 794 813 839 864 929 999
1890.0 1062 1075 1027 954 890 835 808 786 759 731
1930.0 725 733 723 741 735 722 721 713 711 714
1970.0 709 700 695 704 703 703 709 707 709 703
2010.0 706 698 697 696 691 691 682 687 693 693
2050.0 694 689 681 685 685 678 683 681 680 678
2090.0 691 689 696 696 691 699 698 689 695 676
2130.0 674 672 670 672 670 671 672 671 682 680
2170.0 672 671 674 664 670 675 667 681 684 680
2210.0 682 684 692 690 694 704 744 784 822 865
2250.0 889 872 834 792 759 735 715 706 695 688
2290.0 688 695 700 708 714 717 734 718 717 689
2330.0 667 653 628 613 639 651 618 647 626 627
2370.0 683 656 670 681 688 690 677 680 682 682
2410.0 681 684 678 677 673 676 667 665 658 650
2450.0 643 643 652 653 657 664 668 672 674 682
2490.0 679 680 675 681 681 671 676 684 685 679
2530.0 682 695 686 690 675 672 678 681 682 683
2570.0 700 709 727 729 724 746 753 738 733 718
2610.0 719 723 721 713 717 697 695 686 693 682
2650.0 676 671 673 675 678 679 686 684 701 704
2690.0 704 701 699 701 689 694 683 700 683 693
2730.0 687 691 699 707 709 723 732 740 730 723
2770.0 711 703 715 736 754 755 783 784 789 802
2810.0 814 805 830 828 861 885 927 980 1030 1084
2850.0 1116 1142 1238 1355 1580 1834 2089 2346 2642 2939
2890.0 3237 3361 3220 2947 2687 2598 2707 2995 3452 4010
2930.0 4537 5024 5351 5481 5415 5212 4972 4753 4734 5239
2970.0 6424 8273 9872 10000 8459 6297 4567 3366 2481 1850
3010.0 1526 1357 1255 1228 1244 1292 1387 1510 1576 1600
3050.0 1503 1420 1366 1321 1288 1246 1242 1248 1296 1423
3090.0 1580 1715 1717 1606 1435 1287 1139 994 905 828
3130.0 795 763 740 731 716 707 699 687 676 682
3170.0 681 677 665 669 671 646 681 693 690 714
3210.0 699 697 699 694 704 683 670 660 648 664
3250.0 684 680 701 719 701 717 719 727 725 733
3290.0 745 737 747 749 748 747 755 754 744 746
3330.0 737 725 707 720 721 714 701 710 712 720
3370.0 725 711 711 708 721 700 706 702 685 704
3410.0 688 682 715 706 693 701 696 692 688 673
3450.0 668 681 669 677 682 685 700 704 696 702
3490.0 693 686 662 641 650 659 675 676 682 668
3530.0 687 677 691 667 670 676 677 645 658 654
3570.0 681 670 698 701 707 688 710 683 701 677
3610.0 684 700 677 699 664 714 703 687 675 690
3650.0 665 703 651 680 640 673 723 689 707 659
3690.0 716 720 701 704 697 684 686 669 697 662
3730.0 709 712 643 707 674 745 655 696 645 644
3770.0 650 658 651 661 654 684 676 702 699 739
3810.0 711 689 675 704 689 696 693 669 656 688
3850.0 681 728 707 655 657 623 639 650 667 664
3890.0 642 681 716 721 723 736 706 690 657 682
3930.0 669 665 683 692 710 658 673 690 700 704
##END=
