##TITLE=Aniline, 5-tert-pentyl-2-phenoxy-,
##JCAMP-DX=4.24
##DATA TYPE=INFRARED SPECTRUM
##ORIGIN=Sadtler Research Labs Under US-EPA Contract
##OWNER=NIST Standard Reference Data Program
##CAS REGISTRY NO=70289-36-0
##MOLFORM=C 17 H 21 N O
##XUNITS=1/CM
##YUNITS=ABSORBANCE
##XFACTOR=1.0
##YFACTOR=0.000119565
##DELTAX=4.0
##FIRSTX=450.0
##LASTX=3966.0
##FIRSTY=0.014348
##MAXX=3966
##MINX=450
##MAXY=1.19565
##MINY=0
##NPOINTS=880
##XYDATA=(X++(Y..Y))
450.0 120 268 154 201 160 299 187 173 174 81
490.0 63 39 105 13 33 36 25 10 13 52
530.0 108 105 160 225 279 385 412 471 394 325
570.0 240 140 113 69 24 50 21 46 32 46
610.0 65 51 88 118 80 112 98 171 172 140
650.0 172 166 195 229 225 230 191 221 207 201
690.0 211 214 194 220 234 274 286 382 492 745
730.0 1203 1777 2389 2485 1797 1324 771 554 457 525
770.0 540 592 661 641 560 437 379 390 374 373
810.0 425 485 562 677 884 1108 1228 1176 941 665
850.0 458 328 266 232 243 325 480 858 1265 1236
890.0 785 398 213 132 90 83 75 120 156 154
930.0 119 74 46 34 23 19 22 25 24 20
970.0 29 33 44 37 51 73 95 145 253 496
1010.0 882 1029 659 344 278 336 310 274 207 187
1050.0 223 218 238 202 177 157 140 141 132 137
1090.0 167 228 293 350 376 424 441 417 376 370
1130.0 474 654 837 800 697 743 960 926 857 1136
1170.0 1697 1901 1630 1470 1811 2687 3960 4618 3848 2840
1210.0 2724 3646 5259 7178 9375 9899 9044 6588 4404 3076
1250.0 2359 2030 1992 2262 2805 3235 3192 2743 2319 2080
1290.0 1924 1882 1827 1662 1492 1292 1173 1126 1013 801
1330.0 614 503 393 298 272 278 276 339 426 543
1370.0 604 539 516 575 665 723 612 428 334 315
1410.0 276 284 206 233 197 236 215 279 413 470
1450.0 707 961 1221 1526 1459 1421 1473 1773 2286 2845
1490.0 4178 5571 7813 9404 10000 9020 5610 3211 1567 1061
1530.0 687 555 449 355 355 378 389 384 484 540
1570.0 643 781 969 1368 1627 1902 1822 1551 1653 1790
1610.0 2017 2179 2331 2608 2355 2155 1550 1060 832 567
1650.0 441 331 289 251 219 185 132 144 96 109
1690.0 94 112 79 81 43 56 48 28 63 91
1730.0 96 48 101 100 82 94 116 141 148 143
1770.0 101 65 70 52 31 42 30 28 0 38
1810.0 20 20 33 20 41 23 33 53 42 63
1850.0 44 79 65 104 114 109 160 198 211 184
1890.0 161 141 122 123 128 138 114 91 48 54
1930.0 40 43 51 40 43 57 49 54 63 57
1970.0 64 62 64 68 66 58 69 68 72 80
2010.0 74 62 62 63 69 66 75 76 78 92
2050.0 93 95 91 85 63 78 72 70 72 58
2090.0 54 51 42 43 39 34 35 31 18 25
2130.0 27 13 29 16 18 12 22 10 11 26
2170.0 18 12 15 6 18 12 20 21 23 14
2210.0 1 10 11 15 9 14 19 14 20 16
2250.0 15 9 26 33 29 33 39 45 47 45
2290.0 44 42 40 46 42 49 50 51 49 36
2330.0 43 59 59 43 46 51 67 73 46 56
2370.0 50 45 62 80 98 107 114 114 107 94
2410.0 85 71 63 63 58 61 61 61 68 66
2450.0 67 65 67 73 69 63 56 53 48 45
2490.0 51 43 44 40 40 38 42 41 41 38
2530.0 41 38 37 40 31 33 28 35 36 33
2570.0 32 33 35 36 34 36 36 39 47 49
2610.0 53 60 55 58 58 55 44 44 43 42
2650.0 42 40 42 38 33 33 34 32 29 29
2690.0 30 34 36 32 42 45 43 49 49 57
2730.0 60 66 67 65 66 66 61 63 62 65
2770.0 67 70 70 67 71 74 76 82 82 88
2810.0 89 97 107 115 122 133 153 169 191 224
2850.0 271 341 445 609 815 975 1054 1107 1192 1288
2890.0 1347 1300 1227 1190 1229 1319 1506 1772 1958 1977
2930.0 1909 1864 1866 1899 1965 2057 2175 2488 3164 4055
2970.0 4747 4935 4381 3218 2105 1354 907 639 492 407
3010.0 370 352 377 435 538 691 878 1076 1192 1177
3050.0 1041 897 833 830 868 915 929 902 822 734
3090.0 660 589 522 451 371 290 230 189 160 129
3130.0 108 96 88 81 69 71 71 64 66 64
3170.0 69 67 70 75 75 76 77 76 74 73
3210.0 65 70 64 61 52 48 45 41 42 33
3250.0 30 31 27 24 29 27 23 18 16 25
3290.0 22 14 19 20 20 17 20 18 16 18
3330.0 19 20 24 18 20 23 20 24 28 32
3370.0 29 40 53 72 96 120 166 224 320 433
3410.0 520 526 410 269 167 115 91 74 70 74
3450.0 63 59 59 73 83 101 139 177 218 288
3490.0 367 478 588 669 648 508 334 210 148 99
3530.0 73 64 43 41 33 34 31 25 26 36
3570.0 24 21 28 18 27 27 27 16 30 5
3610.0 18 21 20 18 15 27 33 19 15 30
3650.0 36 47 12 30 0 44 25 43 14 8
3690.0 34 14 25 25 28 18 19 17 20 22
3730.0 20 46 37 32 73 29 43 18 23 24
3770.0 14 19 13 15 25 17 24 23 26 50
3810.0 23 41 11 39 9 38 37 52 28 2
3850.0 60 36 32 18 32 50 42 57 25 54
3890.0 37 53 46 22 57 31 21 60 59 31
3930.0 37 36 35 52 48 45 38 18 30 53
##END=
