##TITLE=1-Cyclohexen-1-ol, 4-tert-butyl-, hexanoate
##JCAMP-DX=4.24
##DATA TYPE=INFRARED SPECTRUM
##ORIGIN=Sadtler Research Labs Under US-EPA Contract
##OWNER=NIST Standard Reference Data Program
##CAS REGISTRY NO=70288-98-1
##MOLFORM=C 16 H 28 O 2
##XUNITS=1/CM
##YUNITS=ABSORBANCE
##XFACTOR=1.0
##YFACTOR=0.000096582
##DELTAX=4.0
##FIRSTX=450.0
##LASTX=3966.0
##FIRSTY=0.015163
##MAXX=3966
##MINX=450
##MAXY=0.96582
##MINY=0
##NPOINTS=880
##XYDATA=(X++(Y..Y))
450.0 157 177 272 330 369 303 343 261 302 198
490.0 255 204 127 137 201 181 204 162 162 223
530.0 312 107 115 226 170 7 100 130 255 149
570.0 223 351 228 154 229 333 460 253 176 218
610.0 347 259 326 300 362 272 415 264 338 211
650.0 261 258 303 242 412 327 240 295 276 232
690.0 287 307 381 295 311 298 333 347 355 345
730.0 421 368 437 327 345 376 381 385 320 302
770.0 333 302 316 266 307 361 320 350 342 346
810.0 355 320 351 291 275 356 334 276 286 323
850.0 335 328 352 370 403 352 342 345 450 468
890.0 506 599 616 650 613 674 578 540 475 576
930.0 560 517 423 437 479 512 562 672 808 909
970.0 893 964 821 813 745 677 660 806 1018 1180
1010.0 1261 1275 1538 1976 2430 2407 1999 1761 1938 2175
1050.0 1898 1363 1033 946 963 979 981 978 1068 1212
1090.0 1451 1735 1963 2122 2149 2172 1972 1623 1272 1038
1130.0 956 978 1043 1139 1377 1646 2193 2948 4076 5320
1170.0 6115 6146 5381 4336 3506 2960 2567 2327 2231 2300
1210.0 2402 2563 2698 2860 3079 3266 3456 3679 3794 3741
1250.0 3458 2966 2533 2158 1909 1758 1663 1567 1444 1380
1290.0 1396 1344 1304 1268 1289 1273 1268 1185 1131 1151
1330.0 1149 1219 1333 1384 1396 1416 1432 1495 1806 2212
1370.0 2438 2145 1575 1189 1022 921 955 1044 904 648
1410.0 494 469 518 543 593 668 757 873 868 1009
1450.0 1203 1299 1411 1252 1248 1206 1219 1122 1088 975
1490.0 729 465 423 323 410 363 295 326 357 305
1530.0 249 277 264 359 252 223 257 328 287 213
1570.0 230 210 251 196 194 186 188 184 205 196
1610.0 200 197 252 207 209 209 222 248 201 243
1650.0 223 352 197 216 212 274 255 275 276 355
1690.0 295 332 425 528 505 522 576 690 703 823
1730.0 1083 1662 2624 4533 6807 7722 6157 3812 2187 1344
1770.0 998 847 683 621 550 462 432 355 341 281
1810.0 260 241 221 209 222 204 171 167 173 202
1850.0 167 156 138 143 150 158 144 114 121 130
1890.0 145 134 122 122 111 122 120 131 119 119
1930.0 123 126 120 121 107 118 103 113 108 103
1970.0 102 101 113 94 102 111 98 104 104 95
2010.0 97 97 105 96 89 99 103 88 98 102
2050.0 102 91 106 112 108 108 93 98 91 97
2090.0 95 80 90 95 80 86 84 92 93 95
2130.0 90 70 74 83 82 74 68 80 69 77
2170.0 73 76 64 73 72 67 70 64 72 75
2210.0 70 64 72 71 66 72 77 70 75 63
2250.0 69 67 62 76 69 69 67 77 66 69
2290.0 62 62 72 70 56 61 49 88 65 56
2330.0 109 83 63 93 88 75 81 118 139 123
2370.0 128 91 83 57 57 52 58 48 46 47
2410.0 51 46 58 46 42 45 33 44 31 29
2450.0 35 40 24 34 26 15 35 33 35 32
2490.0 41 32 35 33 37 17 23 48 45 49
2530.0 38 41 32 35 40 48 48 48 45 59
2570.0 50 54 57 58 65 56 58 55 60 65
2610.0 69 71 82 77 81 88 90 96 91 97
2650.0 87 89 82 99 99 103 108 104 102 121
2690.0 103 116 108 103 111 119 132 133 140 140
2730.0 135 146 125 154 140 133 145 136 132 139
2770.0 125 137 141 153 146 163 168 177 192 193
2810.0 221 254 272 283 336 386 445 542 714 938
2850.0 1192 1462 1714 2067 2608 3292 3746 3622 3232 2857
2890.0 2481 2153 2028 2072 2256 2577 2989 3382 3752 4089
2930.0 4579 5210 5833 6654 7630 8442 9256 9890 10000 9685
2970.0 8831 7438 5834 3962 2409 1498 1004 752 586 505
3010.0 432 382 318 292 266 230 212 184 167 146
3050.0 134 136 136 120 108 115 92 116 96 112
3090.0 97 95 89 80 97 81 89 83 85 85
3130.0 63 76 76 90 90 100 83 91 92 92
3170.0 70 67 93 85 71 86 87 74 75 60
3210.0 81 71 78 57 59 67 57 51 52 47
3250.0 61 42 30 16 25 53 32 57 18 22
3290.0 62 25 47 30 46 47 54 34 46 32
3330.0 43 37 22 36 40 40 34 37 39 23
3370.0 44 29 39 19 31 26 24 28 47 21
3410.0 26 54 30 48 31 19 45 24 29 27
3450.0 53 39 46 38 47 52 102 81 70 62
3490.0 51 41 39 53 25 39 30 28 25 22
3530.0 29 19 32 12 53 22 39 27 38 54
3570.0 67 31 40 64 60 83 53 27 53 56
3610.0 82 87 67 76 71 107 80 69 48 62
3650.0 132 80 78 57 55 99 104 133 86 90
3690.0 111 69 76 93 82 78 105 92 98 85
3730.0 94 128 161 132 196 184 122 108 87 99
3770.0 113 112 88 118 104 86 95 115 137 130
3810.0 133 120 161 166 161 155 164 162 138 129
3850.0 131 187 170 144 153 158 157 146 138 156
3890.0 150 152 143 139 118 99 118 143 138 149
3930.0 128 155 131 145 147 154 0 12 12 12
##END=
