##TITLE=Pyridine, 2-(octyloxy)-
##JCAMP-DX=4.24
##DATA TYPE=INFRARED SPECTRUM
##ORIGIN=Sadtler Research Labs Under US-EPA Contract
##OWNER=NIST Standard Reference Data Program
##CAS REGISTRY NO=70289-27-9
##MOLFORM=C 13 H 21 N O
##XUNITS=1/CM
##YUNITS=ABSORBANCE
##XFACTOR=1.0
##YFACTOR=0.000142023
##DELTAX=4.0
##FIRSTX=450.0
##LASTX=3966.0
##FIRSTY=0.013918
##MAXX=3966
##MINX=450
##MAXY=1.42023
##MINY=0
##NPOINTS=880
##XYDATA=(X++(Y..Y))
450.0 98 221 155 224 196 58 43 123 160 189
490.0 145 205 391 278 425 391 243 280 268 308
530.0 270 252 167 132 164 243 259 199 206 200
570.0 242 183 158 137 110 184 250 254 238 325
610.0 342 367 336 282 247 209 229 237 197 172
650.0 156 158 161 163 160 192 172 173 148 169
690.0 157 191 180 201 261 343 409 487 557 680
730.0 873 1010 1050 763 597 629 703 710 957 1320
770.0 1784 2406 2730 2539 1924 1356 984 733 587 503
810.0 449 440 408 389 403 400 429 454 453 484
850.0 454 455 453 375 368 314 272 329 340 292
890.0 315 328 345 331 380 377 390 390 345 336
930.0 368 374 418 417 471 544 627 694 793 858
970.0 910 983 1084 1318 1602 1802 1819 1657 1666 1696
1010.0 1816 1936 1978 1788 1623 1526 1654 1954 2324 2483
1050.0 2222 1832 1536 1376 1218 1080 960 807 701 671
1090.0 555 462 412 384 339 314 285 319 349 414
1130.0 533 792 1235 1338 1023 563 385 294 240 225
1170.0 220 226 237 244 273 277 287 305 319 359
1210.0 416 473 545 628 770 962 1238 1620 2123 2731
1250.0 3286 3695 4194 5185 5716 5514 5011 5406 7407 10000
1290.0 9764 6749 4216 3764 4697 5666 5745 4848 3498 2506
1330.0 1804 1354 1099 893 769 730 711 769 793 965
1370.0 1162 1398 1563 1594 1478 1196 928 711 632 615
1410.0 704 853 1195 1927 3288 5382 8654 7651 5231 2938
1450.0 2083 1981 2634 3834 5340 7018 7215 6369 5436 3848
1490.0 2337 1559 1138 967 772 554 475 325 317 318
1530.0 293 374 305 402 506 607 861 1033 1584 2263
1570.0 2855 3467 3118 3365 3761 4594 6361 5626 6120 5024
1610.0 3498 2924 1734 1097 818 522 438 322 258 207
1650.0 186 140 113 133 109 91 109 97 105 110
1690.0 112 131 98 79 88 98 120 111 114 108
1730.0 104 113 70 94 79 66 66 77 54 68
1770.0 47 43 71 78 73 68 69 101 101 105
1810.0 101 106 111 86 97 88 112 123 107 89
1850.0 64 58 47 50 42 34 47 46 52 57
1890.0 68 87 109 123 135 119 107 94 102 108
1930.0 105 101 85 80 79 99 118 117 88 60
1970.0 40 35 29 26 28 26 28 29 35 40
2010.0 40 42 46 47 52 46 42 46 42 43
2050.0 46 49 45 52 56 55 52 60 60 66
2090.0 64 61 55 51 51 52 51 54 52 53
2130.0 56 49 48 39 35 28 28 22 18 15
2170.0 15 13 18 12 12 11 13 14 11 3
2210.0 0 1 6 9 12 17 23 33 28 21
2250.0 16 11 13 12 14 17 23 39 47 50
2290.0 43 35 35 32 29 23 19 26 29 30
2330.0 37 28 39 38 40 22 18 14 22 20
2370.0 13 1 11 17 20 28 28 28 31 31
2410.0 33 28 27 29 28 30 29 28 28 32
2450.0 37 30 30 21 18 19 14 16 12 16
2490.0 26 33 39 41 49 57 60 63 60 62
2530.0 70 71 82 89 101 119 129 138 145 144
2570.0 146 144 132 113 97 86 81 76 79 73
2610.0 73 73 71 68 62 61 61 61 62 60
2650.0 67 69 76 83 87 91 95 99 104 101
2690.0 102 101 99 102 100 104 111 118 130 130
2730.0 132 139 149 156 157 155 147 146 150 152
2770.0 155 155 161 175 188 200 216 228 246 268
2810.0 293 324 364 408 458 510 583 678 819 1048
2850.0 1411 1964 2696 3394 3766 3715 3412 3077 2911 2786
2890.0 2629 2523 2583 2809 3195 3679 4283 4997 6008 7401
2930.0 8778 9701 9664 8987 8019 6974 6154 5653 5599 5652
2970.0 5360 4547 3404 2465 1850 1436 1140 935 794 728
3010.0 708 738 801 877 932 907 806 682 593 578
3050.0 610 686 752 796 795 772 779 874 1064 1138
3090.0 958 685 523 431 327 241 184 144 117 97
3130.0 89 88 91 94 89 86 82 85 90 85
3170.0 73 73 70 64 58 47 47 52 54 48
3210.0 37 41 39 33 31 19 11 16 21 23
3250.0 20 14 19 30 40 30 22 18 24 24
3290.0 16 14 10 13 27 27 20 27 30 33
3330.0 30 23 27 22 23 25 22 18 25 33
3370.0 34 44 38 29 37 35 33 26 17 14
3410.0 27 37 36 32 30 39 46 45 34 27
3450.0 25 26 25 27 21 26 37 36 43 32
3490.0 37 24 34 27 26 15 21 22 33 39
3530.0 32 40 50 40 47 24 32 27 35 11
3570.0 23 18 41 32 40 28 39 50 37 49
3610.0 27 29 18 36 16 23 32 44 45 45
3650.0 22 41 58 49 56 15 23 0 49 37
3690.0 14 47 48 51 64 50 48 49 49 41
3730.0 30 17 25 38 5 33 10 46 39 57
3770.0 60 50 56 38 47 52 35 37 26 28
3810.0 68 54 82 14 65 37 40 20 26 50
3850.0 28 48 28 41 43 54 78 49 58 34
3890.0 59 45 38 0 19 76 62 62 43 74
3930.0 61 88 61 53 21 28 29 34 8 28
##END=
