##TITLE=Acetic acid, o-ethoxyphenyl-,
##JCAMP-DX=4.24
##DATA TYPE=INFRARED SPECTRUM
##ORIGIN=Sadtler Research Labs Under US-EPA Contract
##OWNER=NIST Standard Reference Data Program
##CAS REGISTRY NO=70289-12-2
##MOLFORM=C 10 H 12 O 3
##XUNITS=1/CM
##YUNITS=ABSORBANCE
##XFACTOR=1.0
##YFACTOR=0.000068481
##DELTAX=4.0
##FIRSTX=450.0
##LASTX=3966.0
##FIRSTY=0.000000
##MAXX=3966
##MINX=450
##MAXY=0.68481
##MINY=0
##NPOINTS=880
##XYDATA=(X++(Y..Y))
450.0 0 362 444 12 76 268 65 258 335 161
490.0 204 445 572 367 406 481 429 635 105 242
530.0 491 65 252 507 307 461 178 388 683 830
570.0 1237 1652 1875 2259 2163 2300 2168 2270 2177 2074
610.0 2045 1680 1521 1450 1256 1331 1149 1093 952 772
650.0 790 632 758 591 554 718 501 574 564 582
690.0 666 376 381 438 438 579 426 529 476 363
730.0 1173 251 1015 2269 4207 2641 3124 2147 1426 1098
770.0 363 495 449 445 485 302 322 254 214 330
810.0 269 319 282 276 440 308 213 413 319 236
850.0 332 454 511 521 533 411 454 453 356 313
890.0 298 440 553 593 677 714 627 727 726 745
930.0 867 829 693 584 475 416 322 251 287 286
970.0 254 233 218 190 216 265 317 315 400 456
1010.0 546 673 728 1106 1462 1840 2382 2756 3229 3391
1050.0 3176 2783 2192 1723 1504 1423 1495 1682 1907 2225
1090.0 2628 3166 4069 5387 7074 8666 9839 10000 9226 8053
1130.0 6836 5885 4976 4162 3525 2955 2570 2298 2042 1888
1170.0 1742 1750 1770 1920 1937 1837 1806 1698 1784 1878
1210.0 2012 2298 2686 3269 4203 5292 6614 7790 8446 8652
1250.0 7895 6548 4971 3509 2683 2261 2099 2116 2137 2196
1290.0 2263 2236 2261 2201 2109 1941 1797 1667 1470 1381
1330.0 1310 1304 1400 1415 1518 1589 1697 1841 1962 1947
1370.0 1908 1797 1659 1600 1664 1744 1813 1763 1554 1334
1410.0 1126 1039 1032 1002 972 941 924 964 1108 1389
1450.0 2037 2459 2505 2288 1797 1468 1695 2175 2744 3517
1490.0 4211 4472 4305 3619 2790 1815 1287 885 622 512
1530.0 390 364 339 311 326 324 351 369 395 446
1570.0 538 724 961 1318 1530 1694 1760 1641 1540 1313
1610.0 1078 797 579 443 401 345 340 340 338 364
1650.0 352 385 386 373 414 413 446 473 494 525
1690.0 545 576 626 682 763 802 919 1027 1093 1273
1730.0 1421 1609 1834 2039 2374 2730 3154 3724 4399 5430
1770.0 6616 7911 8877 9097 8727 7524 6016 4801 3753 2812
1810.0 2145 1627 1254 1003 784 642 529 436 390 335
1850.0 295 254 225 212 198 193 184 183 195 196
1890.0 220 220 208 196 171 160 155 171 185 193
1930.0 195 182 166 155 139 125 133 132 135 135
1970.0 137 131 131 129 128 138 138 126 127 120
2010.0 114 114 122 123 120 123 132 134 130 122
2050.0 116 110 110 113 112 108 106 100 95 93
2090.0 84 83 78 75 68 72 73 68 67 76
2130.0 70 66 73 70 68 71 69 69 72 70
2170.0 75 76 69 68 67 70 77 79 87 87
2210.0 81 91 86 90 91 94 87 86 90 82
2250.0 80 80 82 84 87 86 95 98 99 115
2290.0 120 121 129 140 147 158 149 153 157 149
2330.0 123 126 108 122 121 119 132 108 88 66
2370.0 77 57 78 88 80 57 50 48 50 61
2410.0 64 65 63 62 65 68 62 59 61 63
2450.0 68 76 82 83 92 96 100 97 94 96
2490.0 97 87 84 76 69 68 60 65 69 70
2530.0 72 77 72 71 67 65 57 55 51 53
2570.0 45 45 48 41 44 46 40 31 43 39
2610.0 44 46 43 39 36 40 29 29 30 24
2650.0 31 31 29 28 25 32 29 29 27 30
2690.0 32 31 38 40 48 44 47 51 59 73
2730.0 78 77 81 83 83 93 92 75 75 78
2770.0 82 89 95 94 95 91 92 100 99 98
2810.0 110 117 137 151 157 170 176 191 214 244
2850.0 262 293 326 375 436 508 591 713 858 976
2890.0 1059 1095 1097 1084 1086 1106 1137 1173 1247 1336
2930.0 1480 1628 1751 1804 1737 1567 1365 1193 1104 1085
2970.0 1133 1276 1541 1900 2145 2257 2097 1615 1148 867
3010.0 676 597 586 617 718 858 963 1022 987 910
3050.0 817 762 744 788 884 1015 1134 1196 1159 1041
3090.0 838 606 450 359 301 277 248 207 168 131
3130.0 106 88 87 77 72 71 76 73 78 77
3170.0 83 77 69 64 56 49 55 55 62 60
3210.0 55 61 57 63 60 56 55 66 58 52
3250.0 58 67 53 47 60 59 64 59 56 59
3290.0 52 53 57 62 66 56 63 66 71 64
3330.0 61 59 71 71 71 70 72 79 78 78
3370.0 73 71 75 75 68 79 84 82 73 68
3410.0 75 65 84 89 83 80 77 72 83 86
3450.0 85 93 100 83 62 57 64 72 75 73
3490.0 65 67 76 84 85 82 78 86 117 146
3530.0 150 171 204 235 296 323 383 550 792 1445
3570.0 2499 3340 3700 3167 2164 1109 536 356 235 193
3610.0 187 158 115 102 84 96 85 56 59 87
3650.0 108 92 69 40 31 54 82 86 48 34
3690.0 72 42 42 69 47 71 83 58 83 112
3730.0 65 78 123 88 89 89 68 77 63 44
3770.0 54 36 63 73 53 40 57 98 104 62
3810.0 72 62 62 77 36 82 90 52 90 51
3850.0 72 79 98 85 47 94 76 54 83 81
3890.0 47 45 83 93 95 70 52 73 56 60
3930.0 53 100 67 67 97 61 45 47 71 55
##END=
