##TITLE=Succinimide, N-(o-phenetidinomethyl)-,
##JCAMP-DX=4.24
##DATA TYPE=INFRARED SPECTRUM
##ORIGIN=Sadtler Research Labs Under US-EPA Contract
##OWNER=NIST Standard Reference Data Program
##CAS REGISTRY NO=70289-20-2
##MOLFORM=C 13 H 16 N 2 O 3
##XUNITS=1/CM
##YUNITS=ABSORBANCE
##XFACTOR=1.0
##YFACTOR=0.000084863
##DELTAX=4.0
##FIRSTX=450.0
##LASTX=3966.0
##FIRSTY=0.031060
##MAXX=3966
##MINX=450
##MAXY=0.84863
##MINY=0
##NPOINTS=880
##XYDATA=(X++(Y..Y))
450.0 366 218 38 360 623 325 422 33 168 304
490.0 328 268 418 105 155 148 168 211 275 202
530.0 336 327 419 360 392 279 461 553 334 119
570.0 143 399 336 367 213 494 543 611 579 586
610.0 722 685 816 865 853 1058 1242 1466 1624 1785
650.0 1730 1606 1418 1261 1056 811 731 646 528 442
690.0 422 420 405 386 330 329 351 457 613 811
730.0 980 1348 1556 1710 1764 1704 1497 1222 967 818
770.0 650 560 502 339 281 213 222 166 236 238
810.0 237 234 335 318 278 215 199 176 175 126
850.0 151 120 78 128 179 224 182 412 512 517
890.0 550 673 664 724 667 586 569 509 501 460
930.0 289 294 220 194 162 66 76 47 73 26
970.0 7 57 56 85 113 117 141 123 175 256
1010.0 300 370 474 674 950 1195 1462 1674 1812 1739
1050.0 1488 1215 891 675 517 442 394 416 478 568
1090.0 671 812 954 1123 1231 1341 1412 1477 1545 1711
1130.0 1901 2131 2420 2847 3170 3097 3031 2777 2506 2178
1170.0 1681 1139 890 796 843 972 1170 1534 1874 2196
1210.0 2449 2711 2960 3191 3447 3739 3934 3983 3783 3460
1250.0 2914 2354 1881 1776 1691 1753 1800 1850 1816 1837
1290.0 1782 1735 1606 1550 1484 1408 1460 1584 1845 2109
1330.0 2247 2347 2426 2211 2010 1709 1334 1017 767 608
1370.0 562 528 519 579 643 762 805 810 741 638
1410.0 521 364 328 274 325 423 519 630 681 856
1450.0 1048 1111 1067 1080 1061 1098 1177 1364 1603 1879
1490.0 2100 2149 2124 1849 1596 1342 1159 883 635 467
1530.0 345 225 173 90 141 145 105 115 112 227
1570.0 299 356 456 530 644 701 727 737 693 654
1610.0 586 550 500 481 473 402 400 368 379 401
1650.0 324 286 242 218 184 152 195 212 281 298
1690.0 443 603 847 1135 1515 1755 1968 2150 2254 2579
1730.0 2902 3187 3338 3257 3566 4096 4993 5988 7155 8721
1770.0 9674 10000 9645 8763 8094 7298 5269 3036 1844 1269
1810.0 1145 1032 930 903 774 641 478 352 265 166
1850.0 158 107 90 112 86 98 89 92 103 97
1890.0 94 101 87 87 75 84 88 91 103 91
1930.0 88 83 80 85 76 72 67 67 58 59
1970.0 55 54 47 44 45 46 45 38 36 22
2010.0 24 23 21 28 21 27 28 34 41 49
2050.0 61 70 83 94 86 77 57 39 27 17
2090.0 12 12 7 6 5 3 8 4 8 2
2130.0 0 0 3 6 1 2 0 6 11 11
2170.0 8 9 6 8 3 5 11 7 11 10
2210.0 13 15 14 12 15 16 20 17 19 17
2250.0 23 23 22 28 24 25 22 27 31 28
2290.0 37 41 46 47 55 58 51 44 48 34
2330.0 24 33 32 19 46 52 64 43 63 59
2370.0 31 34 47 50 47 36 28 28 34 35
2410.0 33 32 36 39 38 34 35 33 38 41
2450.0 37 35 34 42 38 46 45 49 44 44
2490.0 43 34 38 32 27 25 23 19 26 26
2530.0 29 30 32 35 31 34 34 32 39 31
2570.0 32 29 31 26 23 24 30 30 37 34
2610.0 33 37 37 34 39 41 34 31 34 37
2650.0 35 41 36 39 43 37 43 39 29 33
2690.0 42 30 34 42 38 42 52 57 58 78
2730.0 78 77 75 79 86 91 87 82 91 96
2770.0 101 91 103 108 94 99 111 129 150 148
2810.0 159 161 173 186 179 194 209 213 235 248
2850.0 274 292 322 378 432 506 591 695 806 879
2890.0 914 927 925 866 837 812 805 800 802 790
2930.0 831 881 940 985 1003 986 920 878 855 883
2970.0 942 1025 1115 1208 1249 1254 1170 949 734 624
3010.0 590 616 712 813 848 857 803 664 545 478
3050.0 437 438 461 528 603 685 737 725 665 567
3090.0 443 338 275 229 196 171 147 123 104 94
3130.0 87 86 82 86 79 75 78 81 76 60
3170.0 54 55 57 57 57 53 58 50 60 61
3210.0 51 48 57 48 51 50 48 52 61 52
3250.0 51 52 58 57 69 78 62 69 65 72
3290.0 62 49 50 48 53 49 41 50 51 51
3330.0 47 44 39 53 62 47 54 54 58 59
3370.0 54 56 69 72 89 107 108 117 136 155
3410.0 176 171 177 204 231 280 361 474 597 721
3450.0 816 875 839 768 770 782 625 453 344 249
3490.0 236 197 188 194 179 166 148 132 129 131
3530.0 127 117 125 130 144 136 121 130 131 141
3570.0 155 144 132 111 115 96 69 67 77 83
3610.0 60 72 58 76 60 58 49 76 63 76
3650.0 38 43 71 77 69 40 56 13 78 63
3690.0 56 52 67 87 62 76 65 59 98 84
3730.0 87 82 77 78 11 60 47 92 70 68
3770.0 69 69 95 72 91 118 62 69 59 31
3810.0 78 88 91 18 68 102 95 80 48 98
3850.0 85 33 24 106 107 74 104 74 111 58
3890.0 78 84 105 98 70 101 72 117 85 122
3930.0 110 96 131 90 83 111 100 104 123 76
##END=
