##TITLE=Ethylamine, 2-(4-chloro-m-tolyloxy)-N-methyl-,
##JCAMP-DX=4.24
##DATA TYPE=INFRARED SPECTRUM
##ORIGIN=Sadtler Research Labs Under US-EPA Contract
##OWNER=NIST Standard Reference Data Program
##CAS REGISTRY NO=70289-16-6
##MOLFORM=C 10 H 14 Cl N O
##XUNITS=1/CM
##YUNITS=ABSORBANCE
##XFACTOR=1.0
##YFACTOR=0.000115225
##DELTAX=4.0
##FIRSTX=450.0
##LASTX=3966.0
##FIRSTY=0.037909
##MAXX=3966
##MINX=450
##MAXY=1.15225
##MINY=0
##NPOINTS=880
##XYDATA=(X++(Y..Y))
450.0 329 184 330 120 66 85 66 202 186 196
490.0 193 43 0 135 73 137 137 123 59 114
530.0 142 184 159 88 109 196 165 199 242 251
570.0 311 324 369 352 331 355 331 300 296 308
610.0 356 335 398 513 685 911 1074 1203 1226 1231
650.0 1350 1511 1904 2061 1984 1582 1288 1118 969 1005
690.0 1044 1070 1058 1062 1022 994 918 891 896 898
730.0 1033 976 1066 1147 1113 885 795 710 595 470
770.0 487 452 427 495 580 835 989 1159 1288 1315
810.0 1323 1211 986 727 551 529 605 698 863 892
850.0 960 972 1054 1115 1211 1168 1034 854 733 622
890.0 582 523 496 432 378 345 308 284 273 269
930.0 265 272 267 299 334 414 453 472 459 452
970.0 432 410 432 442 483 533 613 726 814 948
1010.0 1136 1389 1712 2208 2957 3972 5153 6166 6367 5331
1050.0 4009 3015 2446 2186 2000 1730 1413 1106 870 720
1090.0 624 564 549 584 665 881 1246 1859 2645 3286
1130.0 3391 3079 2934 3007 3254 3423 3598 4270 5571 7231
1170.0 7546 5964 3931 2517 1670 1183 880 730 646 633
1210.0 673 774 1049 1572 2575 4247 6381 8141 7904 5903
1250.0 3706 2379 1805 1685 1948 2493 3273 4247 5340 6219
1290.0 6316 5649 4871 4350 4065 3512 2648 1827 1249 934
1330.0 761 631 599 555 529 655 775 922 985 932
1370.0 960 1020 1120 1187 1246 1268 1240 1313 1482 1733
1410.0 1912 1845 1774 1487 1368 1309 1347 1530 1710 1947
1450.0 2392 2853 3488 4396 4990 6004 7289 9228 10000 9446
1490.0 6609 4154 2668 1874 1578 1379 1225 1046 954 834
1530.0 809 761 769 776 785 825 834 989 1195 1360
1570.0 1847 2219 2377 2536 2278 2330 2584 2696 2853 2539
1610.0 2165 1771 1350 1028 758 505 393 293 215 219
1650.0 183 176 151 133 140 129 174 138 203 183
1690.0 201 196 281 330 413 457 505 518 352 265
1730.0 217 222 174 148 174 161 108 90 70 59
1770.0 73 75 54 68 69 61 75 60 87 38
1810.0 45 47 35 40 50 66 59 63 89 123
1850.0 110 86 105 113 132 162 151 139 116 112
1890.0 104 94 89 83 75 76 67 68 64 55
1930.0 48 49 52 61 61 53 51 57 51 64
1970.0 49 38 36 28 30 38 33 23 17 24
2010.0 23 30 43 41 42 42 37 37 32 28
2050.0 21 24 25 29 37 30 28 31 28 30
2090.0 34 30 29 25 24 23 20 22 14 14
2130.0 11 6 10 4 1 5 5 5 3 7
2170.0 7 7 5 9 6 10 11 18 15 18
2210.0 20 17 18 16 11 12 13 11 10 11
2250.0 11 10 8 6 6 6 4 8 12 23
2290.0 34 41 56 63 69 79 71 70 61 58
2330.0 44 36 31 22 58 45 33 23 44 42
2370.0 53 44 56 54 40 24 27 31 38 43
2410.0 43 45 43 40 39 41 39 45 48 48
2450.0 48 45 46 47 45 42 41 41 42 38
2490.0 40 35 35 36 39 45 49 54 62 70
2530.0 79 80 80 79 77 74 65 65 65 63
2570.0 69 62 63 60 54 50 48 58 54 56
2610.0 59 62 63 68 68 70 75 78 79 82
2650.0 85 82 83 84 86 91 98 113 134 153
2690.0 175 202 219 232 240 238 236 241 248 262
2730.0 272 287 307 328 355 382 416 448 488 547
2770.0 628 729 851 981 1114 1304 1593 1994 2329 2421
2810.0 2264 2026 1838 1732 1693 1707 1760 1820 1882 1949
2850.0 2054 2165 2268 2326 2338 2333 2339 2357 2394 2456
2890.0 2537 2598 2636 2610 2576 2548 2597 2731 2950 3222
2930.0 3518 3798 4006 4101 4023 3822 3575 3349 3139 2933
2970.0 2774 2707 2665 2529 2204 1778 1363 1044 806 642
3010.0 550 492 460 454 464 501 544 580 586 552
3050.0 499 458 433 418 422 439 461 487 484 456
3090.0 422 379 346 310 264 220 182 142 114 99
3130.0 83 73 65 63 55 53 55 47 45 43
3170.0 39 38 35 39 28 26 28 24 24 17
3210.0 23 14 11 8 14 12 17 9 10 9
3250.0 13 12 4 12 7 11 19 16 14 15
3290.0 12 15 12 14 17 16 9 13 10 16
3330.0 15 16 23 32 25 24 27 48 75 95
3370.0 103 97 77 63 53 55 48 39 36 27
3410.0 39 36 26 27 24 26 30 24 21 20
3450.0 24 22 20 23 21 28 17 13 21 27
3490.0 24 26 17 21 31 28 29 17 21 39
3530.0 23 19 25 27 30 39 22 21 23 35
3570.0 45 31 34 32 30 47 30 24 38 37
3610.0 32 37 24 36 32 49 51 80 104 142
3650.0 159 182 172 166 120 55 40 19 48 33
3690.0 22 42 46 42 44 28 43 36 38 41
3730.0 37 28 25 42 9 28 23 57 50 35
3770.0 47 38 52 36 32 48 31 26 22 47
3810.0 50 38 44 24 43 28 26 44 44 57
3850.0 30 30 22 28 50 49 44 37 49 47
3890.0 56 42 52 53 84 60 22 31 49 45
3930.0 68 64 86 68 31 55 39 39 44 51
##END=
