##TITLE=Propane, 1,2-dibromo-2,3-dichloro-,
##JCAMP-DX=4.24
##DATA TYPE=INFRARED SPECTRUM
##ORIGIN=Sadtler Research Labs Under US-EPA Contract
##OWNER=NIST Standard Reference Data Program
##CAS REGISTRY NO=70289-31-5
##MOLFORM=C 3 H 4 Br 2 Cl 2
##XUNITS=1/CM
##YUNITS=ABSORBANCE
##XFACTOR=1.0
##YFACTOR=0.000060117
##DELTAX=4.0
##FIRSTX=450.0
##LASTX=3966.0
##FIRSTY=0.000000
##MAXX=3966
##MINX=450
##MAXY=0.60117
##MINY=0
##NPOINTS=880
##XYDATA=(X++(Y..Y))
450.0 0 417 433 370 161 278 406 387 421 172
490.0 210 1012 634 630 667 410 308 478 469 684
530.0 749 914 1140 1149 991 918 865 983 1672 2239
570.0 3763 4594 5139 4895 4290 4203 3837 3131 2179 1228
610.0 859 1046 1380 1987 2406 3112 4062 5500 7354 9088
650.0 10000 9557 7582 5140 3184 2031 1901 2229 3067 3901
690.0 4773 5538 6154 6521 6171 5175 3753 2503 1644 1258
730.0 1216 1431 1519 2314 3337 3834 4363 5052 5187 4553
770.0 3671 2484 1718 1429 1267 1269 1141 922 705 577
810.0 650 557 484 533 443 584 403 350 545 586
850.0 847 1264 1853 2052 2466 2577 2318 1916 1797 1604
890.0 1788 2053 2783 4086 5316 6572 7373 6774 5231 3029
930.0 1608 1234 1239 1192 1276 1234 1235 1261 1574 1971
970.0 2775 3466 3710 3377 2540 1684 1226 1064 1083 1054
1010.0 956 817 642 404 379 383 418 389 383 371
1050.0 351 379 361 398 410 478 572 585 616 607
1090.0 599 715 786 1042 1368 1659 1943 1919 1581 1094
1130.0 749 563 489 453 407 425 429 419 450 491
1170.0 604 699 768 956 1285 1999 2895 3387 3335 2901
1210.0 2582 2573 2554 2294 1912 1735 1755 1954 2212 2247
1250.0 2005 1553 1056 719 720 666 959 1529 2029 2212
1290.0 2069 1552 872 561 386 258 311 257 291 267
1330.0 228 283 263 280 269 247 291 277 289 253
1370.0 242 267 228 263 275 255 344 373 518 882
1410.0 1481 2964 4920 7199 7751 7457 4690 2714 1193 518
1450.0 401 333 376 352 244 340 264 273 240 258
1490.0 284 270 286 268 316 326 210 260 305 220
1530.0 251 221 294 286 240 211 194 325 325 254
1570.0 276 288 338 232 244 199 197 178 211 225
1610.0 183 260 236 270 255 263 301 300 257 281
1650.0 288 308 261 222 214 240 256 195 225 221
1690.0 211 176 287 229 210 188 210 264 208 208
1730.0 242 226 270 230 251 254 217 221 235 180
1770.0 207 210 182 189 190 190 214 178 181 181
1810.0 179 187 161 183 168 176 164 150 181 175
1850.0 156 151 146 145 165 178 149 158 153 164
1890.0 169 166 151 152 146 149 154 159 150 145
1930.0 153 154 157 163 159 163 170 165 157 161
1970.0 165 160 150 155 152 149 157 143 152 146
2010.0 149 152 157 150 154 146 151 149 145 146
2050.0 161 154 146 154 162 156 147 149 161 158
2090.0 160 170 173 182 178 188 186 178 171 162
2130.0 157 154 150 143 142 137 145 135 139 133
2170.0 138 141 138 142 136 139 140 144 151 155
2210.0 149 154 153 155 157 156 151 133 133 135
2250.0 139 142 143 150 155 162 168 179 191 204
2290.0 201 199 192 186 184 188 166 169 156 144
2330.0 149 140 111 105 119 146 137 126 106 120
2370.0 123 139 126 145 145 140 134 138 134 137
2410.0 133 135 125 121 122 122 122 127 125 130
2450.0 130 130 125 135 133 125 128 130 129 137
2490.0 138 132 135 124 118 117 110 105 115 120
2530.0 123 121 117 119 106 104 107 99 102 105
2570.0 97 96 95 88 95 92 90 87 87 91
2610.0 94 100 96 99 107 109 116 125 120 119
2650.0 110 114 115 119 118 113 109 101 94 85
2690.0 89 87 94 108 126 121 121 113 104 96
2730.0 87 83 84 85 81 81 86 73 77 86
2770.0 75 83 93 82 71 82 85 99 92 95
2810.0 99 110 131 173 195 212 249 260 252 234
2850.0 197 158 136 130 135 137 132 137 136 133
2890.0 137 119 117 124 139 140 144 158 167 177
2930.0 192 195 211 231 276 338 455 611 764 934
2970.0 1098 1299 1408 1399 1221 902 575 345 196 137
3010.0 142 134 144 155 171 189 197 237 258 239
3050.0 217 160 125 106 97 105 103 108 97 100
3090.0 102 111 107 98 102 103 96 99 85 88
3130.0 96 94 91 87 90 93 91 95 96 85
3170.0 85 90 99 97 98 100 114 105 95 104
3210.0 93 93 89 101 89 90 99 92 103 91
3250.0 102 98 103 101 106 106 96 122 106 100
3290.0 114 107 112 110 120 97 91 103 94 93
3330.0 115 97 121 97 99 98 121 122 92 124
3370.0 114 102 91 101 107 102 106 121 110 117
3410.0 112 109 102 109 109 108 93 95 99 92
3450.0 77 89 122 107 105 86 93 97 103 102
3490.0 98 123 105 86 97 99 95 88 92 95
3530.0 114 92 85 95 95 101 107 90 99 109
3570.0 116 102 86 84 85 79 84 74 112 94
3610.0 97 100 122 106 102 119 135 84 99 111
3650.0 127 126 77 109 80 133 114 123 91 114
3690.0 142 116 90 100 89 85 97 106 96 83
3730.0 116 124 128 114 173 151 139 94 71 118
3770.0 71 81 87 115 105 90 96 108 124 128
3810.0 71 104 72 175 104 94 101 142 106 101
3850.0 134 151 151 78 119 127 114 117 97 175
3890.0 133 113 94 158 179 120 154 144 129 71
3930.0 119 135 165 116 90 117 158 123 82 110
##END=
