##TITLE=Pyridine, 4-(2-methoxyethyl)-,
##JCAMP-DX=4.24
##DATA TYPE=INFRARED SPECTRUM
##ORIGIN=Sadtler Research Labs Under US-EPA Contract
##OWNER=NIST Standard Reference Data Program
##CAS REGISTRY NO=70289-28-0
##MOLFORM=C 8 H 11 N O
##XUNITS=1/CM
##YUNITS=ABSORBANCE
##XFACTOR=1.0
##YFACTOR=0.000090027
##DELTAX=4.0
##FIRSTX=450.0
##LASTX=3966.0
##FIRSTY=0.021877
##MAXX=3966
##MINX=450
##MAXY=0.90027
##MINY=0
##NPOINTS=880
##XYDATA=(X++(Y..Y))
450.0 243 257 279 295 342 376 422 530 529 528
490.0 517 683 638 755 819 833 722 715 631 550
530.0 529 442 356 294 335 320 218 414 444 632
570.0 796 1028 1195 1403 1425 1178 868 587 373 250
610.0 210 192 174 125 42 79 68 79 93 108
650.0 45 105 54 9 0 92 88 113 86 64
690.0 55 46 76 79 100 112 115 109 163 140
730.0 133 177 160 176 55 492 426 520 682 873
770.0 1057 1202 1351 1380 1415 1576 1790 2017 2124 2048
810.0 1800 1514 1247 1088 1044 958 895 787 641 477
850.0 367 316 277 227 152 134 109 81 194 145
890.0 192 91 192 170 150 240 196 308 356 438
930.0 461 461 559 564 536 582 636 640 684 760
970.0 826 862 924 1108 1398 1592 1574 1510 1248 947
1010.0 780 717 665 665 630 666 670 607 647 678
1050.0 755 815 908 1062 1215 1369 1482 1565 1712 1860
1090.0 2266 2837 3422 4349 5438 6656 7785 8964 9596 10000
1130.0 9521 8325 6585 4755 3418 2629 2163 1936 1821 1757
1170.0 1750 1884 2018 2162 2262 2328 2356 2319 2288 2207
1210.0 2151 2211 2088 1877 1643 1269 992 856 803 716
1250.0 686 671 645 603 561 474 439 405 437 384
1290.0 327 282 276 303 302 320 354 368 397 432
1330.0 465 483 512 509 506 489 507 560 664 782
1370.0 1064 1441 1836 1993 1993 1898 1666 1515 1484 1643
1410.0 1795 1877 1837 1746 1509 1324 1100 1034 929 918
1450.0 944 994 1146 1107 1152 1087 1060 908 880 836
1490.0 895 810 756 608 522 373 253 301 282 301
1530.0 291 437 471 683 788 941 1141 1322 1472 1503
1570.0 1554 1480 1499 1643 2170 3185 4676 6047 6440 5746
1610.0 4319 2434 1118 578 364 310 247 265 202 244
1650.0 201 292 187 213 172 222 148 176 139 156
1690.0 126 113 121 174 120 116 116 152 95 125
1730.0 102 130 84 95 102 146 108 139 161 159
1770.0 167 150 144 125 102 93 99 58 84 46
1810.0 36 44 68 46 96 108 109 128 112 117
1850.0 94 71 48 54 33 50 22 21 28 38
1890.0 66 55 86 90 111 149 180 250 265 292
1930.0 295 284 264 236 201 173 164 149 128 119
1970.0 106 94 86 80 76 70 72 63 61 61
2010.0 71 71 79 77 91 96 94 94 103 92
2050.0 98 83 92 95 95 106 106 112 117 116
2090.0 120 129 134 126 116 111 111 105 95 82
2130.0 76 70 65 54 60 63 55 59 61 57
2170.0 47 47 43 36 46 46 37 39 47 38
2210.0 35 31 37 42 33 44 39 33 33 34
2250.0 27 28 21 27 27 27 21 24 27 36
2290.0 32 36 40 47 41 50 41 41 44 38
2330.0 18 37 13 32 21 15 32 28 35 34
2370.0 21 15 20 24 32 27 32 32 32 38
2410.0 36 43 41 46 42 35 43 35 35 35
2450.0 30 25 25 23 23 11 13 11 7 7
2490.0 7 6 6 1 5 5 6 6 1 11
2530.0 17 11 11 8 11 14 18 17 19 19
2570.0 25 30 30 43 46 49 55 59 63 66
2610.0 65 70 60 66 66 77 72 77 86 82
2650.0 86 96 88 91 102 101 97 97 101 92
2690.0 99 102 111 132 140 151 187 221 248 289
2730.0 340 380 418 427 416 389 356 338 322 318
2770.0 322 340 362 402 459 528 612 745 910 1149
2810.0 1488 1860 2223 2597 2891 3103 3218 3210 3082 2911
2850.0 2857 2998 3263 3635 4067 4532 4868 5029 4923 4607
2890.0 4167 3808 3595 3539 3552 3526 3513 3621 3824 4127
2930.0 4391 4537 4523 4365 4102 3843 3603 3390 3148 2904
2970.0 2674 2498 2415 2493 2745 3122 3321 3211 2959 2462
3010.0 2012 1819 1874 2108 2349 2444 2420 2181 1962 1858
3050.0 1842 1924 2056 2255 2432 2508 2477 2316 2080 1672
3090.0 1245 924 692 533 423 327 264 191 132 113
3130.0 92 91 74 64 61 45 52 41 29 40
3170.0 29 25 21 11 24 22 17 21 14 19
3210.0 15 10 11 20 11 15 13 17 9 11
3250.0 10 3 17 9 14 7 19 17 17 15
3290.0 18 19 13 13 21 18 20 13 15 9
3330.0 10 10 18 9 6 16 4 13 11 14
3370.0 7 0 18 12 18 11 25 19 21 14
3410.0 18 18 16 14 6 18 14 13 13 21
3450.0 24 19 15 23 2 21 16 12 33 16
3490.0 10 15 15 26 27 20 13 9 13 45
3530.0 39 21 40 15 32 17 45 11 38 39
3570.0 74 38 52 58 45 93 58 36 47 27
3610.0 56 62 55 60 36 71 44 47 58 63
3650.0 80 62 72 38 41 78 74 103 71 72
3690.0 86 87 78 93 78 99 92 98 98 92
3730.0 93 108 115 97 135 88 101 83 90 76
3770.0 80 72 66 73 64 57 59 78 94 92
3810.0 90 87 81 99 83 94 102 105 84 100
3850.0 103 88 88 99 98 103 98 96 87 90
3890.0 79 98 85 92 80 86 84 87 81 84
3930.0 95 86 100 103 102 98 104 94 86 83
##END=
