##TITLE=Valeric acid, 3-benzyl-2-cyano-3-methyl-, ethyl ester
##JCAMP-DX=4.24
##DATA TYPE=INFRARED SPECTRUM
##ORIGIN=Sadtler Research Labs Under US-EPA Contract
##OWNER=NIST Standard Reference Data Program
##CAS REGISTRY NO=70289-04-2
##MOLFORM=C 16 H 21 N O 2
##XUNITS=1/CM
##YUNITS=ABSORBANCE
##XFACTOR=1.0
##YFACTOR=0.000049304
##DELTAX=4.0
##FIRSTX=450.0
##LASTX=3966.0
##FIRSTY=0.058425
##MAXX=3966
##MINX=450
##MAXY=0.49304
##MINY=0
##NPOINTS=880
##XYDATA=(X++(Y..Y))
450.0 1185 819 268 847 1090 996 26 651 362 738
490.0 339 509 574 861 607 586 275 570 61 0
530.0 407 885 639 492 719 528 842 525 30 533
570.0 494 383 465 283 344 258 309 415 316 290
610.0 369 385 371 259 420 294 172 254 260 277
650.0 245 224 241 308 347 547 430 509 476 664
690.0 907 1483 2676 3630 3453 2266 1430 1212 1218 1133
730.0 1158 1175 1259 1188 1504 1525 1451 1248 1058 1119
770.0 926 831 763 717 719 531 518 670 450 546
810.0 562 372 461 490 557 321 451 512 568 618
850.0 531 537 791 856 768 878 620 700 408 390
890.0 529 380 544 427 341 331 279 301 371 308
930.0 402 448 329 357 451 435 374 465 519 497
970.0 450 427 496 638 696 820 848 1029 1197 1391
1010.0 1617 1972 2337 2707 3476 4261 4677 4422 3836 3146
1050.0 2610 2153 2016 1759 1502 1490 1552 1536 1404 1364
1090.0 1463 1600 1888 1932 2103 2113 2035 2046 2176 2288
1130.0 2399 2619 3082 3478 3841 4108 4324 4666 4803 5272
1170.0 5713 6004 6021 5965 5767 5386 4886 4270 3963 3855
1210.0 4128 4416 5060 5758 6318 6470 6658 6564 6366 5439
1250.0 4602 3969 3502 3236 2785 2691 2402 2243 2223 2240
1290.0 2275 2346 2417 2455 2588 2681 2738 2659 2607 2371
1330.0 2053 1658 1239 1033 898 807 733 715 808 1083
1370.0 1384 1522 1346 1305 1597 1879 1770 1452 1021 803
1410.0 694 622 614 611 601 650 692 842 992 1240
1450.0 1631 1966 2158 2374 2413 2413 2093 1585 1230 1073
1490.0 1077 1325 1468 1277 782 413 274 192 162 108
1530.0 104 87 75 70 61 13 96 99 64 115
1570.0 118 248 215 260 300 303 374 476 678 706
1610.0 490 394 337 241 229 223 219 181 133 132
1650.0 166 145 120 52 90 85 54 46 39 31
1690.0 26 41 179 339 420 517 648 814 966 1170
1730.0 1451 1897 2676 3889 6018 8280 9703 10000 9269 7540
1770.0 5195 3237 2160 1561 1142 902 708 619 566 485
1810.0 455 384 319 294 252 233 207 177 181 173
1850.0 158 171 183 183 183 217 213 210 225 220
1890.0 212 203 180 176 155 150 132 125 121 117
1930.0 134 139 183 214 233 224 205 194 179 139
1970.0 109 91 96 94 95 95 86 76 86 80
2010.0 84 93 83 91 89 96 105 94 92 92
2050.0 94 86 93 93 88 91 91 90 97 83
2090.0 95 99 86 74 79 78 73 73 74 72
2130.0 75 72 59 57 49 53 48 41 50 43
2170.0 45 38 36 36 42 37 32 32 34 29
2210.0 38 42 35 35 29 17 15 58 104 134
2250.0 121 99 81 77 64 64 75 84 104 113
2290.0 146 169 194 230 234 258 250 217 217 175
2330.0 164 132 149 140 228 215 214 157 168 157
2370.0 154 144 160 172 131 59 40 43 31 32
2410.0 25 40 37 28 28 28 31 24 33 33
2450.0 23 32 25 25 27 31 33 28 38 34
2490.0 27 22 23 30 32 18 38 24 27 28
2530.0 20 24 27 28 27 21 28 34 37 31
2570.0 29 37 28 30 44 46 42 42 51 57
2610.0 56 59 57 62 68 74 75 67 67 75
2650.0 70 75 77 76 82 68 73 76 85 80
2690.0 94 89 92 103 95 98 107 96 101 118
2730.0 113 129 133 137 144 159 182 187 186 193
2770.0 193 197 211 228 225 244 242 243 253 260
2810.0 264 287 311 313 347 369 392 428 445 488
2850.0 544 629 742 840 983 1103 1239 1346 1490 1726
2890.0 1953 2083 2056 1971 1897 1903 2004 2164 2314 2498
2930.0 2701 3050 3443 3860 4202 4182 3844 3328 2990 3152
2970.0 3813 4898 5788 6153 6007 5287 4188 3157 2497 2072
3010.0 1732 1483 1280 1215 1349 1628 1993 2165 1920 1431
3050.0 1042 890 915 1098 1478 1951 2095 1727 1282 1177
3090.0 1151 1041 828 661 579 532 484 404 341 288
3130.0 236 218 185 186 187 148 154 161 146 122
3170.0 123 124 108 94 96 100 78 69 76 71
3210.0 85 81 81 99 98 85 92 88 79 86
3250.0 90 88 88 83 93 98 76 69 74 78
3290.0 70 60 81 68 71 69 90 50 68 59
3330.0 49 53 66 43 41 56 52 49 63 61
3370.0 56 42 35 59 53 40 35 35 54 43
3410.0 37 35 46 43 50 36 39 41 40 34
3450.0 53 37 54 54 49 47 62 74 86 90
3490.0 87 88 82 83 97 84 63 48 28 32
3530.0 39 33 24 36 15 14 44 39 43 20
3570.0 14 42 46 53 35 61 40 36 45 19
3610.0 43 23 46 35 43 41 60 50 64 61
3650.0 76 69 106 88 91 78 71 92 77 80
3690.0 87 78 64 70 51 71 60 45 29 22
3730.0 36 52 48 30 50 39 49 9 36 16
3770.0 26 23 29 41 21 20 23 40 56 24
3810.0 66 9 16 21 51 39 14 8 32 23
3850.0 14 58 11 8 32 16 9 46 34 58
3890.0 54 71 24 32 51 54 78 74 105 32
3930.0 56 87 59 70 54 30 16 59 63 44
##END=
