##TITLE=Morpholine, 2,6-dimethyl-4-propyl-,
##JCAMP-DX=4.24
##DATA TYPE=INFRARED SPECTRUM
##ORIGIN=Sadtler Research Labs Under US-EPA Contract
##OWNER=NIST Standard Reference Data Program
##CAS REGISTRY NO=70289-40-6
##MOLFORM=C 9 H 19 N O
##XUNITS=1/CM
##YUNITS=ABSORBANCE
##XFACTOR=1.0
##YFACTOR=0.000079129
##DELTAX=4.0
##FIRSTX=450.0
##LASTX=3966.0
##FIRSTY=0.000000
##MAXX=3966
##MINX=450
##MAXY=0.79129
##MINY=0
##NPOINTS=880
##XYDATA=(X++(Y..Y))
450.0 0 77 67 86 116 121 170 205 213 222
490.0 312 302 321 220 245 374 410 422 383 349
530.0 317 255 265 227 210 152 125 173 128 287
570.0 219 344 157 212 230 161 201 197 218 228
610.0 207 131 88 172 125 173 157 94 129 103
650.0 153 143 110 180 63 224 167 199 137 147
690.0 125 161 163 184 127 116 127 121 110 180
730.0 150 116 181 100 351 169 293 279 297 314
770.0 335 298 260 217 258 251 352 480 455 370
810.0 202 260 299 369 482 725 898 1013 978 889
850.0 781 732 815 833 937 926 958 918 878 826
890.0 756 692 574 530 484 503 517 541 536 559
930.0 558 544 517 472 463 467 525 597 725 825
970.0 877 868 748 592 487 427 418 400 450 528
1010.0 712 1028 1383 1857 2284 2719 2863 2700 2346 1789
1050.0 1349 1188 1353 1928 2906 4182 5257 5674 5407 4506
1090.0 3584 3122 2877 2694 2430 2118 1888 2095 2525 3144
1130.0 3686 4134 4514 5044 5963 6909 7417 6878 5788 4429
1170.0 3224 2329 1686 1269 1013 849 716 666 589 591
1210.0 592 738 1024 1451 1868 2043 1966 1653 1230 909
1250.0 798 818 880 915 954 966 1006 1072 1173 1239
1290.0 1219 1192 1199 1212 1238 1312 1515 2041 2743 2958
1330.0 2537 1943 1702 1603 1571 1585 1581 1651 1848 2177
1370.0 2655 3157 3399 3220 2785 2242 1831 1662 1525 1324
1410.0 1044 754 572 484 456 499 598 790 1078 1423
1450.0 1787 2055 2232 2312 2268 1974 1596 1146 742 462
1490.0 379 289 246 230 230 215 207 200 193 189
1530.0 182 181 183 170 171 166 153 158 144 151
1570.0 139 156 150 149 145 147 146 146 146 152
1610.0 147 146 146 146 139 134 136 135 150 146
1650.0 151 150 159 158 155 161 158 155 169 161
1690.0 168 172 199 250 305 325 319 296 233 184
1730.0 163 171 158 146 147 161 176 189 201 206
1770.0 229 215 214 208 205 201 218 231 225 208
1810.0 195 169 148 130 129 121 120 110 120 110
1850.0 99 98 97 104 104 112 97 111 102 106
1890.0 103 110 109 119 118 118 124 126 120 123
1930.0 123 123 130 131 123 111 110 115 108 109
1970.0 102 108 108 107 107 107 108 106 106 110
2010.0 110 110 118 117 109 110 108 98 106 102
2050.0 104 103 100 103 101 95 87 88 87 80
2090.0 86 87 87 78 82 78 74 72 70 70
2130.0 70 71 70 77 84 76 93 83 84 83
2170.0 92 93 88 100 87 86 93 92 92 87
2210.0 93 100 99 101 90 102 96 101 101 108
2250.0 106 107 117 105 102 99 93 94 101 79
2290.0 77 74 78 76 83 73 72 72 77 74
2330.0 73 64 73 64 79 76 63 63 67 78
2370.0 67 63 67 72 83 93 91 91 92 86
2410.0 92 92 79 82 88 79 79 79 75 78
2450.0 87 86 92 92 92 100 108 109 106 105
2490.0 107 101 117 105 112 124 113 118 125 127
2530.0 135 136 138 138 137 149 145 151 156 170
2570.0 176 189 189 201 208 219 233 239 261 268
2610.0 301 330 376 403 441 474 490 485 478 470
2650.0 463 466 461 460 484 491 522 554 607 631
2690.0 668 700 746 809 874 954 1034 1114 1225 1355
2730.0 1485 1601 1706 1795 1879 1982 2091 2263 2508 2808
2770.0 3153 3515 3831 4066 4243 4365 4525 4698 4864 5024
2810.0 5130 5058 4609 3880 3143 2488 2033 1762 1633 1629
2850.0 1751 2027 2532 3171 3970 4894 5488 5733 5897 5782
2890.0 5359 4645 4022 3638 3507 3550 3605 3747 4098 4899
2930.0 6162 7945 9366 9947 9530 8366 6865 5972 6039 6792
2970.0 8071 9242 9755 10000 8582 7042 4960 2961 1599 962
3010.0 684 564 496 461 434 409 392 351 338 324
3050.0 293 286 266 260 259 253 252 244 253 259
3090.0 247 255 256 240 248 235 242 228 216 230
3130.0 214 215 214 206 218 192 182 193 186 194
3170.0 193 198 192 193 191 191 178 165 156 140
3210.0 121 115 108 103 102 99 100 108 97 89
3250.0 93 95 91 86 102 88 101 96 87 106
3290.0 90 94 84 89 94 90 98 92 98 88
3330.0 93 92 75 86 92 88 77 91 83 77
3370.0 75 82 91 83 104 100 100 100 93 80
3410.0 73 84 89 78 98 80 92 105 92 95
3450.0 94 84 91 104 107 88 86 101 82 100
3490.0 81 87 95 73 84 95 89 98 70 71
3530.0 91 79 81 75 89 87 95 97 96 97
3570.0 106 102 100 116 100 114 93 100 100 92
3610.0 94 97 91 86 93 89 77 88 98 86
3650.0 103 97 92 103 93 101 101 102 105 88
3690.0 82 107 102 96 95 94 92 101 108 99
3730.0 92 87 92 83 95 91 77 97 83 83
3770.0 95 104 103 97 97 99 94 103 84 97
3810.0 103 111 102 97 115 111 87 97 103 109
3850.0 102 90 110 98 109 103 108 101 96 109
3890.0 100 98 106 105 100 104 104 96 90 102
3930.0 89 98 84 87 86 88 105 112 115 114
##END=
