##TITLE=3-Chlorobenzal bromide
##JCAMP-DX=4.24
##DATA TYPE=INFRARED SPECTRUM
##ORIGIN=Sadtler Research Labs Under US-EPA Contract
##OWNER=NIST Standard Reference Data Program
##CAS REGISTRY NO=70288-97-0
##MOLFORM=C 7 H 5 Br 2 Cl
##XUNITS=1/CM
##YUNITS=ABSORBANCE
##XFACTOR=1.0
##YFACTOR=0.000080774
##DELTAX=4.0
##FIRSTX=450.0
##LASTX=3966.0
##FIRSTY=0.021567
##MAXX=3966
##MINX=450
##MAXY=0.80774
##MINY=0
##NPOINTS=880
##XYDATA=(X++(Y..Y))
450.0 267 220 355 272 520 239 129 51 322 447
490.0 220 329 295 293 493 595 707 625 841 1167
530.0 1169 1165 761 288 324 398 452 225 471 813
570.0 1206 1378 1566 1535 1282 780 385 306 296 311
610.0 290 313 346 506 574 922 1235 1500 1943 2350
650.0 2826 2852 2651 2648 2665 2511 2221 2204 2705 3981
690.0 6161 8558 10000 9175 6357 3931 2524 1980 1652 1329
730.0 1037 769 691 544 490 387 370 387 475 561
770.0 641 769 989 1321 1485 1283 922 644 561 455
810.0 340 307 266 257 255 279 279 256 217 256
850.0 271 380 428 494 572 690 920 1216 1578 1819
890.0 1761 1434 926 597 455 352 312 265 209 215
930.0 184 217 187 208 212 235 262 248 269 263
970.0 262 273 269 287 289 326 387 425 431 326
1010.0 278 236 203 208 203 175 117 62 48 44
1050.0 106 199 284 386 492 693 1001 1332 1551 1630
1090.0 1632 1561 1459 1294 1008 755 639 592 594 632
1130.0 728 929 1411 2383 3416 3629 2728 1443 779 612
1170.0 649 881 1203 1329 1068 696 536 545 608 831
1210.0 1288 1923 2505 2912 3170 3213 2922 2235 1338 725
1250.0 493 416 365 373 389 458 568 644 638 573
1290.0 531 518 485 454 408 350 321 301 291 287
1330.0 276 286 283 272 246 222 218 224 236 227
1370.0 246 276 291 324 362 425 541 665 774 839
1410.0 933 1107 1438 1905 2244 2227 1953 1473 989 674
1450.0 492 473 599 805 1151 1711 2298 2548 2111 1317
1490.0 745 563 509 452 380 296 219 188 179 162
1530.0 160 167 193 232 273 328 457 646 964 1340
1570.0 1840 2229 2227 2113 1861 1929 2134 1956 1529 900
1610.0 481 329 258 203 186 165 156 151 133 136
1650.0 147 147 150 130 155 157 182 220 266 310
1690.0 304 259 224 198 209 273 376 502 506 499
1730.0 495 389 317 298 306 321 322 367 409 422
1770.0 427 360 262 227 217 213 223 224 214 203
1810.0 186 163 144 129 121 112 105 108 118 134
1850.0 146 161 184 210 234 256 241 203 155 120
1890.0 105 102 99 92 93 95 100 113 132 165
1930.0 200 217 213 194 166 133 110 97 95 91
1970.0 92 88 89 92 90 92 89 90 91 90
2010.0 90 86 85 77 74 75 76 75 78 79
2050.0 79 84 83 86 86 80 75 75 76 75
2090.0 75 74 73 74 75 76 78 78 71 67
2130.0 69 59 61 60 61 63 62 60 64 67
2170.0 65 62 67 68 65 65 63 56 58 57
2210.0 54 48 54 50 52 52 48 49 55 55
2250.0 55 58 65 62 66 67 72 80 89 88
2290.0 81 75 74 73 71 76 73 74 67 67
2330.0 65 72 66 66 87 80 66 72 73 71
2370.0 71 67 71 76 70 70 63 56 52 50
2410.0 52 53 44 47 52 54 64 57 61 55
2450.0 60 56 53 42 40 49 39 39 30 32
2490.0 46 31 32 40 40 43 30 25 28 31
2530.0 24 13 19 23 21 19 16 22 17 19
2570.0 19 17 23 18 20 24 26 18 18 26
2610.0 19 8 16 26 8 6 19 22 8 18
2650.0 33 16 16 22 26 6 19 17 12 23
2690.0 23 20 23 28 32 54 65 67 81 78
2730.0 61 48 41 30 25 23 23 30 32 42
2770.0 42 46 53 45 49 54 65 70 77 87
2810.0 95 96 95 97 91 80 67 45 29 19
2850.0 25 22 24 28 29 29 28 29 24 19
2890.0 21 18 13 14 11 11 13 16 21 31
2930.0 39 34 37 36 32 32 30 19 21 18
2970.0 24 20 14 18 21 26 20 24 29 39
3010.0 62 91 118 146 175 193 191 182 190 186
3050.0 183 194 245 327 440 538 599 613 596 538
3090.0 465 395 338 271 177 113 80 61 57 50
3130.0 55 45 56 46 56 58 63 51 56 52
3170.0 49 55 46 54 48 49 49 41 36 33
3210.0 32 33 42 29 30 42 34 34 29 30
3250.0 26 22 20 27 32 27 27 24 25 7
3290.0 25 22 15 20 25 15 13 19 21 12
3330.0 17 13 28 27 17 19 12 3 12 16
3370.0 10 8 14 16 17 7 15 15 18 3
3410.0 7 16 19 22 16 23 14 24 15 12
3450.0 14 20 4 8 18 23 14 15 9 11
3490.0 18 18 21 16 11 15 23 15 3 4
3530.0 14 17 23 7 25 7 12 15 12 8
3570.0 22 40 63 76 76 64 47 34 29 19
3610.0 19 22 8 11 4 10 4 23 15 8
3650.0 25 26 27 27 22 18 20 7 13 7
3690.0 7 17 4 11 6 2 7 9 1 8
3730.0 8 13 23 6 30 1 21 25 5 7
3770.0 5 2 1 5 14 2 1 1 16 1
3810.0 1 14 5 1 6 4 24 1 31 0
3850.0 0 31 14 14 1 24 1 5 14 27
3890.0 7 17 12 11 29 28 1 16 17 29
3930.0 38 34 56 1 31 34 22 26 24 42
##END=
