##TITLE=Cyclohexaneethanol, .alpha.-ethyl-2-hydroxy-,
##JCAMP-DX=4.24
##DATA TYPE=INFRARED SPECTRUM
##ORIGIN=Sadtler Research Labs Under US-EPA Contract
##OWNER=NIST Standard Reference Data Program
##CAS REGISTRY NO=70289-26-8
##MOLFORM=C 10 H 20 O 2
##XUNITS=1/CM
##YUNITS=ABSORBANCE
##XFACTOR=1.0
##YFACTOR=0.000108575
##DELTAX=4.0
##FIRSTX=450.0
##LASTX=3966.0
##FIRSTY=0.036481
##MAXX=3966
##MINX=450
##MAXY=1.08575
##MINY=0
##NPOINTS=880
##XYDATA=(X++(Y..Y))
450.0 336 149 240 7 153 102 26 259 5 247
490.0 250 0 253 126 193 244 165 118 87 216
530.0 220 176 203 159 205 204 172 256 108 147
570.0 162 109 146 146 119 154 118 126 96 87
610.0 76 87 97 90 120 102 108 120 108 140
650.0 131 130 120 100 121 111 78 115 78 113
690.0 70 103 145 121 108 98 88 121 97 95
730.0 105 160 133 185 248 230 112 194 143 181
770.0 205 151 179 171 208 251 292 331 283 288
810.0 262 266 286 293 331 382 377 431 471 493
850.0 528 452 452 466 444 469 452 435 376 418
890.0 490 436 541 496 465 492 428 425 441 412
930.0 441 481 549 641 757 844 899 916 915 925
970.0 913 873 841 807 756 765 779 815 882 954
1010.0 1027 1116 1192 1262 1344 1396 1420 1437 1515 1649
1050.0 1759 1792 1759 1713 1607 1564 1447 1327 1148 1056
1090.0 1100 1024 953 898 911 967 983 1054 1117 1208
1130.0 1247 1270 1218 1079 990 899 869 839 806 785
1170.0 769 784 813 802 798 784 769 758 746 715
1210.0 715 727 735 729 756 760 762 763 766 815
1250.0 819 844 895 914 870 836 821 823 797 776
1290.0 775 773 772 762 752 735 720 712 705 705
1330.0 725 759 798 827 823 824 837 836 852 886
1370.0 915 938 984 1003 1010 1009 977 970 980 991
1410.0 1017 972 889 785 672 615 597 657 792 970
1450.0 1216 1349 1267 1119 998 790 660 470 358 277
1490.0 199 228 190 171 144 147 147 111 101 139
1530.0 125 131 120 114 117 96 111 77 112 105
1570.0 94 99 97 109 105 102 100 115 110 94
1610.0 109 85 104 96 103 102 99 100 109 90
1650.0 82 82 96 96 92 99 108 138 131 125
1690.0 142 134 121 130 138 144 140 142 156 153
1730.0 154 156 150 155 142 147 131 128 127 119
1770.0 123 113 102 112 108 94 82 97 97 102
1810.0 98 80 82 70 85 79 86 89 67 78
1850.0 74 84 78 76 76 88 78 82 79 66
1890.0 75 93 91 91 83 62 83 64 71 64
1930.0 67 79 76 80 68 72 70 69 70 71
1970.0 66 65 65 62 67 60 61 63 62 67
2010.0 70 62 63 60 67 64 67 64 59 64
2050.0 65 64 63 59 61 60 61 60 58 57
2090.0 60 58 59 60 57 57 59 58 59 65
2130.0 63 63 65 62 59 60 63 63 66 60
2170.0 63 65 62 61 65 63 66 58 62 68
2210.0 64 62 61 62 54 67 66 60 55 63
2250.0 66 62 61 59 66 66 56 65 62 54
2290.0 52 45 45 38 30 14 26 24 24 34
2330.0 34 45 50 53 71 40 33 53 90 80
2370.0 96 92 87 80 82 82 83 80 80 75
2410.0 74 67 71 67 67 67 63 61 63 60
2450.0 58 55 54 60 60 57 58 58 58 58
2490.0 61 62 60 58 59 59 59 59 60 59
2530.0 60 63 62 58 62 61 61 63 68 68
2570.0 69 73 76 81 85 86 89 92 96 100
2610.0 97 98 102 105 108 105 112 118 123 130
2650.0 138 146 157 169 173 179 183 180 167 166
2690.0 157 149 149 148 144 142 142 144 146 151
2730.0 150 154 158 166 176 174 173 173 175 183
2770.0 190 199 214 224 247 264 284 304 313 329
2810.0 344 359 378 408 445 500 570 673 811 1013
2850.0 1310 1735 2319 2981 3563 3861 3846 3631 3381 3091
2890.0 2781 2497 2312 2310 2471 2752 3139 3631 4386 5475
2930.0 6840 8388 9618 10000 9376 7769 5883 4376 3742 3761
2970.0 3692 3208 2372 1541 991 694 530 429 365 315
3010.0 281 255 233 216 196 185 176 165 162 144
3050.0 136 120 111 97 96 90 82 75 72 76
3090.0 76 76 70 65 62 67 61 61 52 50
3130.0 48 53 56 51 44 43 42 35 42 41
3170.0 43 49 51 38 41 43 41 37 35 34
3210.0 35 31 32 36 37 33 32 36 30 23
3250.0 34 27 28 28 25 27 28 29 22 27
3290.0 24 19 23 20 23 20 14 26 27 29
3330.0 24 18 27 23 22 31 26 20 20 20
3370.0 24 22 21 20 20 26 14 17 22 14
3410.0 23 22 26 23 19 25 20 27 18 29
3450.0 27 26 29 23 20 40 36 22 37 37
3490.0 41 38 47 51 47 61 69 84 89 97
3530.0 113 133 155 192 230 319 405 558 749 934
3570.0 1161 1257 1306 1204 1076 896 715 590 458 404
3610.0 325 282 280 255 253 265 298 348 402 483
3650.0 535 565 550 461 343 234 167 122 105 75
3690.0 54 52 54 37 41 31 35 35 35 22
3730.0 22 16 29 14 14 21 14 28 20 19
3770.0 22 31 25 17 27 32 14 14 14 23
3810.0 25 14 17 14 14 14 14 14 18 14
3850.0 14 14 14 14 14 14 16 15 17 14
3890.0 14 14 14 14 14 14 14 14 14 14
3930.0 14 14 14 14 14 14 14 14 14 14
##END=
