##TITLE=Cyclohexanemethanol, 2,6-dimethyl-,
##JCAMP-DX=4.24
##DATA TYPE=INFRARED SPECTRUM
##ORIGIN=Sadtler Research Labs Under US-EPA Contract
##OWNER=NIST Standard Reference Data Program
##CAS REGISTRY NO=70289-32-6
##MOLFORM=C 9 H 18 O
##XUNITS=1/CM
##YUNITS=ABSORBANCE
##XFACTOR=1.0
##YFACTOR=0.000169846
##DELTAX=4.0
##FIRSTX=450.0
##LASTX=3966.0
##FIRSTY=0.005945
##MAXX=3966
##MINX=450
##MAXY=1.69846
##MINY=0
##NPOINTS=880
##XYDATA=(X++(Y..Y))
450.0 35 101 25 18 110 170 86 127 142 143
490.0 72 115 11 113 130 60 64 44 64 22
530.0 46 82 67 103 81 51 86 93 75 69
570.0 64 82 82 26 104 82 84 43 67 48
610.0 83 83 126 140 123 84 117 91 73 100
650.0 45 49 52 39 40 43 50 21 45 42
690.0 29 54 45 52 42 46 47 59 37 57
730.0 77 86 81 89 67 80 68 49 41 58
770.0 59 63 66 64 67 72 107 118 100 88
810.0 96 99 105 92 114 109 122 126 140 168
850.0 180 182 162 144 141 124 126 101 147 171
890.0 141 167 139 176 176 179 211 210 241 270
930.0 277 324 341 366 424 467 530 597 649 652
970.0 672 662 653 651 682 696 762 849 972 1072
1010.0 1141 1179 1167 1159 1142 1178 1259 1355 1474 1577
1050.0 1660 1687 1597 1501 1294 1071 899 776 721 724
1090.0 754 804 858 870 807 730 629 547 484 473
1130.0 459 456 442 425 411 410 429 444 463 494
1170.0 516 531 535 526 514 488 477 468 457 455
1210.0 447 439 443 433 447 445 451 453 464 457
1250.0 454 455 459 439 427 414 399 392 381 382
1290.0 372 378 381 378 375 369 365 363 363 373
1330.0 385 387 406 407 425 436 446 477 504 565
1370.0 665 840 1006 1161 1218 1079 875 639 471 353
1410.0 295 250 224 221 223 255 319 438 589 762
1450.0 982 1135 1245 1299 1270 1105 985 744 599 490
1490.0 349 291 218 156 127 78 74 51 44 48
1530.0 31 42 24 20 38 28 33 16 18 28
1570.0 25 31 26 28 31 35 35 35 36 36
1610.0 34 35 37 26 35 31 32 43 43 41
1650.0 38 30 39 40 36 31 40 39 43 53
1690.0 56 70 69 68 78 84 101 116 145 163
1730.0 169 174 170 173 178 183 199 212 222 248
1770.0 249 199 160 124 82 64 47 50 50 47
1810.0 47 42 41 29 24 19 11 15 8 7
1850.0 8 7 12 7 10 5 7 7 7 5
1890.0 3 5 7 3 4 5 3 5 5 6
1930.0 5 6 8 6 3 5 4 5 6 7
1970.0 6 6 9 9 11 13 12 15 15 14
2010.0 16 15 16 16 16 16 13 15 12 13
2050.0 18 16 17 16 14 15 10 12 11 11
2090.0 10 8 7 6 7 7 5 7 4 5
2130.0 6 2 3 1 4 4 0 4 3 4
2170.0 4 2 5 5 3 6 4 5 4 3
2210.0 3 2 2 3 1 0 0 0 1 2
2250.0 2 2 4 4 6 7 5 7 10 9
2290.0 11 12 16 14 14 17 17 18 17 17
2330.0 19 14 18 14 20 21 12 14 22 22
2370.0 23 17 22 25 25 23 22 23 24 23
2410.0 23 23 23 25 23 25 25 24 24 25
2450.0 21 23 20 20 19 21 18 19 20 22
2490.0 23 21 20 21 20 23 25 25 26 27
2530.0 30 31 31 31 31 32 32 35 37 38
2570.0 46 46 47 53 57 62 68 70 71 75
2610.0 78 79 82 82 85 88 95 99 108 109
2650.0 113 117 120 128 134 141 146 148 149 146
2690.0 143 138 133 135 131 134 137 140 147 153
2730.0 164 175 180 188 189 188 187 184 187 188
2770.0 193 199 208 219 231 243 258 265 279 291
2810.0 304 326 348 384 433 511 625 801 1113 1550
2850.0 2077 2593 3078 3418 3659 3836 4067 4325 4496 4568
2890.0 4483 4312 4204 4211 4390 4845 5636 6751 8121 9090
2930.0 10000 9835 9192 7960 6898 5939 5385 5303 5415 5374
2970.0 5127 4594 3845 3048 2304 1658 1158 808 589 438
3010.0 341 282 239 219 201 182 172 159 153 146
3050.0 140 135 134 131 125 125 121 118 114 109
3090.0 105 97 94 90 84 87 81 78 76 77
3130.0 75 72 68 68 75 67 72 69 67 64
3170.0 61 60 52 52 49 46 43 42 38 38
3210.0 31 28 27 21 22 20 18 24 18 17
3250.0 15 16 12 13 17 14 12 12 9 13
3290.0 13 15 15 14 12 11 13 15 10 4
3330.0 12 11 5 6 6 12 9 7 2 5
3370.0 7 9 8 4 8 6 5 8 0 4
3410.0 10 6 10 11 10 13 9 11 9 15
3450.0 18 17 20 22 18 19 19 22 23 14
3490.0 21 20 19 16 14 10 12 17 16 19
3530.0 17 14 17 16 17 27 26 47 50 68
3570.0 75 75 70 49 31 35 22 28 27 19
3610.0 37 29 39 48 46 52 60 89 120 140
3650.0 216 289 388 500 559 575 551 462 350 268
3690.0 160 106 75 56 49 30 34 42 27 36
3730.0 24 30 14 16 21 18 29 31 27 20
3770.0 22 40 29 22 32 25 18 17 26 35
3810.0 37 35 39 23 40 44 40 46 36 47
3850.0 44 36 13 44 54 30 36 54 40 43
3890.0 51 21 23 33 30 27 31 36 19 35
3930.0 27 3 31 20 19 24 21 43 43 25
##END=
