##TITLE=Benzenebutanenitrile, .gamma.-(1-methylethoxy)-
##JCAMP-DX=4.24
##DATA TYPE=INFRARED SPECTRUM
##ORIGIN=Sadtler Research Labs Under US-EPA Contract
##OWNER=NIST Standard Reference Data Program
##CAS REGISTRY NO=70289-00-8
##MOLFORM=C 13 H 17 N O
##XUNITS=1/CM
##YUNITS=ABSORBANCE
##XFACTOR=1.0
##YFACTOR=0.000088379
##DELTAX=4.0
##FIRSTX=450.0
##LASTX=3966.0
##FIRSTY=0.028900
##MAXX=3966
##MINX=450
##MAXY=0.88379
##MINY=0
##NPOINTS=880
##XYDATA=(X++(Y..Y))
450.0 327 390 239 355 359 225 189 51 22 174
490.0 164 187 442 303 464 564 394 371 516 455
530.0 529 742 182 563 626 405 450 457 477 500
570.0 758 441 916 764 669 785 651 350 504 599
610.0 324 634 406 546 710 700 592 501 418 243
650.0 568 376 471 659 545 548 695 635 813 1532
690.0 2296 4536 6292 6344 5046 2985 1506 1028 981 769
730.0 1157 1219 1451 1953 2572 3228 3721 3330 2317 1657
770.0 892 686 610 529 528 515 491 450 589 522
810.0 585 677 706 775 791 636 631 637 515 528
850.0 390 387 590 700 545 685 871 650 803 667
890.0 588 765 865 842 985 830 861 899 784 728
930.0 801 736 745 737 691 694 813 759 935 1067
970.0 1077 1367 1635 2028 2401 2626 2380 2179 1828 1648
1010.0 1630 1645 1693 2044 2247 2200 2124 1826 1963 2487
1050.0 3285 4474 5695 6415 6629 6895 6935 7462 8167 8053
1090.0 7718 6966 5876 5239 5206 5310 5771 5972 6172 6359
1130.0 6362 6545 6558 6313 5605 4664 3670 2995 2801 2780
1170.0 2927 2858 2575 1995 1580 1255 1202 1231 1254 1342
1210.0 1504 1481 1355 1301 1109 1000 890 740 747 743
1250.0 656 715 663 661 702 870 938 1025 1017 1024
1290.0 1118 1319 1441 1714 1782 1803 1954 1920 1971 2226
1330.0 2388 2664 2910 2830 2550 2191 1897 1907 2052 2323
1370.0 2778 3352 3883 4337 4135 3324 2458 1596 1155 946
1410.0 841 771 846 932 1190 1669 2023 2158 2183 2238
1450.0 2357 2597 2325 1968 1629 1342 1150 1126 1167 1296
1490.0 1526 1520 1325 1012 587 416 337 289 244 258
1530.0 209 247 246 188 285 217 227 178 145 163
1570.0 247 212 232 397 396 485 579 642 610 563
1610.0 398 295 205 168 170 148 151 157 206 119
1650.0 175 135 158 213 229 210 203 228 150 141
1690.0 165 152 190 117 174 198 220 138 229 227
1730.0 238 286 280 319 353 334 285 275 209 215
1770.0 210 154 204 185 185 222 275 321 405 446
1810.0 382 378 306 271 229 193 146 166 154 123
1850.0 177 155 168 209 231 228 324 315 321 355
1890.0 303 311 278 209 193 180 137 142 161 117
1930.0 164 223 270 339 399 360 374 344 297 293
1970.0 206 161 167 164 123 153 117 103 131 98
2010.0 94 102 103 78 123 84 84 96 64 94
2050.0 87 68 75 107 63 81 90 58 82 70
2090.0 64 62 83 53 83 92 63 94 81 77
2130.0 77 76 51 92 63 70 86 63 69 73
2170.0 74 59 93 56 67 90 65 83 80 74
2210.0 81 103 62 84 102 76 139 177 258 361
2250.0 440 406 349 239 151 139 110 95 112 103
2290.0 86 123 99 106 145 108 136 161 106 88
2330.0 161 88 109 160 48 102 121 96 143 151
2370.0 15 89 82 37 73 41 40 41 48 7
2410.0 53 40 19 56 33 37 46 38 12 54
2450.0 30 21 31 7 35 32 27 16 60 22
2490.0 45 56 31 46 47 39 28 61 30 50
2530.0 36 15 49 30 26 44 54 21 65 41
2570.0 35 64 52 70 74 80 73 112 97 108
2610.0 136 111 127 141 141 148 197 165 179 183
2650.0 162 166 144 136 134 169 114 150 119 102
2690.0 134 112 128 135 143 103 159 128 134 167
2730.0 146 161 190 191 177 223 165 175 191 160
2770.0 187 195 198 203 251 205 270 281 280 348
2810.0 371 390 449 521 551 666 719 752 847 909
2850.0 1026 1183 1403 1582 1916 2151 2408 2695 2790 2896
2890.0 2955 2902 2817 2712 2442 2236 2089 2023 2158 2461
2930.0 2966 3813 4724 5138 5064 4377 3638 3415 3660 4514
2970.0 5869 7865 9460 10000 8221 5673 3541 2127 1584 1369
3010.0 1297 1223 1349 1501 1948 2447 2663 2556 2213 1784
3050.0 1470 1368 1360 1721 2350 2937 3266 3014 2485 2010
3090.0 1806 1517 1255 988 791 693 531 438 339 293
3130.0 191 225 173 153 220 144 164 165 176 154
3170.0 213 135 150 191 139 166 154 133 117 142
3210.0 85 108 133 79 119 91 69 71 99 33
3250.0 84 57 47 102 42 36 55 52 32 85
3290.0 23 42 72 38 63 61 51 44 97 27
3330.0 62 98 18 71 74 73 69 72 18 63
3370.0 65 3 85 69 61 58 82 21 92 78
3410.0 57 86 58 75 82 87 26 117 62 59
3450.0 90 38 50 69 58 40 115 42 100 90
3490.0 28 74 72 51 50 111 19 93 61 25
3530.0 109 55 53 65 59 40 122 54 49 87
3570.0 24 68 113 76 58 117 51 57 105 65
3610.0 55 59 64 41 116 15 80 79 62 70
3650.0 61 48 50 91 9 40 38 4 36 21
3690.0 14 45 37 1 68 9 2 9 0 2
3730.0 2 2 2 2 2 2 2 2 2 2
3770.0 2 2 2 2 2 2 2 2 2 2
3810.0 2 2 2 2 2 2 2 2 2 2
3850.0 2 2 2 2 2 2 2 2 2 2
3890.0 2 2 2 2 2 2 2 2 2 2
3930.0 2 2 2 2 2 2 2 2 2 2
##END=
