##TITLE=Benzenemethanol, 4-bromo-.alpha.-cyclopropyl-
##JCAMP-DX=4.24
##DATA TYPE=INFRARED SPECTRUM
##ORIGIN=Sadtler Research Labs Under US-EPA Contract
##OWNER=NIST Standard Reference Data Program
##CAS REGISTRY NO=70289-39-3
##MOLFORM=C 10 H 11 Br O
##XUNITS=1/CM
##YUNITS=ABSORBANCE
##XFACTOR=1.0
##YFACTOR=0.000061313
##DELTAX=4.0
##FIRSTX=450.0
##LASTX=3966.0
##FIRSTY=0.096874
##MAXX=3966
##MINX=450
##MAXY=0.61313
##MINY=0
##NPOINTS=880
##XYDATA=(X++(Y..Y))
450.0 1580 667 192 278 379 315 364 670 957 907
490.0 804 1200 1177 1126 893 895 642 734 873 842
530.0 818 850 762 598 563 468 436 261 310 303
570.0 170 134 200 176 264 247 164 93 218 30
610.0 65 158 72 109 185 140 166 122 227 141
650.0 220 252 201 314 288 428 194 232 110 144
690.0 180 211 220 146 176 242 268 224 244 168
730.0 118 233 306 315 360 564 767 873 1042 1061
770.0 913 803 749 743 832 972 1225 1573 1971 2547
810.0 3028 3557 3849 3992 4279 4264 4228 3812 3139 2575
850.0 2054 1663 1291 1006 838 717 601 453 364 322
890.0 332 337 366 479 612 757 975 1167 1276 1221
930.0 1115 1296 1599 2192 2613 2457 2058 1690 1607 1696
970.0 1627 1552 1486 1471 1562 1787 2114 2545 3443 5616
1010.0 8992 10000 7735 5566 5000 5510 5515 5546 5584 5190
1050.0 4635 3999 3434 3392 4038 5200 5702 4917 3394 2205
1090.0 1644 1427 1418 1338 1194 1053 1198 940 1096 1214
1130.0 1297 1264 1143 1027 875 855 807 814 996 1148
1170.0 1317 1511 1638 1698 1666 1657 1570 1439 1287 1232
1210.0 1282 1261 1381 1470 1478 1513 1487 1402 1310 1216
1250.0 1227 1315 1369 1434 1464 1517 1506 1516 1571 1663
1290.0 1762 1791 1628 1498 1349 1355 1340 1317 1285 1230
1330.0 1189 1159 1189 1193 1147 1166 1145 1126 1121 1080
1370.0 1161 1259 1339 1487 1563 1720 1880 2003 2001 1940
1410.0 1797 1504 1404 1128 1110 1084 1061 1038 853 795
1450.0 685 706 739 891 1030 1347 1736 2581 3692 5173
1490.0 5996 5262 3372 1782 990 533 392 234 130 111
1530.0 135 79 101 31 130 132 91 169 79 272
1570.0 292 344 527 665 1014 1315 1483 1231 841 518
1610.0 270 211 129 146 199 158 230 183 195 255
1650.0 96 141 90 134 94 52 88 69 133 80
1690.0 167 132 102 63 91 85 79 68 72 137
1730.0 103 129 135 155 234 205 233 267 285 314
1770.0 336 302 343 324 275 172 173 105 165 108
1810.0 118 157 105 139 93 96 100 95 127 103
1850.0 132 109 113 124 150 198 178 223 243 293
1890.0 322 359 354 343 295 271 223 202 185 158
1930.0 139 133 129 109 115 94 96 83 93 92
1970.0 87 78 68 64 61 59 59 54 47 45
2010.0 39 45 54 59 65 64 69 82 96 100
2050.0 100 109 116 134 153 142 132 125 108 98
2090.0 94 94 91 95 92 74 64 57 48 40
2130.0 39 39 42 39 39 33 35 34 31 32
2170.0 30 20 31 30 31 30 31 31 35 38
2210.0 39 38 41 46 44 45 43 47 40 45
2250.0 54 56 55 60 64 68 70 73 73 90
2290.0 99 109 127 131 145 167 148 156 147 154
2330.0 142 141 183 134 219 127 231 172 245 235
2370.0 211 190 158 145 108 74 66 64 66 65
2410.0 64 71 56 61 57 53 57 61 63 65
2450.0 67 70 70 74 77 82 92 100 100 103
2490.0 89 81 78 86 79 87 93 95 97 92
2530.0 93 93 87 92 90 96 95 103 98 101
2570.0 103 119 115 106 117 117 117 120 120 109
2610.0 104 96 88 91 96 85 92 105 96 99
2650.0 106 110 115 119 116 117 116 98 101 101
2690.0 101 99 102 97 105 107 105 112 111 111
2730.0 110 118 116 120 120 125 123 125 133 146
2770.0 143 147 160 158 174 183 184 187 197 202
2810.0 215 228 248 265 286 317 344 385 440 514
2850.0 593 710 869 1065 1267 1476 1651 1746 1754 1689
2890.0 1548 1359 1184 1016 861 739 651 569 511 477
2930.0 448 422 405 387 379 368 362 380 386 430
2970.0 450 472 468 485 513 585 706 905 1237 1768
3010.0 2504 3297 3747 3624 3090 2460 1956 1519 1209 994
3050.0 865 806 757 747 773 893 1121 1476 1984 2565
3090.0 2950 2851 2266 1536 934 561 344 234 173 144
3130.0 132 126 122 119 113 115 104 91 102 92
3170.0 85 80 77 73 77 83 73 79 82 83
3210.0 74 73 73 85 67 62 57 58 55 61
3250.0 69 65 59 62 72 77 61 64 80 61
3290.0 71 60 59 51 67 54 54 63 75 72
3330.0 70 85 95 91 86 81 79 75 84 77
3370.0 93 79 73 99 82 85 98 100 100 95
3410.0 107 87 93 104 106 95 73 82 80 75
3450.0 85 72 100 93 103 90 93 88 103 93
3490.0 89 82 102 98 94 78 80 57 83 94
3530.0 78 82 95 100 104 84 62 103 76 100
3570.0 99 115 96 165 82 183 93 158 121 181
3610.0 150 172 215 222 394 474 792 1231 1720 1761
3650.0 1642 1085 1050 675 670 418 285 287 214 278
3690.0 45 190 116 156 124 114 96 162 87 165
3730.0 114 50 117 23 109 0 151 14 136 66
3770.0 128 102 95 39 83 80 136 22 153 14
3810.0 188 18 136 22 146 133 76 95 112 74
3850.0 70 49 58 168 52 116 115 153 92 107
3890.0 125 132 61 176 61 132 128 116 95 63
3930.0 152 82 103 158 116 150 85 129 157 109
##END=
