##TITLE=Pyridine, 2-(dodecyloxy)-
##JCAMP-DX=4.24
##DATA TYPE=INFRARED SPECTRUM
##ORIGIN=Sadtler Research Labs Under US-EPA Contract
##OWNER=NIST Standard Reference Data Program
##CAS REGISTRY NO=70289-09-7
##MOLFORM=C 17 H 29 N O
##XUNITS=1/CM
##YUNITS=ABSORBANCE
##XFACTOR=1.0
##YFACTOR=0.000100043
##DELTAX=4.0
##FIRSTX=450.0
##LASTX=3966.0
##FIRSTY=0.040317
##MAXX=3966
##MINX=450
##MAXY=1.00043
##MINY=0
##NPOINTS=880
##XYDATA=(X++(Y..Y))
450.0 403 525 428 381 363 148 165 130 220 230
490.0 375 296 275 275 3 351 398 411 534 454
530.0 292 236 29 103 173 214 198 151 227 154
570.0 86 197 64 151 183 115 159 183 134 87
610.0 244 172 136 218 91 136 240 195 206 60
650.0 123 156 87 132 123 211 107 107 0 50
690.0 64 53 220 209 208 210 319 410 479 486
730.0 676 981 961 671 478 397 443 519 645 895
770.0 1312 1995 2514 2089 1340 876 559 467 340 312
810.0 291 257 281 241 223 213 229 276 272 298
850.0 269 266 304 270 189 128 128 147 164 158
890.0 178 148 167 146 155 168 165 219 266 244
930.0 253 252 251 266 307 360 425 434 459 513
970.0 530 611 676 808 1091 1212 1173 1179 1262 1372
1010.0 1483 1478 1329 1179 1017 940 1014 1218 1501 1605
1050.0 1475 1201 1060 924 813 705 593 500 434 360
1090.0 291 238 245 200 182 134 102 141 161 217
1130.0 276 447 844 1147 648 311 199 124 122 105
1170.0 102 111 104 123 132 132 140 151 172 206
1210.0 256 296 354 443 547 674 854 1123 1484 1913
1250.0 2315 2551 2765 3285 3863 3784 3263 3441 4785 6633
1290.0 6171 3862 2421 2364 3014 3608 3602 2911 2116 1513
1330.0 1118 847 686 595 530 527 542 539 614 698
1370.0 858 1012 1100 1115 975 742 551 437 389 363
1410.0 439 540 821 1322 2288 4010 5703 4697 2965 1923
1450.0 1544 1682 2171 3049 4063 4730 4512 4222 3335 2151
1490.0 1305 868 698 600 512 402 313 246 227 173
1530.0 183 183 223 245 319 386 522 747 1115 1681
1570.0 2262 2196 1854 2007 2377 3091 3947 3732 3657 2977
1610.0 2220 1625 933 605 396 247 202 131 87 98
1650.0 59 71 22 22 38 24 57 29 74 56
1690.0 70 63 81 65 57 58 70 96 59 53
1730.0 66 48 45 9 48 38 22 33 31 27
1770.0 41 40 27 32 40 28 62 35 67 59
1810.0 67 74 54 68 62 83 78 81 81 60
1850.0 38 27 37 32 38 45 26 32 27 41
1890.0 46 60 78 88 89 88 72 79 77 85
1930.0 87 82 71 62 68 69 89 85 64 48
1970.0 39 31 34 31 36 42 42 41 43 48
2010.0 49 51 55 57 56 59 53 52 54 54
2050.0 52 55 55 52 64 60 63 69 71 74
2090.0 79 71 71 71 70 69 65 68 65 61
2130.0 63 57 57 53 53 55 53 55 51 55
2170.0 50 47 47 45 42 45 40 42 36 30
2210.0 31 30 30 31 38 40 40 48 44 43
2250.0 41 41 40 40 39 38 42 45 44 48
2290.0 46 40 45 43 44 52 55 80 92 115
2330.0 128 111 132 90 141 61 154 108 168 129
2370.0 89 75 47 37 27 22 30 29 34 28
2410.0 30 31 30 29 26 25 21 21 16 17
2450.0 18 15 13 9 8 5 7 11 10 10
2490.0 14 14 22 22 29 28 31 36 36 42
2530.0 47 51 58 62 73 84 94 98 102 103
2570.0 101 100 87 81 68 69 61 53 60 56
2610.0 54 48 50 51 54 60 65 65 67 64
2650.0 68 79 83 85 86 94 94 99 104 102
2690.0 101 101 94 90 95 103 103 112 118 121
2730.0 130 132 138 146 146 147 140 140 141 140
2770.0 143 153 165 180 204 225 246 276 303 333
2810.0 373 417 470 534 601 690 814 1000 1282 1727
2850.0 2387 3186 3951 4413 4294 3802 3249 2801 2580 2508
2890.0 2504 2612 2838 3196 3647 4209 4892 5757 6917 8315
2930.0 9586 10000 9247 8043 6674 5554 4757 4283 4049 3821
2970.0 3432 2829 2134 1606 1246 989 813 678 604 567
3010.0 566 594 619 637 615 567 499 432 417 415
3050.0 435 480 509 513 493 471 491 542 590 605
3090.0 503 364 280 226 175 127 104 81 81 74
3130.0 68 76 71 65 65 63 58 53 56 55
3170.0 58 59 49 47 50 50 53 52 50 52
3210.0 50 45 40 43 35 30 32 31 29 31
3250.0 31 31 33 31 39 37 29 34 42 49
3290.0 45 41 39 55 45 48 48 40 41 40
3330.0 42 42 47 47 51 56 62 61 65 61
3370.0 63 67 71 76 60 66 63 69 62 64
3410.0 63 63 72 62 58 69 67 74 78 71
3450.0 80 73 75 66 80 67 72 75 61 58
3490.0 73 57 68 58 55 71 68 61 69 72
3530.0 68 78 77 70 65 66 65 69 69 53
3570.0 54 68 64 81 46 86 55 81 57 94
3610.0 65 77 91 61 104 60 75 86 86 35
3650.0 98 5 108 40 98 73 75 90 69 126
3690.0 51 119 71 116 104 77 70 81 63 105
3730.0 73 76 89 39 106 10 123 51 99 71
3770.0 82 99 85 82 99 98 114 55 97 31
3810.0 126 37 116 54 87 76 84 54 87 89
3850.0 98 77 90 126 105 103 100 110 83 105
3890.0 86 108 53 73 90 92 95 82 98 111
3930.0 130 126 127 132 112 152 127 135 89 117
##END=
