##TITLE=Cyclohexanecarboxylic acid, nonyl ester
##JCAMP-DX=4.24
##DATA TYPE=INFRARED SPECTRUM
##ORIGIN=Sadtler Research Labs Under US-EPA Contract
##OWNER=NIST Standard Reference Data Program
##CAS REGISTRY NO=70289-37-1
##MOLFORM=C 16 H 30 O 2
##XUNITS=1/CM
##YUNITS=ABSORBANCE
##XFACTOR=1.0
##YFACTOR=0.000113043
##DELTAX=4.0
##FIRSTX=450.0
##LASTX=3966.0
##FIRSTY=0.032783
##MAXX=3966
##MINX=450
##MAXY=1.13043
##MINY=0
##NPOINTS=880
##XYDATA=(X++(Y..Y))
450.0 290 245 142 24 114 179 20 108 142 95
490.0 218 116 145 178 38 150 157 98 69 123
530.0 181 123 164 86 80 94 47 106 37 79
570.0 107 114 63 110 59 74 41 54 93 139
610.0 135 129 58 95 122 104 79 101 93 124
650.0 124 76 94 84 106 42 126 122 144 115
690.0 140 124 132 152 163 179 194 217 230 180
730.0 172 176 208 207 254 179 153 173 191 180
770.0 162 157 156 137 110 122 130 136 142 138
810.0 95 109 121 138 99 114 165 155 162 200
850.0 211 191 177 165 138 209 230 243 227 242
890.0 196 251 239 245 271 260 215 212 206 223
930.0 206 231 213 196 226 179 206 226 218 263
970.0 330 341 360 363 350 319 308 323 369 427
1010.0 510 611 684 762 763 905 1214 1404 1371 1160
1050.0 975 830 749 664 641 595 564 541 525 492
1090.0 493 531 523 576 603 750 896 1026 1201 1480
1130.0 1863 2065 1905 1744 1694 1590 1664 2124 2851 3707
1170.0 3947 3640 3196 2869 2721 2518 2254 1948 1674 1528
1210.0 1432 1442 1507 1587 1686 1658 1594 1632 1812 2079
1250.0 2043 1709 1311 1048 958 971 1074 1040 850 750
1290.0 695 733 823 935 1068 1151 1117 1086 1002 938
1330.0 860 725 603 485 460 431 431 441 471 519
1370.0 580 545 508 506 534 517 460 379 316 266
1410.0 265 274 238 255 269 304 321 431 556 707
1450.0 960 1189 1235 1175 1033 881 686 503 392 265
1490.0 206 178 136 126 86 43 78 49 17 74
1530.0 50 61 45 4 30 49 36 25 19 40
1570.0 21 28 40 36 80 57 61 73 56 57
1610.0 47 58 48 54 52 69 62 69 93 77
1650.0 31 60 99 102 112 99 91 92 74 93
1690.0 137 167 158 252 308 345 416 484 672 911
1730.0 1233 1655 2409 3452 4511 4895 3719 2489 1597 1102
1770.0 850 585 509 388 291 258 178 165 134 105
1810.0 101 99 92 77 65 63 51 56 51 44
1850.0 59 63 54 56 40 45 33 43 50 47
1890.0 43 44 44 42 46 49 38 43 36 49
1930.0 44 39 46 36 37 46 45 47 45 44
1970.0 46 49 47 41 39 44 36 40 40 44
2010.0 45 40 42 40 44 52 49 50 44 44
2050.0 45 41 47 44 39 45 46 40 44 43
2090.0 39 33 38 37 39 36 38 26 31 29
2130.0 37 25 30 33 33 38 34 28 26 30
2170.0 30 27 24 31 26 24 31 26 29 19
2210.0 24 23 26 27 22 27 28 22 26 23
2250.0 24 25 22 25 23 23 23 23 27 21
2290.0 23 21 24 22 17 15 13 15 10 12
2330.0 16 12 12 25 22 8 12 9 20 13
2370.0 30 26 19 21 14 18 19 15 18 13
2410.0 14 15 14 17 11 16 15 7 10 3
2450.0 5 8 6 7 5 3 2 9 9 10
2490.0 16 16 11 13 13 13 15 13 15 17
2530.0 21 21 18 15 17 17 17 18 23 22
2570.0 22 25 24 29 33 32 38 36 36 36
2610.0 35 37 40 42 44 44 47 52 56 59
2650.0 61 72 84 99 102 107 102 102 97 94
2690.0 86 84 83 83 77 73 70 67 65 69
2730.0 71 69 77 81 85 84 90 86 86 93
2770.0 97 102 109 121 130 141 158 167 184 191
2810.0 210 229 242 282 313 348 409 492 617 819
2850.0 1163 1729 2572 3504 3962 3664 3031 2469 2120 1901
2890.0 1741 1684 1782 2011 2354 2784 3325 3998 4903 6224
2930.0 7737 9123 9928 10000 9053 7180 5503 4501 4033 3739
2970.0 3345 2696 1944 1392 1049 802 622 484 387 313
3010.0 266 232 202 180 167 154 152 134 122 114
3050.0 100 96 88 85 83 71 70 80 70 62
3090.0 67 59 53 49 43 48 37 40 38 38
3130.0 37 33 34 30 36 34 35 37 38 36
3170.0 35 33 37 25 26 21 22 20 24 24
3210.0 25 18 13 15 21 16 18 18 20 17
3250.0 9 19 16 16 11 20 13 9 15 25
3290.0 17 22 16 19 13 13 14 14 12 9
3330.0 16 21 24 15 15 17 22 21 19 27
3370.0 22 14 19 29 16 25 23 16 19 21
3410.0 30 23 15 16 22 29 31 35 34 39
3450.0 39 35 38 33 46 52 56 56 47 46
3490.0 39 28 19 21 21 14 17 17 13 22
3530.0 21 33 21 18 15 12 14 14 21 17
3570.0 31 14 24 28 26 13 10 16 14 19
3610.0 15 15 17 23 7 10 19 19 19 21
3650.0 2 19 14 29 13 6 28 3 27 8
3690.0 10 16 28 33 12 9 24 10 15 16
3730.0 27 19 0 31 3 40 23 33 13 19
3770.0 32 40 36 15 32 38 10 38 31 47
3810.0 48 46 28 12 14 45 32 32 43 30
3850.0 24 40 42 30 55 27 40 49 49 39
3890.0 29 14 49 41 37 26 30 66 54 38
3930.0 34 46 33 21 49 47 17 26 73 44
##END=
