##TITLE=Acetic acid, 1-butyl-3-piperidyl ester
##JCAMP-DX=4.24
##DATA TYPE=INFRARED SPECTRUM
##ORIGIN=Sadtler Research Labs Under US-EPA Contract
##OWNER=NIST Standard Reference Data Program
##CAS REGISTRY NO=70289-15-5
##MOLFORM=C 11 H 21 N O 2
##XUNITS=1/CM
##YUNITS=ABSORBANCE
##XFACTOR=1.0
##YFACTOR=0.000141956
##DELTAX=4.0
##FIRSTX=450.0
##LASTX=3966.0
##FIRSTY=0.005962
##MAXX=3966
##MINX=450
##MAXY=1.41956
##MINY=0
##NPOINTS=880
##XYDATA=(X++(Y..Y))
450.0 42 28 11 77 170 107 131 64 161 112
490.0 120 118 77 68 99 105 96 80 33 39
530.0 68 83 88 53 72 58 49 60 86 76
570.0 94 74 87 98 89 89 99 134 174 198
610.0 196 148 105 106 105 125 104 90 109 73
650.0 77 147 142 139 73 78 55 84 72 65
690.0 49 56 47 38 42 22 29 27 24 45
730.0 50 105 114 99 88 102 82 80 81 89
770.0 111 105 127 144 144 125 83 68 55 65
810.0 50 28 35 25 33 59 98 118 132 167
850.0 189 232 262 337 390 433 418 376 296 247
890.0 209 198 194 207 216 226 217 221 200 191
930.0 164 154 165 197 235 281 328 393 482 581
970.0 657 661 657 631 594 589 610 648 703 750
1010.0 827 945 1066 1222 1406 1578 1808 2058 2167 2020
1050.0 1623 1244 1036 952 895 846 835 836 854 925
1090.0 1069 1243 1331 1325 1238 1023 868 816 806 850
1130.0 883 838 772 779 913 1097 1304 1454 1521 1514
1170.0 1347 1093 886 774 761 784 797 822 855 939
1210.0 1077 1307 1606 2098 3073 4707 7319 9601 10000 8591
1250.0 5696 3623 2482 1902 1545 1294 1100 950 814 705
1290.0 610 554 524 528 578 646 690 687 606 530
1330.0 481 473 500 525 589 713 899 1134 1428 1824
1370.0 2044 2190 2019 1680 1372 992 782 626 515 445
1410.0 359 340 298 297 276 323 398 496 653 748
1450.0 800 801 780 771 779 732 677 501 351 242
1490.0 167 156 126 138 115 122 115 127 102 125
1530.0 92 133 105 119 112 90 114 55 98 48
1570.0 59 70 27 86 49 48 59 46 59 37
1610.0 59 36 54 44 54 76 62 79 85 62
1650.0 104 76 93 90 97 108 136 148 145 158
1690.0 126 162 154 191 191 235 311 344 423 478
1730.0 570 699 828 1217 1839 3078 4245 5024 4666 3486
1770.0 2529 1574 1143 902 703 644 579 583 519 456
1810.0 389 293 245 162 143 115 90 95 78 80
1850.0 64 53 49 48 59 58 54 47 46 36
1890.0 44 32 50 37 40 41 33 42 40 39
1930.0 46 38 26 42 27 29 18 35 18 22
1970.0 29 21 25 24 17 19 17 18 15 14
2010.0 21 24 28 29 24 17 24 26 29 25
2050.0 27 23 30 26 17 27 31 28 34 39
2090.0 44 44 47 46 50 51 51 54 49 46
2130.0 44 40 39 36 38 41 36 31 33 34
2170.0 31 30 30 35 35 40 38 38 40 38
2210.0 38 37 38 40 39 40 40 41 43 42
2250.0 47 45 43 42 40 44 42 42 39 35
2290.0 30 29 24 21 23 12 18 12 11 13
2330.0 17 17 13 38 11 46 10 27 11 11
2370.0 22 11 26 29 29 38 37 40 43 47
2410.0 43 41 45 43 40 42 46 45 45 42
2450.0 42 43 48 53 54 59 59 59 55 50
2490.0 47 44 43 45 45 46 43 43 42 45
2530.0 47 48 50 51 50 60 62 63 68 68
2570.0 70 72 77 82 85 91 93 97 101 103
2610.0 107 116 121 130 138 142 149 156 169 182
2650.0 193 209 227 244 257 273 286 302 313 327
2690.0 339 367 389 417 444 468 479 494 509 540
2730.0 583 641 726 810 895 978 1068 1172 1295 1424
2770.0 1521 1592 1623 1635 1627 1620 1632 1654 1678 1692
2810.0 1643 1507 1286 1049 859 724 642 590 567 564
2850.0 595 680 856 1107 1387 1611 1721 1716 1653 1561
2890.0 1438 1312 1235 1246 1306 1391 1530 1708 1953 2307
2930.0 2806 3446 4086 4615 5103 5321 5266 4935 4604 4334
2970.0 3870 3071 2094 1319 873 652 528 445 385 339
3010.0 308 282 268 252 238 236 230 215 212 188
3050.0 181 170 157 157 154 147 142 132 125 119
3090.0 120 116 111 109 107 101 104 95 89 90
3130.0 85 88 88 83 85 84 76 84 82 82
3170.0 76 78 78 81 82 77 78 76 78 68
3210.0 71 73 76 73 68 66 62 72 62 55
3250.0 63 54 53 56 65 59 64 52 47 54
3290.0 52 46 52 47 45 61 62 54 51 55
3330.0 59 58 46 53 50 53 56 52 47 56
3370.0 64 49 45 60 62 59 64 56 61 56
3410.0 64 50 51 62 56 67 50 51 50 53
3450.0 65 54 60 59 69 62 54 55 68 64
3490.0 86 83 82 76 59 67 63 64 56 56
3530.0 47 67 54 59 74 88 116 154 165 171
3570.0 141 136 105 146 97 118 94 113 91 89
3610.0 70 54 79 28 90 39 64 36 78 63
3650.0 107 34 113 50 76 61 35 67 21 64
3690.0 24 72 36 68 59 56 39 69 31 72
3730.0 46 47 70 30 127 0 111 21 83 71
3770.0 64 64 68 77 64 47 84 50 91 28
3810.0 110 50 115 37 70 61 71 67 80 63
3850.0 78 65 73 77 30 81 69 66 67 89
3890.0 50 81 50 78 47 72 61 66 59 73
3930.0 90 64 58 51 23 78 86 76 50 59
##END=
