##TITLE=Hexanoic acid, 2-cyano-3-ethyl-3-methyl-, ethyl ester
##JCAMP-DX=4.24
##DATA TYPE=INFRARED SPECTRUM
##ORIGIN=Sadtler Research Labs Under US-EPA Contract
##OWNER=NIST Standard Reference Data Program
##CAS REGISTRY NO=70289-02-0
##MOLFORM=C 12 H 21 N O 2
##XUNITS=1/CM
##YUNITS=ABSORBANCE
##XFACTOR=1.0
##YFACTOR=0.000053604
##DELTAX=4.0
##FIRSTX=450.0
##LASTX=3966.0
##FIRSTY=0.020530
##MAXX=3966
##MINX=450
##MAXY=0.53604
##MINY=0
##NPOINTS=880
##XYDATA=(X++(Y..Y))
450.0 383 247 12 344 118 108 110 111 191 150
490.0 82 300 101 70 209 232 156 47 138 57
530.0 52 133 44 87 141 111 124 62 87 118
570.0 114 175 152 102 149 132 185 141 129 182
610.0 191 228 94 119 68 184 169 126 107 77
650.0 68 205 167 268 86 285 106 332 143 60
690.0 79 154 213 167 274 272 236 201 299 446
730.0 522 349 387 619 439 418 312 345 335 293
770.0 378 423 398 432 488 395 373 431 325 391
810.0 341 245 260 237 333 281 287 303 331 431
850.0 561 579 602 590 591 518 462 398 349 320
890.0 306 263 301 341 295 277 249 252 263 289
930.0 325 319 365 386 404 428 456 436 411 371
970.0 345 356 392 419 433 563 585 556 763 901
1010.0 1073 1302 1499 1972 2476 3101 3613 3758 3319 2704
1050.0 1983 1624 1297 1162 1151 1019 992 1009 1081 1178
1090.0 1240 1615 1714 1662 1489 1382 1315 1356 1457 1827
1130.0 2494 3232 3921 4375 4112 3703 3403 3540 3987 4390
1170.0 4778 5092 5331 5340 5248 4842 4381 3932 3600 3342
1210.0 3249 3396 3736 4331 5317 6332 7206 7423 6988 6287
1250.0 5511 4874 4245 3715 3203 2884 2590 2368 2244 2127
1290.0 2082 2124 2120 2209 2370 2461 2563 2661 2643 2493
1330.0 2155 1736 1329 1022 860 731 688 688 827 1129
1370.0 1424 1563 1533 1425 1628 1792 1764 1459 1034 829
1410.0 661 577 540 537 501 601 632 718 841 992
1450.0 1140 1540 1657 2206 2350 2524 2293 1782 1327 858
1490.0 655 482 408 349 232 274 117 278 147 251
1530.0 200 164 262 201 186 135 227 203 276 164
1570.0 231 241 171 242 178 127 230 91 220 149
1610.0 177 200 209 211 194 254 180 238 202 125
1650.0 365 145 372 143 309 211 308 249 312 299
1690.0 293 337 363 485 472 575 624 723 830 894
1730.0 1189 1448 2204 3447 5660 8271 10000 9910 8940 7481
1770.0 5542 3656 2310 1601 1120 923 641 562 403 356
1810.0 354 282 261 239 228 232 151 240 150 211
1850.0 145 182 187 136 156 129 198 173 186 181
1890.0 166 159 167 139 146 141 134 154 124 114
1930.0 112 103 122 103 114 112 96 153 78 133
1970.0 98 124 105 105 107 104 109 113 125 119
2010.0 134 129 106 106 119 125 133 127 110 126
2050.0 131 112 122 117 117 127 121 121 127 117
2090.0 121 118 123 121 119 108 107 119 115 106
2130.0 109 105 104 104 94 106 102 98 100 104
2170.0 106 114 112 105 109 104 110 106 103 105
2210.0 108 96 106 112 108 109 124 129 152 175
2250.0 184 161 135 118 117 111 93 96 97 80
2290.0 85 65 63 66 49 25 41 37 13 18
2330.0 13 6 25 0 63 13 44 25 4 13
2370.0 20 11 47 78 90 116 107 108 119 105
2410.0 121 121 114 106 109 104 99 101 96 89
2450.0 89 80 81 89 80 91 81 87 90 81
2490.0 80 79 82 84 80 77 73 79 73 71
2530.0 64 73 72 78 75 87 73 78 78 70
2570.0 87 80 72 82 85 79 76 86 91 96
2610.0 93 101 96 102 92 91 88 88 82 85
2650.0 88 82 86 76 65 66 62 64 70 58
2690.0 62 56 54 72 69 68 69 68 76 81
2730.0 101 101 118 139 136 147 143 137 139 126
2770.0 132 130 126 132 134 137 152 147 157 166
2810.0 189 197 221 243 267 300 335 357 396 436
2850.0 507 600 706 865 1052 1290 1626 2104 2669 3060
2890.0 3139 2933 2602 2386 2285 2350 2510 2663 2833 3015
2930.0 3319 3786 4435 5156 5513 5351 4871 4535 4913 6170
2970.0 7964 9123 9101 8073 6792 5554 4312 3208 2420 1891
3010.0 1493 1187 959 773 636 532 462 390 352 305
3050.0 277 244 227 218 205 197 188 174 179 167
3090.0 156 156 140 142 146 131 128 139 143 138
3130.0 127 132 142 137 144 131 135 130 140 143
3170.0 157 148 149 156 159 148 157 142 144 136
3210.0 139 152 159 157 156 174 173 156 163 161
3250.0 156 169 154 164 171 156 160 153 158 153
3290.0 156 178 161 171 164 158 144 173 172 166
3330.0 166 174 152 171 173 183 174 178 178 178
3370.0 194 192 171 180 197 175 209 183 200 195
3410.0 183 195 196 206 205 181 193 191 190 196
3450.0 184 196 193 191 173 188 199 213 221 234
3490.0 216 240 212 209 220 208 214 183 193 194
3530.0 200 174 181 161 213 191 176 171 188 229
3570.0 231 153 228 143 288 171 257 140 239 142
3610.0 265 258 193 251 169 283 222 164 135 293
3650.0 151 380 21 305 63 294 230 273 214 115
3690.0 376 102 261 171 175 239 251 162 256 207
3730.0 256 287 254 326 240 481 222 324 179 274
3770.0 236 277 228 238 249 214 224 342 234 451
3810.0 88 430 157 434 209 300 253 352 272 210
3850.0 327 282 412 127 340 300 184 295 222 290
3890.0 283 200 299 248 344 187 228 215 209 252
3930.0 196 253 132 174 286 217 209 199 187 171
##END=
