##TITLE=Salicylaldehyde, 5-nitro-, di-propyl hydrazone
##JCAMP-DX=4.24
##DATA TYPE=INFRARED SPECTRUM
##ORIGIN=Sadtler Research Labs Under US-EPA Contract
##OWNER=NIST Standard Reference Data Program
##CAS REGISTRY NO=70289-42-8
##MOLFORM=C 13 H 19 N 3 O 3
##XUNITS=1/CM
##YUNITS=ABSORBANCE
##XFACTOR=1.0
##YFACTOR=0.000053802
##DELTAX=4.0
##FIRSTX=450.0
##LASTX=3966.0
##FIRSTY=0.003121
##MAXX=3966
##MINX=450
##MAXY=0.53802
##MINY=0
##NPOINTS=880
##XYDATA=(X++(Y..Y))
450.0 58 77 171 112 152 225 192 152 168 202
490.0 239 93 121 104 36 49 157 169 132 177
530.0 185 171 98 101 93 151 80 28 6 33
570.0 58 68 11 59 86 67 72 53 129 96
610.0 84 70 75 84 136 204 363 689 820 716
650.0 537 345 298 369 450 673 721 757 808 764
690.0 658 489 383 307 292 301 386 479 565 544
730.0 406 370 435 699 1138 1460 1300 988 745 517
770.0 379 317 298 312 364 425 404 336 267 282
810.0 336 449 620 902 1176 1335 1287 1008 715 505
850.0 354 295 260 243 255 274 308 347 403 464
890.0 561 676 899 1125 1269 1283 1132 972 748 503
930.0 394 345 312 386 441 394 302 281 327 380
970.0 326 295 312 305 310 332 346 358 397 451
1010.0 508 559 600 660 710 765 829 848 831 850
1050.0 856 995 1140 1367 1660 1947 2266 2507 2691 2774
1090.0 2899 3060 2809 2303 1826 1548 1499 1580 1798 1943
1130.0 2062 2137 2207 2201 2188 2150 2116 2041 1933 1790
1170.0 1688 1666 1760 1826 1835 1788 1744 1700 1657 1627
1210.0 1625 1669 1748 1813 1900 1999 2115 2202 2229 2177
1250.0 2175 2305 2528 2794 3124 3594 4179 4867 5400 5579
1290.0 5395 5169 4989 4712 4404 4165 4170 4335 4597 4937
1330.0 5529 6674 8255 9530 10000 9564 7688 5531 3864 2799
1370.0 2240 2078 1993 2012 2001 1916 1716 1530 1359 1323
1410.0 1322 1421 1613 1839 2069 2282 2480 2727 2894 3089
1450.0 3338 3571 3889 4064 4249 4534 4636 4778 4822 4886
1490.0 4505 3967 3406 2888 2553 2499 2434 2627 2819 2946
1530.0 3016 3096 3229 3420 3671 3659 3564 3219 2870 2590
1570.0 2508 2542 2781 3022 3255 3317 3068 2709 2335 2105
1610.0 2009 2036 1995 1924 1831 1678 1488 1304 1110 989
1650.0 699 609 454 381 379 382 328 337 269 281
1690.0 151 145 150 205 147 140 180 186 189 177
1730.0 230 248 254 220 219 254 230 227 238 255
1770.0 232 218 153 181 130 165 123 142 156 127
1810.0 95 118 102 75 105 60 77 33 78 75
1850.0 64 36 58 46 60 81 53 65 69 80
1890.0 91 102 102 110 108 98 103 102 104 84
1930.0 76 69 73 80 72 62 59 63 58 62
1970.0 62 58 57 62 64 78 75 69 63 64
2010.0 63 71 74 76 71 76 82 90 86 91
2050.0 80 76 76 79 79 81 73 75 76 72
2090.0 71 72 66 69 74 75 70 80 75 72
2130.0 73 73 70 67 68 68 73 75 78 86
2170.0 85 93 102 108 113 129 141 160 189 229
2210.0 284 336 370 391 423 439 393 290 229 184
2250.0 155 131 124 105 99 99 96 111 108 121
2290.0 123 131 139 143 159 156 152 132 144 122
2330.0 121 109 106 122 145 138 168 140 131 114
2370.0 117 107 126 137 113 78 71 68 68 65
2410.0 66 70 64 62 63 58 59 55 49 44
2450.0 40 31 33 30 20 21 21 14 17 11
2490.0 14 20 26 28 31 33 31 42 38 38
2530.0 31 32 29 30 24 16 21 24 29 30
2570.0 25 20 24 21 23 23 21 18 16 11
2610.0 2 3 10 4 10 14 28 37 47 52
2650.0 62 67 65 69 65 67 61 66 71 78
2690.0 84 98 102 114 126 142 156 171 185 201
2730.0 215 231 246 262 267 281 297 305 319 351
2770.0 389 434 501 575 676 800 942 1106 1266 1425
2810.0 1576 1687 1774 1828 1854 1866 1859 1855 1853 1878
2850.0 1930 2024 2148 2287 2458 2679 2975 3257 3437 3504
2890.0 3491 3373 3188 3095 3116 3230 3427 3722 4071 4503
2930.0 4932 5333 5593 5626 5514 5366 5276 5340 5693 6193
2970.0 6507 6309 5751 4837 3732 2776 2068 1576 1231 984
3010.0 801 673 568 487 436 389 367 344 335 325
3050.0 314 312 318 326 344 370 381 397 403 401
3090.0 399 397 379 365 338 312 295 281 267 251
3130.0 237 237 229 229 214 215 208 206 208 215
3170.0 210 212 208 207 205 201 207 200 194 187
3210.0 180 170 154 151 145 139 132 117 104 102
3250.0 90 81 82 68 65 63 52 45 40 35
3290.0 37 34 28 28 25 23 16 20 18 32
3330.0 32 36 37 39 45 36 35 39 37 35
3370.0 45 41 36 36 34 33 43 45 25 40
3410.0 25 37 31 33 41 34 34 41 48 48
3450.0 46 46 50 62 55 51 54 47 65 49
3490.0 55 60 43 81 57 58 67 32 80 79
3530.0 67 58 72 77 100 83 102 97 220 391
3570.0 541 563 528 373 202 168 100 40 77 35
3610.0 77 42 53 31 29 112 47 89 78 97
3650.0 111 72 84 27 35 31 32 39 38 53
3690.0 47 53 39 42 38 33 27 34 20 79
3730.0 21 35 32 65 35 20 28 10 25 19
3770.0 6 9 3 14 19 14 21 0 8 0
3810.0 23 6 3 24 2 4 17 12 9 32
3850.0 13 35 30 13 35 12 3 15 40 24
3890.0 34 6 38 58 63 31 22 45 48 18
3930.0 36 46 10 17 40 24 26 11 19 57
##END=
