##TITLE=3-Heptanone, 4-(3,4-dimethoxyphenyl)-,
##JCAMP-DX=4.24
##DATA TYPE=INFRARED SPECTRUM
##ORIGIN=Sadtler Research Labs Under US-EPA Contract
##OWNER=NIST Standard Reference Data Program
##CAS REGISTRY NO=70289-08-6
##MOLFORM=C 15 H 22 O 3
##XUNITS=1/CM
##YUNITS=ABSORBANCE
##XFACTOR=1.0
##YFACTOR=0.000081042
##DELTAX=4.0
##FIRSTX=450.0
##LASTX=3966.0
##FIRSTY=0.054055
##MAXX=3966
##MINX=450
##MAXY=0.81042
##MINY=0
##NPOINTS=880
##XYDATA=(X++(Y..Y))
450.0 667 542 504 102 259 172 88 171 401 253
490.0 412 146 105 27 8 337 419 245 275 409
530.0 304 278 165 19 136 274 261 206 320 446
570.0 291 434 265 352 330 296 378 324 437 336
610.0 238 281 438 289 282 228 374 426 531 503
650.0 426 461 368 486 256 336 220 402 316 157
690.0 199 243 253 245 204 225 211 266 283 362
730.0 359 376 488 583 665 782 861 1011 1017 966
770.0 729 601 460 439 511 644 743 965 1107 1166
810.0 1178 1158 1131 1050 870 734 574 540 531 579
850.0 606 587 640 570 518 534 524 513 552 532
890.0 506 448 392 360 327 358 316 387 395 410
930.0 498 621 641 649 660 615 600 551 578 592
970.0 621 648 716 800 868 926 944 1009 1197 1475
1010.0 1869 2491 3207 3830 4377 4678 4750 4452 3810 2865
1050.0 2094 1457 1127 951 828 803 787 822 882 910
1090.0 977 1038 1148 1275 1434 1537 1769 2151 2611 3069
1130.0 3390 3560 3584 3479 3352 3255 3188 3100 2817 2390
1170.0 1930 1600 1434 1363 1267 1189 1094 1095 1186 1363
1210.0 1672 2054 2510 3005 3484 3944 4289 4556 4612 4609
1250.0 4673 4925 5595 6727 8135 9278 9605 8900 7419 5889
1290.0 4568 3620 3004 2584 2270 2037 1850 1752 1731 1709
1330.0 1703 1682 1666 1655 1609 1512 1335 1152 999 837
1370.0 796 756 869 1004 997 946 808 789 932 1170
1410.0 1635 2075 2281 2043 1655 1405 1322 1642 1932 2139
1450.0 2232 2330 2565 3021 3224 3377 2823 2226 1937 1918
1490.0 2360 3061 4622 6450 8462 10000 8747 7267 4714 2948
1530.0 1913 1283 1020 729 665 603 557 584 568 698
1570.0 844 1030 1252 1420 1454 1342 1295 1161 1186 1159
1610.0 988 853 556 467 356 321 285 248 234 270
1650.0 210 249 276 278 310 317 342 390 448 448
1690.0 571 643 769 957 1242 1784 2460 3877 5152 5548
1730.0 4888 2835 1610 970 744 623 537 484 406 344
1770.0 279 224 206 176 169 127 142 103 109 109
1810.0 94 101 89 99 85 88 83 91 87 76
1850.0 95 92 97 95 97 85 82 88 69 77
1890.0 64 62 65 57 59 58 52 60 42 55
1930.0 48 50 55 44 62 50 66 62 68 69
1970.0 70 70 79 75 80 76 82 95 101 112
2010.0 120 134 151 164 178 189 184 176 166 156
2050.0 146 140 136 126 130 126 115 111 97 86
2090.0 72 60 52 45 43 36 29 32 27 28
2130.0 26 17 20 18 23 23 22 33 33 35
2170.0 34 34 38 39 37 40 32 38 33 30
2210.0 28 24 26 19 28 27 23 30 28 33
2250.0 34 35 45 45 48 47 49 51 44 47
2290.0 47 44 55 52 57 66 54 75 71 72
2330.0 90 72 100 69 107 55 138 92 160 137
2370.0 82 72 38 30 18 4 10 9 16 17
2410.0 15 16 10 9 10 11 9 6 0 4
2450.0 4 3 4 6 7 6 9 11 13 14
2490.0 16 16 22 21 23 20 24 28 30 36
2530.0 39 44 50 52 54 59 63 61 65 68
2570.0 64 67 70 64 72 79 67 55 65 56
2610.0 58 50 45 40 40 44 41 38 40 33
2650.0 36 39 36 34 32 36 33 34 41 45
2690.0 43 42 42 44 51 57 58 65 67 72
2730.0 82 90 99 112 124 123 119 116 116 114
2770.0 123 127 140 151 171 185 205 226 256 289
2810.0 333 393 476 575 712 924 1261 1695 2036 2037
2850.0 1740 1427 1258 1227 1285 1409 1620 1942 2347 2604
2890.0 2623 2502 2371 2336 2396 2535 2700 2824 2911 3033
2930.0 3302 3740 4337 4945 5222 5110 4731 4308 4257 4605
2970.0 5098 5283 4966 4356 3735 3199 2765 2537 2628 2779
3010.0 2656 2113 1482 1100 925 872 868 846 830 781
3050.0 737 716 685 667 615 566 518 470 422 368
3090.0 341 307 277 259 237 218 210 194 186 173
3130.0 154 145 131 123 113 106 102 90 92 86
3170.0 84 93 80 75 68 67 69 63 57 58
3210.0 53 49 45 44 47 40 46 35 42 47
3250.0 35 45 41 38 42 35 34 36 33 39
3290.0 31 30 30 46 36 43 44 34 32 32
3330.0 33 40 50 52 46 40 47 49 46 44
3370.0 47 48 55 55 50 59 64 69 62 73
3410.0 80 95 111 113 108 117 112 112 99 77
3450.0 66 58 58 53 61 57 58 56 50 57
3490.0 61 48 56 52 46 53 55 56 60 57
3530.0 45 58 51 51 49 49 56 49 69 71
3570.0 56 68 61 94 69 107 65 88 45 81
3610.0 51 57 83 45 94 41 55 65 67 33
3650.0 117 0 103 32 102 71 71 89 52 123
3690.0 29 104 49 89 78 68 43 74 56 100
3730.0 73 86 100 41 142 1 114 26 104 72
3770.0 76 84 70 74 83 75 97 41 124 33
3810.0 112 39 117 36 90 76 74 66 87 77
3850.0 95 55 76 106 83 102 76 89 73 87
3890.0 69 95 40 82 70 81 106 73 83 92
3930.0 120 75 92 72 76 100 104 90 78 89
##END=
