##TITLE=Benzylamine, N-octyl-N-pentyl-,
##JCAMP-DX=4.24
##DATA TYPE=INFRARED SPECTRUM
##ORIGIN=Sadtler Research Labs Under US-EPA Contract
##OWNER=NIST Standard Reference Data Program
##CAS REGISTRY NO=70289-19-9
##MOLFORM=C 20 H 35 N
##XUNITS=1/CM
##YUNITS=ABSORBANCE
##XFACTOR=1.0
##YFACTOR=0.000129721
##DELTAX=4.0
##FIRSTX=450.0
##LASTX=3966.0
##FIRSTY=0.022182
##MAXX=3966
##MINX=450
##MAXY=1.29721
##MINY=0
##NPOINTS=880
##XYDATA=(X++(Y..Y))
450.0 171 112 74 100 127 13 90 85 143 31
490.0 49 106 40 81 68 98 94 75 97 80
530.0 66 74 85 54 55 62 76 71 53 44
570.0 114 58 29 99 77 121 57 92 165 122
610.0 150 163 149 149 118 90 79 74 124 57
650.0 76 75 86 129 125 253 150 210 261 404
690.0 654 1193 1486 1278 1006 817 826 885 959 1077
730.0 1321 1452 1390 1105 656 479 459 373 308 301
770.0 284 267 213 187 138 175 141 108 165 166
810.0 200 206 209 174 185 158 173 210 159 188
850.0 206 181 177 193 173 154 183 173 178 205
890.0 186 231 246 275 299 283 252 224 195 222
930.0 200 237 261 262 276 279 328 370 379 396
970.0 410 381 352 348 355 352 338 358 337 327
1010.0 341 359 411 545 699 726 576 500 502 509
1050.0 526 597 625 690 774 827 832 859 917 952
1090.0 1018 987 982 916 835 748 650 563 543 492
1130.0 535 545 616 685 743 773 728 702 644 597
1170.0 575 532 522 513 501 496 498 511 502 465
1210.0 438 407 405 426 418 414 415 439 464 485
1250.0 513 507 509 492 469 477 479 496 518 549
1290.0 563 555 576 591 589 598 589 559 556 568
1330.0 589 619 687 767 848 890 950 999 1047 1055
1370.0 1013 898 875 817 733 607 465 412 323 308
1410.0 310 267 343 306 348 398 411 579 702 865
1450.0 1121 1385 1378 1445 1304 1224 960 730 615 571
1490.0 652 742 710 472 333 274 207 192 153 115
1530.0 150 80 163 46 108 100 89 130 56 96
1570.0 101 79 141 105 159 137 212 212 246 236
1610.0 139 160 74 116 101 88 116 133 97 137
1650.0 138 102 162 99 164 113 164 88 155 101
1690.0 178 210 293 389 421 422 344 303 214 190
1730.0 209 147 186 119 160 157 186 189 178 186
1770.0 193 175 124 129 121 100 144 120 146 104
1810.0 79 69 45 54 23 50 13 39 16 36
1850.0 19 23 37 46 53 60 51 47 43 45
1890.0 27 27 20 21 9 26 12 32 20 33
1930.0 38 58 83 85 80 62 64 62 33 27
1970.0 12 17 11 11 16 11 11 6 6 8
2010.0 11 11 12 12 12 7 15 13 14 11
2050.0 8 10 6 6 9 5 6 5 4 3
2090.0 4 4 4 1 0 1 4 3 2 3
2130.0 4 5 5 6 6 8 8 10 13 13
2170.0 14 13 14 15 16 15 17 14 13 14
2210.0 14 15 16 17 16 17 15 17 19 20
2250.0 21 21 22 25 24 23 23 26 25 25
2290.0 32 25 37 42 44 59 62 70 67 84
2330.0 83 73 111 32 126 31 139 68 125 89
2370.0 77 64 54 48 40 37 36 39 40 42
2410.0 42 42 43 45 42 40 42 40 42 43
2450.0 41 42 39 44 42 42 44 43 46 42
2490.0 46 48 46 51 54 51 57 57 61 63
2530.0 65 67 71 73 79 80 83 86 91 95
2570.0 99 101 109 113 120 126 126 133 139 142
2610.0 146 149 150 159 159 168 172 176 184 193
2650.0 204 211 224 238 246 257 268 281 293 307
2690.0 321 330 345 365 385 403 420 435 454 467
2730.0 488 513 538 569 586 602 624 645 677 713
2770.0 760 821 908 1035 1226 1499 1810 2095 2292 2320
2810.0 2212 2064 1926 1810 1712 1630 1572 1550 1588 1721
2850.0 2010 2535 3286 3961 4179 4001 3640 3372 3301 3242
2890.0 3058 2945 3024 3294 3672 4154 4713 5446 6508 7850
2930.0 9223 10000 9760 9165 8041 6852 5925 5488 5568 5797
2970.0 5532 4447 3113 2200 1654 1318 1099 952 851 781
3010.0 735 711 727 817 990 1176 1218 1073 886 733
3050.0 648 632 687 819 1041 1240 1177 908 746 719
3090.0 679 573 448 378 340 308 279 243 212 185
3130.0 168 167 159 157 149 145 150 143 148 146
3170.0 144 145 132 127 127 126 122 120 114 114
3210.0 114 112 103 101 103 97 97 97 94 94
3250.0 91 94 90 89 86 81 83 83 86 87
3290.0 81 86 76 81 86 79 84 82 80 80
3330.0 79 84 78 87 79 81 83 84 79 83
3370.0 81 90 87 89 88 87 85 80 85 92
3410.0 92 92 81 86 82 81 94 92 96 96
3450.0 79 94 94 81 89 91 91 90 98 90
3490.0 96 81 86 73 96 69 95 85 89 92
3530.0 78 74 89 92 94 72 105 66 126 64
3570.0 109 112 152 142 135 119 109 128 88 121
3610.0 81 98 81 117 89 126 77 163 117 134
3650.0 87 123 101 94 159 28 187 19 166 111
3690.0 89 125 93 138 106 103 120 87 136 77
3730.0 133 116 55 194 28 186 13 140 87 107
3770.0 142 84 158 130 106 165 92 138 100 100
3810.0 144 94 139 55 151 103 135 116 81 172
3850.0 49 161 35 175 94 77 160 82 164 84
3890.0 149 98 164 85 87 169 96 140 90 166
3930.0 103 113 118 141 112 129 145 118 125 150
##END=
