##TITLE=Succinimide, N-(3-quinolylaminomethyl)-,
##JCAMP-DX=4.24
##DATA TYPE=INFRARED SPECTRUM
##ORIGIN=Sadtler Research Labs Under US-EPA Contract
##OWNER=NIST Standard Reference Data Program
##CAS REGISTRY NO=70289-23-5
##MOLFORM=C 14 H 13 N 3 O 2
##XUNITS=1/CM
##YUNITS=ABSORBANCE
##XFACTOR=1.0
##YFACTOR=0.000123770
##DELTAX=4.0
##FIRSTX=450.0
##LASTX=3966.0
##FIRSTY=0.057306
##MAXX=3966
##MINX=450
##MAXY=1.2377
##MINY=0
##NPOINTS=880
##XYDATA=(X++(Y..Y))
450.0 463 343 367 192 190 351 281 252 112 116
490.0 78 85 116 86 159 88 127 119 171 211
530.0 194 292 250 251 271 312 349 263 175 124
570.0 158 181 208 239 250 307 414 427 539 740
610.0 802 800 821 786 891 1078 1265 1539 1671 1708
650.0 1820 1744 1575 1362 1219 1018 900 755 689 577
690.0 489 350 263 302 291 270 302 281 347 343
730.0 373 602 419 648 992 1052 678 636 441 366
770.0 308 345 490 407 303 250 146 145 142 134
810.0 155 129 157 235 188 210 268 270 310 370
850.0 376 276 264 284 308 401 488 548 609 612
890.0 606 595 573 513 417 323 266 218 195 173
930.0 167 158 132 118 125 123 123 103 103 127
970.0 143 165 175 195 181 121 104 84 73 102
1010.0 128 119 122 82 46 53 3 29 59 36
1050.0 41 74 82 84 111 143 159 162 189 189
1090.0 192 211 235 249 291 360 534 663 925 1232
1130.0 1470 1815 2216 2708 3017 2925 2976 2633 2372 2062
1170.0 1517 1041 833 748 697 696 622 612 645 693
1210.0 783 945 1012 967 942 801 734 646 524 478
1250.0 461 435 396 419 495 613 793 1036 1197 1274
1290.0 1261 1141 984 909 941 949 1081 1351 1694 2027
1330.0 2263 2469 2569 2434 2270 1916 1483 1105 848 708
1370.0 576 527 485 421 406 343 308 251 236 226
1410.0 197 236 253 321 421 599 716 665 553 461
1450.0 376 350 373 366 374 344 346 343 363 399
1490.0 434 457 453 406 368 336 245 256 208 200
1530.0 154 183 161 200 182 170 216 221 299 254
1570.0 263 301 290 298 315 374 448 490 577 613
1610.0 679 739 822 896 913 931 820 658 521 376
1650.0 326 270 213 167 177 199 200 233 261 374
1690.0 433 611 860 1123 1382 1542 1728 1797 1761 1787
1730.0 1811 2022 2291 2630 3212 4038 5049 6082 7280 8876
1770.0 9766 10000 9739 8805 8074 7360 5240 3033 1828 1307
1810.0 1190 1067 999 947 844 690 519 385 285 205
1850.0 167 119 102 98 88 92 96 85 93 82
1890.0 86 85 89 87 82 87 87 89 95 79
1930.0 94 93 100 110 103 99 77 63 59 50
1970.0 49 44 41 40 37 38 30 28 34 22
2010.0 27 21 15 20 17 21 19 17 25 23
2050.0 22 24 26 31 23 28 24 16 15 15
2090.0 17 14 13 13 9 14 17 16 19 14
2130.0 15 13 16 20 13 17 17 16 25 24
2170.0 25 23 16 20 16 16 18 18 23 16
2210.0 20 19 21 29 25 27 27 29 26 24
2250.0 25 23 24 25 24 26 24 26 31 29
2290.0 30 33 35 37 32 30 31 19 25 24
2330.0 24 24 17 35 29 38 38 26 26 21
2370.0 27 25 33 34 28 27 20 18 21 19
2410.0 21 19 17 19 17 17 20 16 21 23
2450.0 19 21 24 28 25 28 31 29 32 24
2490.0 22 26 16 14 11 8 9 4 5 1
2530.0 0 0 2 5 4 5 7 8 14 14
2570.0 19 16 14 15 15 18 20 18 21 25
2610.0 22 23 21 28 23 24 22 21 26 23
2650.0 20 27 27 28 24 27 27 22 24 21
2690.0 20 16 10 14 14 13 13 13 19 21
2730.0 17 22 21 24 22 24 24 21 24 23
2770.0 22 28 24 29 26 23 29 26 31 38
2810.0 35 41 45 44 43 50 57 63 63 65
2850.0 65 65 68 67 66 58 62 65 63 67
2890.0 67 68 67 69 68 68 73 79 81 89
2930.0 94 116 140 180 222 255 269 277 281 277
2970.0 283 264 237 235 262 310 391 416 407 398
3010.0 383 351 322 308 308 314 313 314 305 303
3050.0 305 320 334 349 380 392 366 350 331 283
3090.0 236 195 152 117 92 70 59 59 54 60
3130.0 62 68 55 54 56 50 56 51 48 48
3170.0 52 52 45 51 50 49 56 62 60 68
3210.0 62 70 58 58 62 70 73 68 68 64
3250.0 67 63 55 57 61 57 61 54 58 57
3290.0 61 64 60 63 67 65 66 63 70 76
3330.0 64 73 73 70 72 86 84 85 84 88
3370.0 99 102 98 97 111 111 133 149 174 189
3410.0 200 211 217 227 253 299 362 439 563 689
3450.0 806 863 825 742 762 757 612 430 314 226
3490.0 177 147 115 104 85 86 81 77 75 69
3530.0 70 76 79 91 91 101 89 93 86 82
3570.0 86 88 73 64 57 47 51 36 39 23
3610.0 43 24 27 15 30 23 32 7 15 16
3650.0 33 25 20 19 0 37 28 48 17 18
3690.0 18 11 26 18 17 15 23 28 2 17
3730.0 17 29 53 14 56 23 57 19 35 9
3770.0 30 29 15 20 18 6 28 27 45 49
3810.0 10 33 33 36 32 44 27 42 32 16
3850.0 47 39 55 13 29 41 0 31 25 29
3890.0 4 38 9 31 20 41 42 18 24 0
3930.0 50 25 42 13 46 40 43 37 40 16
##END=
