##TITLE=Epoxyanthracene, 1,4,4a,9,9a,10-hexahydro-2,3,9-trimethyl-9,10-,
##JCAMP-DX=4.24
##DATA TYPE=INFRARED SPECTRUM
##ORIGIN=Sadtler Research Labs Under US-EPA Contract
##OWNER=NIST Standard Reference Data Program
##CAS REGISTRY NO=70289-24-6
##MOLFORM=C 17 H 20 O
##XUNITS=1/CM
##YUNITS=ABSORBANCE
##XFACTOR=1.0
##YFACTOR=0.000055569
##DELTAX=4.0
##FIRSTX=450.0
##LASTX=3966.0
##FIRSTY=0.000000
##MAXX=3966
##MINX=450
##MAXY=0.55569
##MINY=0
##NPOINTS=880
##XYDATA=(X++(Y..Y))
450.0 0 699 408 836 807 956 870 630 984 689
490.0 555 812 641 771 602 585 636 635 736 649
530.0 734 899 1274 1788 1582 1390 1214 1068 937 724
570.0 716 576 566 701 567 626 581 602 674 587
610.0 541 573 565 639 578 663 1144 1579 1833 1991
650.0 2494 2594 2058 1134 852 629 656 443 561 567
690.0 544 591 480 543 575 582 573 574 742 913
730.0 1060 1745 2845 4512 5484 5413 3483 2142 1522 1239
770.0 1005 669 500 524 457 430 366 403 490 368
810.0 547 467 431 522 660 778 980 1171 1237 1247
850.0 1015 874 1049 1383 1564 1460 1295 1011 940 878
890.0 796 700 538 524 449 507 583 697 793 845
930.0 799 733 719 685 666 634 631 617 772 922
970.0 1211 1608 2195 2578 2449 1874 1255 896 790 802
1010.0 931 801 646 568 505 466 479 559 618 561
1050.0 642 708 688 661 649 626 613 729 910 1019
1090.0 1007 842 628 454 406 355 528 590 648 632
1130.0 595 606 587 618 697 752 844 806 815 994
1170.0 1314 1218 876 659 757 720 522 732 652 715
1210.0 778 734 628 536 515 624 569 470 549 638
1250.0 687 900 1033 1071 919 864 947 996 1091 1055
1290.0 921 704 621 584 592 617 569 597 687 820
1330.0 862 884 891 1042 1127 1100 934 794 714 732
1370.0 860 1152 1675 2328 2794 2479 1838 1152 754 706
1410.0 652 590 630 704 784 833 987 1168 1361 1567
1450.0 1842 2017 2148 2126 1811 1408 992 659 563 590
1490.0 540 569 524 474 553 520 454 424 305 336
1530.0 338 320 327 328 415 424 482 478 467 519
1570.0 513 515 531 431 443 445 412 496 524 571
1610.0 594 576 535 520 514 465 450 393 406 416
1650.0 333 372 383 437 406 428 517 510 521 480
1690.0 492 489 491 494 527 561 568 541 534 551
1730.0 541 524 472 464 484 474 489 531 520 537
1770.0 542 537 551 569 595 601 651 636 617 560
1810.0 499 471 446 435 430 440 444 416 421 394
1850.0 412 420 426 403 384 376 365 404 410 449
1890.0 473 517 503 493 445 415 408 403 409 425
1930.0 458 529 537 507 427 375 381 370 363 362
1970.0 351 357 352 345 338 343 345 348 355 338
2010.0 339 341 353 351 343 341 342 355 357 342
2050.0 338 346 349 342 349 344 339 348 347 354
2090.0 349 346 344 339 347 349 346 359 353 350
2130.0 347 350 358 356 363 349 359 361 351 351
2170.0 341 351 357 352 354 345 346 357 356 360
2210.0 348 356 354 355 349 347 349 355 348 353
2250.0 353 352 357 361 364 362 358 366 371 363
2290.0 364 375 389 392 410 415 413 413 403 396
2330.0 381 383 404 380 394 406 418 406 390 400
2370.0 372 365 387 390 395 383 368 371 371 377
2410.0 372 368 372 373 377 368 374 372 382 386
2450.0 379 378 384 382 383 384 382 386 373 377
2490.0 376 370 374 376 380 380 379 385 382 382
2530.0 374 377 375 374 376 376 369 377 376 377
2570.0 378 368 381 380 386 390 376 375 375 384
2610.0 389 386 379 386 391 402 406 411 418 423
2650.0 423 415 422 422 424 423 411 430 418 424
2690.0 423 420 429 435 444 454 463 470 478 511
2730.0 530 544 553 578 574 577 555 543 538 533
2770.0 530 534 542 543 583 613 625 651 691 750
2810.0 810 880 951 1052 1188 1387 1674 2052 2448 2852
2850.0 3289 3530 3621 3699 3850 3934 3788 3515 3241 3051
2890.0 2951 2888 2895 2990 3227 3641 4257 5125 6106 7196
2930.0 8599 9773 10000 8809 6488 4220 2749 2037 1799 1792
2970.0 1985 2381 3018 3886 4894 5957 6269 5189 3556 2424
3010.0 2008 1956 2030 2238 2449 2540 2396 2107 1905 1888
3050.0 2021 2131 2198 2288 2471 2736 2905 2787 2417 1928
3090.0 1509 1205 949 759 664 613 555 537 517 509
3130.0 509 508 492 480 484 489 474 472 465 471
3170.0 479 480 475 467 448 455 443 425 424 421
3210.0 428 426 419 412 411 413 411 410 403 379
3250.0 403 401 382 375 378 406 389 395 379 379
3290.0 393 389 387 383 381 356 362 345 356 353
3330.0 383 379 362 354 344 366 369 372 361 360
3370.0 371 375 379 383 360 368 372 364 370 357
3410.0 352 355 362 351 343 354 369 372 350 358
3450.0 360 347 364 366 346 359 360 372 370 358
3490.0 358 361 353 374 366 358 367 349 370 389
3530.0 373 364 387 368 380 374 374 376 381 400
3570.0 383 393 409 418 432 435 418 464 428 427
3610.0 416 412 412 383 418 402 415 427 431 436
3650.0 429 394 439 413 430 402 390 389 406 428
3690.0 355 392 444 420 420 398 368 419 413 426
3730.0 392 400 437 402 406 342 398 364 415 413
3770.0 398 391 398 413 412 406 384 345 407 389
3810.0 385 318 383 362 384 406 368 347 423 419
3850.0 411 346 319 460 385 314 353 345 402 379
3890.0 376 381 417 469 420 357 382 396 460 349
3930.0 343 326 297 392 398 384 342 393 469 451
##END=
