##TITLE=Phosphonic diamide, p-(p-aminophenyl)-N,N'-diethyl
##JCAMP-DX=4.24
##DATA TYPE=INFRARED SPECTRUM
##ORIGIN=Sadtler Research Labs Under US-EPA Contract
##OWNER=NIST Standard Reference Data Program
##CAS REGISTRY NO=70289-05-3
##MOLFORM=C 10 H 18 N 3 O P
##XUNITS=1/CM
##YUNITS=ABSORBANCE
##XFACTOR=1.0
##YFACTOR=0.000126428
##DELTAX=4.0
##FIRSTX=450.0
##LASTX=3966.0
##FIRSTY=0.000000
##MAXX=3966
##MINX=450
##MAXY=1.26428
##MINY=0
##NPOINTS=880
##XYDATA=(X++(Y..Y))
450.0 0 211 718 491 383 332 302 391 424 396
490.0 454 359 496 289 331 345 381 421 367 492
530.0 377 294 368 422 467 455 514 384 222 422
570.0 240 245 383 360 336 371 368 403 299 330
610.0 319 326 383 321 330 343 330 340 374 367
650.0 338 316 331 379 315 298 392 413 369 434
690.0 355 291 462 407 419 350 395 420 411 405
730.0 349 438 416 461 461 441 488 489 480 471
770.0 529 498 530 481 480 472 480 481 444 427
810.0 447 420 412 404 443 419 395 440 398 443
850.0 438 455 483 480 504 485 519 550 545 577
890.0 605 611 641 629 675 680 682 665 586 593
930.0 605 681 781 885 1073 1334 1594 1887 2084 2246
970.0 2239 2066 1824 1517 1281 1049 909 792 739 697
1010.0 661 659 676 662 651 678 664 686 723 760
1050.0 792 831 819 795 800 799 767 798 768 761
1090.0 746 708 693 670 632 588 600 607 573 577
1130.0 587 566 583 565 558 555 542 546 524 524
1170.0 530 529 536 520 521 521 517 507 512 511
1210.0 520 514 526 520 524 544 548 560 579 592
1250.0 604 602 597 597 604 629 636 634 633 652
1290.0 676 692 723 720 699 682 653 658 667 680
1330.0 725 771 821 837 838 820 785 765 762 767
1370.0 797 851 924 953 964 937 843 740 656 607
1410.0 585 576 600 627 666 743 825 945 1071 1175
1450.0 1318 1415 1481 1560 1504 1390 1266 1081 912 752
1490.0 645 559 483 429 391 366 364 344 328 317
1530.0 319 305 293 290 290 296 282 280 275 285
1570.0 287 289 298 299 303 307 297 314 308 312
1610.0 316 315 333 346 381 410 438 456 462 440
1650.0 406 378 369 380 378 395 401 425 446 477
1690.0 536 579 628 660 712 720 691 684 689 658
1730.0 578 525 487 473 467 463 457 456 450 437
1770.0 424 409 398 382 374 361 353 343 336 316
1810.0 309 300 294 290 286 280 280 275 273 272
1850.0 275 275 260 264 256 254 250 247 247 244
1890.0 243 244 241 240 241 238 237 237 241 236
1930.0 236 234 235 235 236 232 235 233 233 236
1970.0 233 231 231 232 229 236 230 227 231 230
2010.0 233 234 233 235 238 240 240 238 241 240
2050.0 238 237 235 233 234 231 233 231 227 226
2090.0 226 225 222 227 227 225 224 224 225 226
2130.0 223 225 222 223 222 222 225 222 227 226
2170.0 228 227 225 229 227 227 228 226 229 227
2210.0 229 230 228 228 228 229 229 226 225 223
2250.0 227 225 223 223 224 222 222 222 221 217
2290.0 217 216 212 212 213 208 218 218 221 227
2330.0 232 236 241 243 230 233 239 233 234 236
2370.0 226 223 224 223 222 228 231 235 236 242
2410.0 240 236 236 233 228 229 228 227 225 224
2450.0 222 222 217 216 216 216 213 213 214 213
2490.0 217 219 216 218 220 224 226 228 230 231
2530.0 229 234 237 242 243 240 241 239 240 234
2570.0 237 239 238 238 244 241 246 247 250 252
2610.0 248 250 251 249 250 249 248 248 249 255
2650.0 257 260 262 262 271 278 280 282 281 280
2690.0 280 282 287 291 296 300 308 315 317 328
2730.0 341 356 365 371 375 365 358 357 348 348
2770.0 353 360 369 383 395 408 423 434 446 464
2810.0 484 513 552 599 675 764 901 1079 1303 1576
2850.0 1864 2151 2432 2681 2955 3204 3491 3955 4272 4282
2890.0 4251 4133 3895 3835 3965 4189 4477 4799 5224 5650
2930.0 6089 6579 6975 7167 7000 6825 6688 6677 7361 8842
2970.0 10000 9806 9242 7929 5865 4301 3365 2714 2261 1949
3010.0 1723 1574 1466 1380 1313 1236 1154 1059 956 859
3050.0 770 683 613 558 516 476 459 435 423 410
3090.0 393 380 374 363 353 339 332 326 320 315
3130.0 306 304 305 306 303 303 302 306 307 304
3170.0 299 300 300 294 284 285 280 273 264 258
3210.0 257 253 247 239 244 238 233 231 218 226
3250.0 218 217 219 218 213 221 218 217 214 216
3290.0 218 211 219 212 213 210 215 219 212 214
3330.0 211 223 219 215 215 220 219 218 219 224
3370.0 225 228 223 225 221 222 220 227 231 229
3410.0 228 230 228 232 236 219 227 225 221 226
3450.0 225 219 225 221 219 216 223 227 219 224
3490.0 215 218 226 229 225 216 217 219 218 222
3530.0 219 216 218 214 223 227 228 226 222 227
3570.0 236 230 255 237 244 246 239 242 233 239
3610.0 245 242 238 238 236 253 253 260 278 286
3650.0 294 284 275 268 261 253 236 238 230 234
3690.0 243 235 248 237 233 243 227 238 236 232
3730.0 242 233 239 231 228 220 230 226 229 226
3770.0 238 231 246 250 243 235 232 228 229 237
3810.0 238 234 239 227 221 245 238 231 224 228
3850.0 239 220 220 249 217 217 227 224 226 223
3890.0 240 231 231 217 222 230 241 222 217 243
3930.0 231 232 205 243 216 248 227 236 246 247
##END=
