##TITLE=Ethylamine, 1-(p-bromophenoxymethyl)-,
##JCAMP-DX=4.24
##DATA TYPE=INFRARED SPECTRUM
##ORIGIN=Sadtler Research Labs Under US-EPA Contract
##OWNER=NIST Standard Reference Data Program
##CAS REGISTRY NO=70289-30-4
##MOLFORM=C 9 H 12 Br N O
##XUNITS=1/CM
##YUNITS=ABSORBANCE
##XFACTOR=1.0
##YFACTOR=0.000168857
##DELTAX=4.0
##FIRSTX=450.0
##LASTX=3966.0
##FIRSTY=0.020769
##MAXX=3966
##MINX=450
##MAXY=1.68857
##MINY=0
##NPOINTS=880
##XYDATA=(X++(Y..Y))
450.0 123 156 27 29 179 168 152 236 249 319
490.0 398 506 448 281 332 226 330 207 235 162
530.0 106 170 61 84 105 51 129 98 151 113
570.0 78 56 59 70 93 124 170 253 322 373
610.0 340 310 269 272 357 450 631 754 701 500
650.0 297 203 193 175 194 235 225 169 184 202
690.0 204 213 213 238 255 261 247 287 330 356
730.0 418 477 542 670 756 615 674 667 698 746
770.0 779 856 954 974 1173 1250 1414 1598 1708 1793
810.0 1947 2138 2360 2531 2365 1954 1591 1207 890 677
850.0 479 370 343 317 335 253 237 157 66 55
890.0 10 66 20 26 57 72 67 64 71 109
930.0 138 162 180 175 187 183 167 155 112 109
970.0 119 159 193 249 396 583 799 1039 1487 1917
1010.0 1823 1388 1232 1412 1731 2073 2383 2458 2354 2026
1050.0 1577 1140 786 647 823 1281 1697 1546 841 488
1090.0 442 453 453 418 445 411 391 381 352 335
1130.0 322 335 375 416 470 541 650 837 1274 2140
1170.0 2708 2297 1637 1064 742 685 733 833 1018 1308
1210.0 1651 2089 2658 3375 4270 5348 6637 7632 8649 7161
1250.0 5275 3763 2949 2617 2414 2429 2773 3012 2959 2474
1290.0 1958 1556 1236 975 779 661 622 589 553 524
1330.0 488 430 399 366 356 358 372 369 374 383
1370.0 415 488 593 688 728 701 582 473 391 322
1410.0 311 316 355 389 385 375 296 339 347 447
1450.0 645 839 1365 1895 2038 2144 2074 2607 4213 7543
1490.0 10000 8982 4494 2154 1207 748 592 495 385 320
1530.0 230 209 175 136 179 176 176 226 265 401
1570.0 531 843 1188 1532 1716 1755 1868 1486 1256 999
1610.0 710 674 598 597 577 520 469 370 297 238
1650.0 174 175 116 99 92 79 82 70 38 53
1690.0 35 47 44 46 58 65 83 83 83 85
1730.0 66 66 90 82 85 41 41 26 17 26
1770.0 13 14 12 4 12 0 19 15 18 26
1810.0 10 26 14 23 31 26 37 38 46 51
1850.0 57 65 75 94 102 112 110 101 82 72
1890.0 57 50 40 29 25 20 20 20 18 20
1930.0 16 19 19 14 22 16 20 26 19 30
1970.0 28 28 32 32 36 37 40 44 40 44
2010.0 42 49 54 56 61 66 73 78 83 90
2050.0 91 91 93 91 93 92 89 85 81 73
2090.0 66 59 54 49 46 40 33 28 22 20
2130.0 20 18 18 17 17 16 14 14 11 10
2170.0 11 9 12 11 10 11 10 13 11 11
2210.0 12 11 12 11 10 12 11 10 10 17
2250.0 15 18 24 21 25 32 33 35 39 43
2290.0 46 46 52 51 53 49 49 44 39 36
2330.0 33 34 27 38 30 45 26 36 30 47
2370.0 44 42 52 57 53 52 51 57 59 60
2410.0 61 57 57 58 56 56 57 58 54 53
2450.0 51 53 56 57 58 63 64 69 65 63
2490.0 67 65 70 75 77 81 89 94 92 89
2530.0 84 76 72 67 63 60 58 58 57 54
2570.0 57 53 53 54 54 52 49 49 50 48
2610.0 48 49 48 48 47 48 48 50 53 55
2650.0 60 58 60 60 60 63 66 66 70 68
2690.0 73 72 73 73 72 77 76 81 87 88
2730.0 97 102 107 111 111 113 109 108 112 112
2770.0 116 118 116 119 120 122 130 135 147 159
2810.0 171 184 195 207 217 238 256 278 315 360
2850.0 413 484 563 648 741 828 904 967 1010 1023
2890.0 1005 967 938 939 957 993 1049 1110 1188 1267
2930.0 1329 1363 1365 1317 1240 1162 1129 1154 1266 1443
2970.0 1596 1662 1547 1335 1125 964 779 542 364 256
3010.0 208 179 163 162 171 199 239 283 318 322
3050.0 285 234 207 204 208 227 270 304 317 306
3090.0 303 321 331 310 262 196 145 109 90 77
3130.0 72 68 62 62 56 62 62 61 58 57
3170.0 55 55 58 58 58 58 57 57 55 52
3210.0 46 50 42 42 44 39 39 39 39 34
3250.0 33 35 31 34 32 29 32 29 32 31
3290.0 31 32 31 36 37 35 41 36 36 41
3330.0 53 59 64 76 76 74 63 51 50 39
3370.0 36 40 33 34 36 37 38 46 55 66
3410.0 73 75 69 53 43 38 42 35 35 30
3450.0 35 34 26 37 32 28 23 20 22 26
3490.0 23 24 15 27 19 24 19 21 23 25
3530.0 23 19 17 16 23 28 31 24 23 35
3570.0 23 29 21 13 22 17 42 10 39 21
3610.0 31 36 34 42 41 77 100 118 184 267
3650.0 356 400 327 293 168 100 70 55 44 26
3690.0 40 31 33 22 27 31 49 31 35 43
3730.0 36 35 30 40 36 46 36 40 24 29
3770.0 15 28 19 30 29 26 29 22 23 47
3810.0 21 36 21 52 33 32 38 47 26 30
3850.0 33 36 48 48 38 41 32 42 51 61
3890.0 53 31 60 60 60 48 53 54 50 39
3930.0 60 35 34 33 57 55 43 49 47 49
##END=
