##TITLE=1-Butanol, 4-dipropylamino-,
##JCAMP-DX=4.24
##DATA TYPE=INFRARED SPECTRUM
##ORIGIN=Sadtler Research Labs Under US-EPA Contract
##OWNER=NIST Standard Reference Data Program
##CAS REGISTRY NO=70289-17-7
##MOLFORM=C 10 H 23 N O
##XUNITS=1/CM
##YUNITS=ABSORBANCE
##XFACTOR=1.0
##YFACTOR=0.000112323
##DELTAX=4.0
##FIRSTX=450.0
##LASTX=3966.0
##FIRSTY=0.077278
##MAXX=3966
##MINX=450
##MAXY=1.12323
##MINY=0
##NPOINTS=880
##XYDATA=(X++(Y..Y))
450.0 688 327 233 93 161 44 40 135 119 189
490.0 135 48 87 96 186 185 178 149 139 67
530.0 169 204 48 121 125 80 110 102 53 119
570.0 92 66 96 127 59 68 62 22 9 39
610.0 54 6 59 49 136 48 46 62 40 69
650.0 78 92 52 108 103 148 106 61 82 117
690.0 118 144 119 139 111 149 155 184 194 227
730.0 185 322 218 153 163 328 206 214 205 137
770.0 162 169 161 155 125 128 147 165 167 200
810.0 215 227 264 306 318 351 331 346 337 308
850.0 340 334 325 341 331 321 373 391 444 456
890.0 504 506 461 465 457 477 548 530 496 517
930.0 496 475 463 471 481 485 500 535 548 580
970.0 644 702 779 819 909 973 1028 1167 1326 1462
1010.0 1681 1961 2181 2382 2581 2727 2844 2932 3014 3187
1050.0 3319 3570 3638 3677 3702 3685 3491 3273 2957 2660
1090.0 2375 2141 1894 1643 1380 1151 1036 910 832 782
1130.0 754 726 699 700 700 708 707 720 729 745
1170.0 739 801 903 1025 1188 1257 1242 1129 1003 902
1210.0 847 826 800 785 771 748 741 741 739 753
1250.0 783 833 873 936 973 989 1002 1018 1004 1017
1290.0 993 989 987 953 936 883 837 786 768 782
1330.0 831 904 999 1074 1151 1186 1197 1250 1330 1445
1370.0 1511 1625 1776 1823 1884 1680 1424 1158 908 784
1410.0 628 605 561 564 544 584 654 751 848 941
1450.0 1106 1325 1509 1771 1850 1827 1624 1267 931 671
1490.0 488 378 291 258 230 217 164 162 135 138
1530.0 119 117 115 118 91 70 83 83 96 64
1570.0 61 71 58 63 46 48 56 41 55 43
1610.0 44 44 52 58 44 60 50 64 65 64
1650.0 99 92 101 81 98 95 83 70 58 62
1690.0 48 52 71 96 87 89 91 95 91 78
1730.0 106 103 112 109 98 103 100 97 99 95
1770.0 88 82 68 59 48 53 50 56 36 40
1810.0 35 29 31 19 28 18 18 16 9 14
1850.0 3 11 8 5 7 5 11 8 11 9
1890.0 13 8 11 10 14 14 12 14 11 12
1930.0 12 11 14 12 9 13 10 9 10 10
1970.0 11 10 10 13 14 10 14 11 12 15
2010.0 16 20 19 19 21 19 22 19 23 24
2050.0 21 21 18 17 15 15 13 12 9 8
2090.0 4 6 6 5 6 2 5 5 6 7
2130.0 6 2 6 3 2 2 3 4 2 6
2170.0 8 6 8 10 12 12 10 11 11 12
2210.0 10 7 12 11 8 6 4 6 8 10
2250.0 8 8 7 8 11 11 10 12 11 14
2290.0 15 14 18 23 21 20 21 21 19 20
2330.0 14 11 20 11 30 22 30 23 15 16
2370.0 18 20 22 25 22 22 19 21 21 19
2410.0 21 20 19 18 16 12 12 16 15 13
2450.0 15 13 14 13 13 15 11 12 13 16
2490.0 18 20 19 21 21 25 28 32 32 35
2530.0 43 48 51 56 55 65 66 68 70 73
2570.0 77 82 85 91 98 105 110 117 126 132
2610.0 139 151 160 168 175 191 199 215 228 243
2650.0 261 272 290 308 338 363 377 395 416 431
2690.0 456 482 516 556 599 647 703 763 816 868
2730.0 927 982 1030 1060 1084 1106 1131 1179 1243 1328
2770.0 1427 1534 1655 1798 1989 2269 2662 3157 3641 4001
2810.0 4103 3971 3713 3376 3056 2776 2562 2430 2354 2337
2850.0 2371 2494 2711 3036 3491 4039 4666 5325 5759 5760
2890.0 5420 4979 4713 4734 4953 5273 5622 6022 6481 6981
2930.0 7544 8194 9040 9655 9800 9393 8850 8847 9502 10000
2970.0 9643 8270 6366 4667 3315 2326 1689 1309 1070 908
3010.0 790 704 632 572 522 482 438 401 359 327
3050.0 295 269 246 229 220 210 195 190 182 174
3090.0 174 163 160 157 151 146 140 129 127 128
3130.0 127 123 128 125 122 123 122 126 122 129
3170.0 134 132 134 135 138 149 145 151 151 162
3210.0 164 176 183 195 205 205 212 219 223 230
3250.0 227 223 225 219 227 218 214 204 203 203
3290.0 191 185 186 182 176 165 163 162 157 156
3330.0 151 147 139 141 135 128 126 118 116 109
3370.0 111 108 105 100 87 89 83 81 81 80
3410.0 75 72 67 69 60 57 63 60 54 55
3450.0 53 58 51 49 44 45 40 40 40 36
3490.0 33 29 23 13 15 15 21 10 14 5
3530.0 11 14 17 13 12 18 26 30 18 21
3570.0 21 12 15 9 26 10 18 4 14 14
3610.0 14 19 22 37 37 71 76 86 119 182
3650.0 244 378 437 544 581 637 602 517 381 242
3690.0 192 98 62 40 24 26 5 2 2 2
3730.0 2 2 2 2 0 5 2 2 2 2
3770.0 2 2 2 2 2 2 2 2 2 2
3810.0 2 11 2 2 2 2 2 2 2 2
3850.0 3 2 9 2 2 2 2 2 2 2
3890.0 2 2 2 2 2 2 2 2 2 2
3930.0 2 2 2 2 3 2 2 2 16 2
##END=
