##TITLE=Picolinamide, N-(1,1,3,3-tetramethylbutyl)-5-ethylthio-
##JCAMP-DX=4.24
##DATA TYPE=INFRARED SPECTRUM
##ORIGIN=Sadtler Research Labs Under US-EPA Contract
##OWNER=NIST Standard Reference Data Program
##CAS REGISTRY NO=70289-18-8
##MOLFORM=C 16 H 26 N 2 S
##XUNITS=1/CM
##YUNITS=ABSORBANCE
##XFACTOR=1.0
##YFACTOR=0.000046106
##DELTAX=4.0
##FIRSTX=450.0
##LASTX=3966.0
##FIRSTY=0.000000
##MAXX=3966
##MINX=450
##MAXY=0.46106
##MINY=0
##NPOINTS=880
##XYDATA=(X++(Y..Y))
450.0 0 82 341 392 578 345 87 478 633 276
490.0 370 180 374 129 288 228 224 253 268 436
530.0 202 146 276 360 329 314 267 333 386 320
570.0 301 274 351 348 354 373 220 339 337 368
610.0 326 222 310 228 328 410 393 510 548 900
650.0 1107 1028 884 770 864 823 795 851 862 1037
690.0 1130 1001 1079 1007 920 962 823 752 695 633
730.0 621 535 652 520 419 370 409 372 401 485
770.0 533 496 408 288 273 294 298 321 309 280
810.0 278 245 388 400 284 293 382 372 463 669
850.0 941 1257 1233 879 507 390 249 418 270 276
890.0 371 295 244 376 342 285 378 523 505 421
930.0 436 419 298 270 400 364 335 377 453 434
970.0 548 598 530 476 390 395 376 328 410 474
1010.0 579 759 1132 1387 1500 1492 1262 1162 1016 841
1050.0 800 696 779 773 720 603 464 428 365 313
1090.0 362 319 348 347 366 408 435 609 811 1029
1130.0 1095 890 759 657 746 866 831 792 741 680
1170.0 640 651 669 724 815 995 1059 1232 1397 1582
1210.0 1912 2264 2704 2935 2885 2776 2790 2770 2604 2203
1250.0 1845 1504 1259 1157 1054 1020 940 807 867 888
1290.0 961 943 904 942 966 1129 1298 1557 1851 1916
1330.0 1755 1676 1649 1934 2228 2637 2955 3144 3509 3992
1370.0 4269 3862 3255 3080 3239 3830 4109 3935 4016 4241
1410.0 4371 4436 4040 3673 3448 3205 3021 2749 2494 2450
1450.0 2360 2355 2565 2873 3730 4690 4887 4375 3629 2972
1490.0 2499 2341 2391 2907 3545 5243 7092 9425 10000 8387
1530.0 5747 3544 2419 1616 1273 1079 874 709 590 676
1570.0 624 549 546 478 558 591 568 648 490 434
1610.0 327 294 288 247 286 243 249 217 186 242
1650.0 96 102 157 211 145 193 138 238 93 134
1690.0 180 196 138 94 214 188 178 116 150 199
1730.0 170 93 78 146 144 105 97 122 115 135
1770.0 94 69 125 114 131 90 75 97 108 114
1810.0 126 94 133 131 145 118 162 154 172 123
1850.0 146 115 94 102 82 91 96 106 95 90
1890.0 92 101 102 99 101 86 96 81 69 92
1930.0 98 83 97 84 102 132 122 123 108 91
1970.0 92 71 85 84 79 72 71 83 75 72
2010.0 87 88 90 73 74 81 94 97 85 95
2050.0 88 81 91 90 76 88 73 81 79 82
2090.0 86 79 89 86 90 81 72 83 70 90
2130.0 82 67 82 72 77 83 74 84 81 78
2170.0 85 85 86 85 83 93 80 77 76 77
2210.0 78 84 81 86 79 94 89 85 92 101
2250.0 99 113 107 106 106 102 104 109 127 124
2290.0 124 133 150 148 150 159 149 139 141 128
2330.0 126 94 84 132 107 172 128 142 114 143
2370.0 128 125 129 130 123 114 110 103 101 99
2410.0 106 116 116 110 111 105 107 109 111 114
2450.0 110 108 113 115 102 112 107 115 108 120
2490.0 127 125 123 132 134 138 135 135 128 133
2530.0 131 124 127 128 120 116 125 126 125 126
2570.0 126 132 133 141 130 139 133 132 137 154
2610.0 152 144 161 154 154 154 162 170 174 166
2650.0 169 181 183 190 187 179 174 183 183 187
2690.0 193 196 192 191 189 209 208 212 244 249
2730.0 241 236 232 231 234 232 249 253 259 257
2770.0 262 272 276 280 293 309 316 325 334 328
2810.0 347 377 388 413 436 473 516 558 646 717
2850.0 817 891 1001 1182 1484 1891 2288 2591 2741 2807
2890.0 2827 2866 3001 3227 3464 3568 3564 3503 3489 3501
2930.0 3582 3817 4147 4579 5078 5597 6196 6933 7554 7549
2970.0 7217 7212 7381 6261 4454 3274 2934 2699 2376 2077
3010.0 1867 1676 1372 1097 930 890 913 999 1085 1078
3050.0 958 836 792 745 669 534 453 416 384 356
3090.0 353 344 315 305 288 296 293 298 293 292
3130.0 313 316 311 328 314 311 335 345 346 373
3170.0 362 384 384 382 385 388 391 377 374 346
3210.0 370 374 362 372 378 406 412 419 450 487
3250.0 500 543 613 699 784 954 1190 1563 1994 2327
3290.0 2392 2259 2000 1762 1545 1345 1155 1011 895 811
3330.0 730 663 592 516 474 429 394 362 336 326
3370.0 298 311 295 285 265 252 236 238 228 214
3410.0 206 223 203 207 201 193 192 185 202 179
3450.0 191 181 205 202 173 184 178 174 188 186
3490.0 185 184 177 176 170 187 166 178 168 173
3530.0 190 158 163 183 188 185 146 173 159 169
3570.0 134 182 182 204 152 188 160 186 157 165
3610.0 189 167 172 135 181 102 180 138 140 148
3650.0 188 105 182 115 156 176 105 167 129 210
3690.0 87 175 158 156 170 174 168 189 132 200
3730.0 162 171 198 102 229 116 220 93 225 174
3770.0 150 152 193 165 195 130 178 147 190 121
3810.0 223 151 201 140 174 160 141 87 197 196
3850.0 230 94 188 214 229 182 200 211 177 187
3890.0 127 202 177 235 146 196 179 181 220 160
3930.0 193 130 194 217 188 225 92 97 234 189
##END=
