##TITLE=Ethylamine, 2-(o-chlorophenoxy)-N-methyl-,
##JCAMP-DX=4.24
##DATA TYPE=INFRARED SPECTRUM
##ORIGIN=Sadtler Research Labs Under US-EPA Contract
##OWNER=NIST Standard Reference Data Program
##CAS REGISTRY NO=70289-29-1
##MOLFORM=C 9 H 12 Cl N O
##XUNITS=1/CM
##YUNITS=ABSORBANCE
##XFACTOR=1.0
##YFACTOR=0.000101788
##DELTAX=4.0
##FIRSTX=450.0
##LASTX=3966.0
##FIRSTY=0.031351
##MAXX=3966
##MINX=450
##MAXY=1.01788
##MINY=0
##NPOINTS=880
##XYDATA=(X++(Y..Y))
450.0 308 338 572 314 220 229 74 0 235 204
490.0 160 329 591 361 312 112 110 180 197 62
530.0 180 224 210 176 224 207 94 160 188 236
570.0 227 181 152 206 247 296 348 363 307 358
610.0 345 356 324 332 300 333 355 399 400 500
650.0 538 575 681 753 835 1080 1298 1573 1872 1974
690.0 2042 1954 1880 1804 1701 1642 1660 1767 1865 1970
730.0 2321 2993 4029 5158 5978 5354 4321 3108 2181 1520
770.0 1109 883 739 678 631 636 630 651 623 574
810.0 517 497 450 417 406 306 368 305 280 332
850.0 328 260 288 400 379 273 483 558 507 525
890.0 592 678 731 697 804 928 846 865 834 873
930.0 775 668 544 453 386 336 314 345 356 368
970.0 403 447 476 481 561 648 792 947 1149 1442
1010.0 1805 2190 2584 3002 3441 4099 4837 5257 5225 4500
1050.0 3692 3512 4184 5088 5359 4883 3619 2399 1584 1131
1090.0 890 735 725 663 683 801 963 1285 1615 1996
1130.0 2226 2260 2047 1781 1622 1640 1609 1524 1319 1144
1170.0 1009 951 904 859 845 853 895 885 930 1053
1210.0 1214 1385 1772 2338 3134 4199 5341 6527 7676 8010
1250.0 7869 6937 6061 5585 5789 6392 6510 6171 5704 5078
1290.0 4727 4349 3653 2709 1834 1315 1001 854 706 629
1330.0 589 527 588 570 559 664 749 809 834 769
1370.0 740 801 869 890 884 831 707 647 543 449
1410.0 508 448 593 639 735 913 1226 1897 2741 3493
1450.0 3851 4118 4333 4651 5329 6075 7498 9190 10000 9999
1490.0 7802 5307 3321 2360 1875 1418 1108 741 542 448
1530.0 321 363 286 282 368 313 375 410 492 749
1570.0 973 1527 1979 2723 3408 3516 3410 2264 1409 803
1610.0 476 353 261 164 197 82 138 108 82 79
1650.0 107 121 93 142 138 170 208 193 217 231
1690.0 221 242 334 431 511 570 607 550 385 258
1730.0 189 209 128 138 170 169 169 175 164 166
1770.0 165 142 129 131 130 133 123 131 144 115
1810.0 103 110 92 88 91 89 83 81 105 133
1850.0 117 92 93 94 98 117 105 124 150 177
1890.0 190 175 151 122 111 105 118 139 191 179
1930.0 164 144 108 94 70 51 38 43 36 47
1970.0 30 29 30 24 26 45 43 41 32 45
2010.0 46 54 70 65 69 77 84 93 100 103
2050.0 104 98 106 107 118 110 108 107 100 93
2090.0 92 80 77 66 59 51 44 44 39 37
2130.0 36 30 29 26 27 29 25 28 25 22
2170.0 19 19 18 11 13 15 4 7 5 5
2210.0 3 1 3 5 8 10 15 19 11 24
2250.0 25 23 31 37 45 52 56 60 64 72
2290.0 78 78 90 97 100 109 106 101 87 87
2330.0 65 55 50 54 52 82 57 65 52 53
2370.0 50 41 69 77 67 49 45 40 40 40
2410.0 43 40 38 40 36 43 39 40 43 41
2450.0 44 47 48 51 59 66 72 79 80 78
2490.0 86 93 96 100 104 107 108 120 126 138
2530.0 154 162 171 177 176 169 159 152 145 136
2570.0 136 123 114 104 92 86 82 79 78 76
2610.0 77 74 77 81 81 82 86 89 88 87
2650.0 86 89 94 97 107 120 132 141 163 185
2690.0 217 246 270 288 291 287 290 286 292 301
2730.0 314 333 350 363 387 409 449 491 542 610
2770.0 701 810 937 1077 1239 1470 1813 2231 2552 2671
2810.0 2537 2285 2050 1903 1823 1822 1866 1930 2007 2088
2850.0 2182 2281 2344 2356 2321 2283 2284 2345 2447 2561
2890.0 2670 2732 2727 2663 2584 2520 2532 2615 2738 2933
2930.0 3153 3435 3730 3938 3995 3886 3647 3339 3035 2749
2970.0 2561 2496 2443 2263 1901 1461 1074 800 645 547
3010.0 497 479 471 494 521 543 549 538 526 505
3050.0 498 532 594 730 945 1262 1576 1711 1595 1293
3090.0 947 717 566 456 345 253 177 133 107 87
3130.0 77 72 72 79 63 63 66 59 62 57
3170.0 59 53 50 40 38 41 31 27 35 35
3210.0 25 23 18 28 21 13 18 19 18 13
3250.0 11 20 10 18 11 16 19 5 12 13
3290.0 13 18 12 8 15 18 15 8 22 22
3330.0 20 29 26 33 34 50 70 113 164 187
3370.0 201 172 136 121 94 77 57 53 54 43
3410.0 45 38 24 27 35 28 25 19 18 27
3450.0 20 26 17 26 24 17 12 12 27 28
3490.0 25 16 15 25 17 18 11 16 17 41
3530.0 22 8 17 20 51 53 31 47 52 146
3570.0 236 255 274 267 264 218 137 78 45 44
3610.0 45 45 31 39 47 49 53 70 72 86
3650.0 44 72 58 70 62 27 49 0 59 47
3690.0 34 35 47 57 40 30 38 34 67 60
3730.0 51 32 37 57 8 37 10 61 37 43
3770.0 66 39 69 44 49 51 33 52 26 32
3810.0 54 47 43 9 27 47 33 30 28 59
3850.0 40 31 43 56 33 21 33 47 65 48
3890.0 54 45 78 50 36 52 50 96 21 48
3930.0 81 59 49 49 96 76 56 50 60 63
##END=
