##TITLE=3-Phenyl-2-oxazolidinone
##JCAMP-DX=4.24
##DATA TYPE=INFRARED SPECTRUM
##ORIGIN=Sadtler Research Labs Under US-EPA Contract
##OWNER=NIST Standard Reference Data Program
##CAS REGISTRY NO=703-56-0
##MOLFORM=C 9 H 9 N O 2
##XUNITS=1/CM
##YUNITS=ABSORBANCE
##XFACTOR=1.0
##YFACTOR=0.000080698
##DELTAX=4.0
##FIRSTX=450.0
##LASTX=3966.0
##FIRSTY=0.019045
##MAXX=3966
##MINX=450
##MAXY=0.80698
##MINY=0
##NPOINTS=880
##XYDATA=(X++(Y..Y))
450.0 236 83 32 47 63 94 53 51 118 79
490.0 130 180 206 235 219 205 156 92 94 83
530.0 81 88 93 66 41 26 8 10 76 91
570.0 97 153 135 114 74 62 45 63 40 29
610.0 65 47 94 54 52 30 43 46 48 124
650.0 184 401 599 699 737 717 643 685 789 972
690.0 1023 882 741 610 446 362 295 240 218 233
730.0 298 411 610 857 1156 1399 1662 1770 1469 1130
770.0 838 535 336 194 122 81 56 56 65 58
810.0 53 52 60 75 84 77 82 61 68 65
850.0 79 73 70 62 57 69 74 100 109 115
890.0 127 146 135 123 104 87 68 64 55 53
930.0 70 106 193 376 628 761 756 647 411 305
970.0 384 519 640 666 619 509 385 297 249 208
1010.0 179 188 200 216 261 323 383 475 620 799
1050.0 1030 1274 1467 1549 1536 1434 1234 1022 860 786
1090.0 811 988 1283 1679 2324 3262 4165 4491 4268 3374
1130.0 2098 1293 958 798 732 708 713 668 642 620
1170.0 624 696 837 1034 1359 1851 2487 3202 3839 4184
1210.0 4089 3604 2859 2136 1576 1186 915 728 607 520
1250.0 459 438 450 476 523 589 645 706 786 921
1290.0 1144 1490 1942 2454 2807 2796 2449 1824 1114 636
1330.0 402 281 246 246 252 253 251 269 315 432
1370.0 599 923 1516 2658 4273 6032 6790 6382 4849 2769
1410.0 1390 875 607 451 301 199 120 103 125 151
1450.0 182 208 203 221 282 413 652 1139 1588 1784
1490.0 2080 2630 3436 4221 3925 3249 1811 666 320 226
1530.0 188 155 121 82 98 99 101 73 96 138
1570.0 161 215 300 422 610 894 1308 1663 1699 1514
1610.0 1143 768 543 429 307 257 216 203 202 182
1650.0 141 112 117 114 97 94 73 110 89 90
1690.0 111 112 75 74 79 91 110 166 248 311
1730.0 336 321 321 327 345 396 495 622 764 936
1770.0 1159 1500 2008 2757 3846 5401 7244 8967 9791 10000
1810.0 9103 7050 4901 3090 1916 1193 785 549 404 317
1850.0 270 236 207 187 172 154 159 157 146 128
1890.0 120 119 119 116 113 104 95 91 90 100
1930.0 111 109 108 101 98 97 95 86 77 71
1970.0 62 53 52 42 38 33 24 23 18 17
2010.0 21 17 14 17 16 17 22 25 32 42
2050.0 48 52 62 68 69 73 69 56 41 35
2090.0 25 20 19 16 16 19 20 18 14 14
2130.0 17 18 23 26 29 32 31 29 26 23
2170.0 19 19 16 14 17 12 8 9 7 5
2210.0 1 0 0 0 5 7 9 12 16 21
2250.0 26 33 45 56 59 63 68 71 77 78
2290.0 81 83 87 84 82 91 84 72 76 51
2330.0 49 42 34 37 57 64 60 46 39 40
2370.0 49 48 61 58 43 21 12 6 9 6
2410.0 6 8 7 9 9 9 7 13 11 10
2450.0 7 7 10 8 10 6 6 8 9 9
2490.0 8 12 8 8 8 11 10 14 13 15
2530.0 13 19 22 24 29 34 39 40 40 36
2570.0 35 33 35 33 35 32 33 40 31 30
2610.0 22 27 27 20 21 15 13 11 12 12
2650.0 10 10 9 15 11 16 16 22 21 23
2690.0 21 28 30 28 30 33 36 38 38 43
2730.0 47 44 41 41 39 38 34 38 41 45
2770.0 41 48 54 55 61 65 60 61 59 62
2810.0 71 77 80 88 100 106 107 107 114 121
2850.0 132 146 165 191 229 278 333 406 489 560
2890.0 607 631 630 619 627 685 801 904 943 912
2930.0 799 661 564 520 503 482 458 450 450 490
2970.0 549 626 698 758 795 782 751 697 631 545
3010.0 456 381 316 279 272 293 329 388 451 526
3050.0 599 616 610 585 565 607 672 691 651 572
3090.0 465 365 320 304 279 253 220 182 137 107
3130.0 82 62 55 49 43 38 42 44 43 35
3170.0 32 30 26 29 21 25 14 20 23 21
3210.0 19 16 17 16 13 11 14 13 19 20
3250.0 11 15 13 16 18 20 13 10 13 20
3290.0 21 21 19 23 20 19 19 22 26 20
3330.0 20 19 21 20 24 15 17 19 25 24
3370.0 21 22 19 20 26 25 22 17 26 26
3410.0 33 23 28 28 30 26 28 21 26 23
3450.0 20 23 30 26 29 33 17 28 23 25
3490.0 29 30 23 17 28 20 24 17 28 28
3530.0 23 25 25 25 26 22 23 27 28 47
3570.0 52 59 80 97 94 84 82 55 50 33
3610.0 28 26 21 12 3 11 19 23 33 29
3650.0 24 37 29 32 35 50 23 31 37 37
3690.0 31 35 27 29 22 23 29 29 25 36
3730.0 38 22 44 20 23 13 33 34 30 29
3770.0 33 33 37 16 37 29 22 26 21 21
3810.0 24 25 22 27 27 22 26 30 41 30
3850.0 20 10 12 33 38 18 20 20 19 24
3890.0 23 34 28 17 19 43 31 24 14 11
3930.0 7 18 30 25 31 33 18 14 19 38
##END=
