##TITLE=Succinimide, N,N'-[(3-methoxy-propylimino)bismethylene]di-,
##JCAMP-DX=4.24
##DATA TYPE=INFRARED SPECTRUM
##ORIGIN=Sadtler Research Labs Under US-EPA Contract
##OWNER=NIST Standard Reference Data Program
##CAS REGISTRY NO=70321-11-8
##MOLFORM=C 14 H 21 N 3 O 5
##XUNITS=1/CM
##YUNITS=ABSORBANCE
##XFACTOR=1.0
##YFACTOR=0.000039847
##DELTAX=4.0
##FIRSTX=450.0
##LASTX=3966.0
##FIRSTY=0.020521
##MAXX=3966
##MINX=450
##MAXY=0.39847
##MINY=0
##NPOINTS=880
##XYDATA=(X++(Y..Y))
450.0 515 234 0 961 534 201 500 138 461 368
490.0 85 250 489 7 153 361 263 620 787 411
530.0 390 300 215 388 600 615 440 287 358 255
570.0 317 454 329 84 82 409 735 598 555 700
610.0 775 532 875 879 1072 1123 1203 1320 1704 1747
650.0 1533 1620 1419 1370 1072 915 978 725 823 484
690.0 660 441 397 636 627 322 626 606 405 454
730.0 527 53 903 579 487 535 784 588 316 368
770.0 523 670 474 327 523 383 488 315 673 663
810.0 804 736 709 872 574 766 700 532 525 450
850.0 545 475 493 405 459 600 634 666 732 790
890.0 821 822 788 733 741 656 530 495 522 438
930.0 464 411 406 449 491 461 439 485 493 392
970.0 393 384 421 381 382 412 473 502 496 420
1010.0 513 655 715 764 699 773 825 820 805 725
1050.0 734 653 582 592 630 664 669 696 741 792
1090.0 813 891 894 882 1118 1396 1410 1634 1779 2169
1130.0 2392 2590 2947 3206 3509 3380 3407 3124 2920 2594
1170.0 2071 1457 1194 1051 976 1022 1012 1036 1075 1145
1210.0 1108 1051 1077 1115 1149 1088 1054 992 968 913
1250.0 900 916 900 912 952 965 940 983 1114 1152
1290.0 1176 1186 1208 1223 1265 1269 1366 1563 1867 2128
1330.0 2272 2413 2404 2176 1997 1718 1382 1127 921 796
1370.0 729 655 603 579 608 592 586 580 562 559
1410.0 521 569 593 566 569 613 720 748 688 734
1450.0 801 822 792 740 703 693 702 700 780 577
1490.0 610 585 691 690 727 645 555 547 533 493
1530.0 460 431 441 397 396 370 385 404 412 410
1570.0 461 522 523 431 400 395 447 444 399 381
1610.0 333 359 349 367 337 311 282 296 269 296
1650.0 301 301 337 296 301 282 303 299 339 356
1690.0 442 537 722 954 1218 1482 1722 1947 1976 2059
1730.0 2146 2210 2558 2831 3430 4231 5113 6140 7313 8765
1770.0 9732 10000 9630 8733 8061 7264 5308 3125 1912 1404
1810.0 1263 1166 1065 1037 948 783 626 491 402 319
1850.0 279 245 230 225 209 200 226 203 204 206
1890.0 197 196 191 187 180 185 171 173 184 179
1930.0 178 182 170 177 187 171 167 152 150 154
1970.0 141 143 140 138 121 119 130 127 127 118
2010.0 107 112 106 113 111 109 116 104 120 129
2050.0 123 123 121 113 106 107 117 106 107 109
2090.0 97 103 100 106 103 99 103 100 94 89
2130.0 99 97 93 85 84 85 97 105 95 99
2170.0 96 104 100 99 98 96 87 84 97 99
2210.0 94 83 81 86 92 91 88 98 84 84
2250.0 86 89 88 94 92 112 101 112 107 119
2290.0 136 148 173 182 191 203 189 171 165 161
2330.0 144 149 167 152 212 163 232 173 214 161
2370.0 132 118 143 153 119 84 61 62 57 48
2410.0 50 57 59 60 52 47 51 55 52 51
2450.0 47 53 39 47 58 53 52 52 49 46
2490.0 49 41 42 48 40 28 24 24 15 24
2530.0 25 25 23 33 38 35 48 36 32 44
2570.0 41 37 39 39 35 29 43 50 49 37
2610.0 56 48 53 50 50 63 62 50 58 60
2650.0 54 65 68 67 76 78 65 68 65 65
2690.0 70 71 81 63 75 78 81 84 95 101
2730.0 97 118 117 120 123 132 145 156 159 174
2770.0 169 204 220 237 254 269 307 323 353 382
2810.0 435 479 516 573 627 668 705 732 765 789
2850.0 783 795 806 845 855 869 861 845 823 794
2890.0 767 759 759 729 748 755 745 759 805 844
2930.0 874 922 965 1007 1026 1053 1021 958 929 895
2970.0 834 753 692 645 616 586 599 569 507 506
3010.0 476 460 438 413 363 320 290 266 231 216
3050.0 197 180 193 211 188 187 207 198 194 193
3090.0 180 172 163 159 141 134 133 127 109 99
3130.0 98 82 97 109 84 80 92 77 71 77
3170.0 76 71 68 59 62 62 65 66 54 60
3210.0 54 58 58 42 34 69 51 48 33 47
3250.0 54 64 49 26 27 43 59 50 54 41
3290.0 61 47 33 53 53 53 43 55 42 43
3330.0 49 33 26 20 31 45 54 65 38 48
3370.0 39 40 34 65 75 56 50 51 50 56
3410.0 66 88 89 129 194 234 335 422 540 637
3450.0 760 831 778 715 725 727 550 414 290 216
3490.0 131 90 82 84 99 64 68 64 97 106
3530.0 94 118 108 121 116 118 123 138 148 143
3570.0 169 126 142 160 128 143 125 129 108 104
3610.0 107 101 107 100 101 140 118 111 125 135
3650.0 120 111 116 129 150 104 151 95 154 130
3690.0 94 134 144 177 120 152 144 103 124 153
3730.0 182 145 129 162 120 134 122 125 124 132
3770.0 149 117 154 146 91 125 109 132 115 122
3810.0 188 99 112 102 161 132 152 113 144 112
3850.0 143 147 107 214 143 116 117 105 80 176
3890.0 183 166 94 138 116 169 102 182 188 154
3930.0 165 178 150 114 140 97 113 246 160 175
##END=
