##TITLE=(2-Methoxyphenyl)acetonitrile
##JCAMP-DX=4.24
##DATA TYPE=INFRARED SPECTRUM
##ORIGIN=Sadtler Research Labs Under US-EPA Contract
##OWNER=NIST Standard Reference Data Program
##CAS REGISTRY NO=7035-03-2
##MOLFORM=C 9 H 9 N O
##XUNITS=1/CM
##YUNITS=ABSORBANCE
##XFACTOR=1.0
##YFACTOR=0.000079468
##DELTAX=4.0
##FIRSTX=450.0
##LASTX=3966.0
##FIRSTY=0.017245
##MAXX=3966
##MINX=450
##MAXY=0.79468
##MINY=0
##NPOINTS=880
##XYDATA=(X++(Y..Y))
450.0 217 216 233 186 170 156 143 102 103 119
490.0 89 85 53 79 43 36 66 91 87 95
530.0 147 168 152 140 128 123 136 144 139 158
570.0 189 204 210 233 163 149 114 92 100 116
610.0 132 158 165 153 120 87 80 82 46 56
650.0 47 45 53 28 3 35 42 40 73 105
690.0 134 176 257 317 401 516 618 661 772 927
730.0 1058 1272 1731 2388 3036 4310 4504 3639 2987 2087
770.0 1319 804 511 349 261 214 174 181 195 240
810.0 269 324 358 389 386 382 350 310 295 270
850.0 258 238 225 202 161 111 102 102 100 114
890.0 114 113 110 141 167 189 217 232 239 249
930.0 255 266 287 308 335 321 283 253 237 235
970.0 252 287 299 306 313 330 359 412 498 641
1010.0 849 1163 1574 2068 2541 2889 3024 2980 2830 2541
1050.0 2181 1858 1500 1061 704 521 434 410 416 464
1090.0 589 831 1266 1908 2554 2877 2878 2539 1841 1139
1130.0 693 465 379 350 362 448 623 863 1148 1340
1170.0 1229 1054 920 820 727 673 652 635 621 617
1210.0 655 757 949 1251 1755 2559 3795 5488 7422 9051
1250.0 10000 9863 8624 6685 4714 3310 2587 2358 2351 2382
1290.0 2370 2272 2062 1802 1521 1277 1130 1088 1088 1081
1330.0 1031 938 820 695 622 576 482 388 332 294
1370.0 285 291 296 305 333 333 335 337 334 361
1410.0 423 554 763 923 1053 1223 1472 1797 1932 1992
1450.0 2176 2264 2497 2895 3225 3220 3110 3095 3297 4108
1490.0 5248 6129 6314 5989 4878 3423 2226 1306 864 611
1530.0 525 455 428 404 349 309 310 355 362 420
1570.0 545 749 1032 1382 1766 2229 2655 2943 2798 2370
1610.0 1885 1391 938 578 418 336 324 265 180 152
1650.0 153 149 132 130 134 139 157 131 155 163
1690.0 154 174 248 301 320 329 350 350 248 179
1730.0 158 163 136 125 127 128 114 109 112 103
1770.0 119 122 115 119 113 109 106 92 90 77
1810.0 77 77 64 59 56 55 44 36 46 52
1850.0 54 48 56 58 70 85 82 95 105 112
1890.0 116 114 107 109 114 116 110 110 118 118
1930.0 117 124 111 95 62 33 18 13 8 13
1970.0 12 14 20 25 34 46 57 62 72 90
2010.0 101 109 117 110 107 102 103 107 113 121
2050.0 127 134 138 137 135 125 113 96 85 65
2090.0 56 45 36 33 30 28 25 22 25 21
2130.0 22 25 31 32 28 25 21 19 12 11
2170.0 10 6 4 4 3 0 3 4 4 8
2210.0 9 9 16 19 24 33 41 57 82 113
2250.0 146 177 187 180 154 121 98 75 64 49
2290.0 42 41 37 34 35 33 37 47 45 49
2330.0 49 50 43 44 42 41 45 46 50 39
2370.0 42 36 37 32 24 19 19 23 26 27
2410.0 31 31 30 28 23 20 19 15 14 14
2450.0 16 14 18 23 20 27 34 39 43 54
2490.0 58 61 61 64 60 57 56 55 58 65
2530.0 71 82 87 90 87 83 79 66 63 59
2570.0 57 61 61 59 57 56 59 57 57 56
2610.0 53 48 50 49 47 46 46 43 43 39
2650.0 38 37 32 32 26 28 22 28 28 27
2690.0 31 37 40 48 49 51 62 60 63 65
2730.0 64 68 68 68 71 71 76 77 78 75
2770.0 76 78 80 90 90 103 115 125 141 150
2810.0 170 200 233 277 343 434 578 813 1124 1351
2850.0 1422 1399 1224 942 745 640 592 582 590 619
2890.0 652 691 745 817 897 990 1095 1208 1306 1401
2930.0 1538 1707 1942 2209 2414 2466 2451 2343 2135 2020
2970.0 1800 1486 1234 1006 849 779 788 881 1066 1302
3010.0 1431 1414 1349 1185 1036 991 1012 1036 1025 959
3050.0 867 819 821 880 965 1066 1165 1260 1288 1224
3090.0 1090 903 675 486 381 327 294 262 222 184
3130.0 145 118 102 85 80 77 76 76 76 72
3170.0 72 78 84 81 75 76 68 60 63 57
3210.0 52 41 39 39 35 30 34 27 28 29
3250.0 19 25 23 22 21 29 18 15 16 19
3290.0 16 20 22 21 17 22 30 23 22 15
3330.0 22 16 17 14 11 19 23 21 16 22
3370.0 14 20 21 12 13 17 15 15 16 16
3410.0 14 14 15 20 17 15 17 15 9 17
3450.0 12 10 8 6 15 16 17 13 15 10
3490.0 14 13 20 19 16 8 9 16 10 18
3530.0 22 23 8 17 13 7 11 18 18 15
3570.0 16 18 24 13 11 17 3 16 15 19
3610.0 15 11 16 17 18 12 13 14 18 30
3650.0 28 31 17 21 31 24 32 20 25 20
3690.0 15 28 20 20 12 11 17 21 12 9
3730.0 13 24 24 21 3 10 12 14 19 11
3770.0 3 11 19 21 20 21 20 15 20 17
3810.0 19 12 5 12 29 27 25 24 35 39
3850.0 18 19 23 23 30 35 29 24 30 36
3890.0 41 52 31 37 36 31 19 24 25 23
3930.0 14 27 20 6 4 21 8 15 16 21
##END=
