##TITLE=1,2-Benzenediamine, N,N,N',N'-tetramethyl-
##JCAMP-DX=4.24
##DATA TYPE=INFRARED SPECTRUM
##ORIGIN=Sadtler Research Labs Under US-EPA Contract
##OWNER=NIST Standard Reference Data Program
##CAS REGISTRY NO=704-01-8
##MOLFORM=C 10 H 16 N 2
##XUNITS=1/CM
##YUNITS=ABSORBANCE
##XFACTOR=1.0
##YFACTOR=0.000089127
##DELTAX=4.0
##FIRSTX=450.0
##LASTX=3966.0
##FIRSTY=0.041266
##MAXX=3966
##MINX=450
##MAXY=0.89127
##MINY=0
##NPOINTS=880
##XYDATA=(X++(Y..Y))
450.0 463 202 74 107 56 82 64 51 110 151
490.0 224 269 360 422 454 438 368 266 204 152
530.0 112 101 120 209 321 624 858 1187 1376 957
570.0 928 664 505 363 288 173 76 72 52 43
610.0 27 64 19 51 28 40 46 42 41 31
650.0 46 43 41 23 36 56 82 107 253 365
690.0 485 520 441 319 181 174 97 136 147 312
730.0 678 1724 3411 4318 7571 5502 3936 2944 1179 538
770.0 340 308 354 209 208 105 110 58 85 47
810.0 54 61 33 37 17 35 11 36 38 48
850.0 54 75 79 81 73 56 55 51 68 68
890.0 94 99 120 156 202 291 376 513 664 901
930.0 1243 1642 2042 2686 3711 4729 5321 4893 3715 2060
970.0 879 402 237 175 147 138 144 150 158 168
1010.0 178 192 210 243 295 392 567 896 1481 2357
1050.0 3233 3635 3478 2821 1934 1258 959 927 1112 1565
1090.0 2212 2828 3182 3118 2535 1906 1430 1216 1191 1367
1130.0 1772 2523 3615 4819 5850 6318 6249 5780 5104 4324
1170.0 3510 2703 2074 1888 2089 2559 3076 3455 3545 3278
1210.0 2769 2187 1675 1297 1057 909 819 768 728 701
1250.0 673 653 644 651 664 732 876 1118 1434 1710
1290.0 1879 1956 2053 2354 3088 4279 5602 6564 6775 6151
1330.0 4957 3689 2703 2027 1577 1260 1027 855 734 636
1370.0 569 518 484 455 442 441 459 531 629 766
1410.0 880 953 1026 1142 1293 1471 1689 2104 2804 3752
1450.0 4735 5210 5318 4980 4397 3935 3796 3879 4220 5023
1490.0 6419 8212 9414 9553 8519 6382 4351 2965 2251 1732
1530.0 1405 1137 946 802 695 644 631 666 725 840
1570.0 995 1200 1530 2041 2615 3177 3406 3198 2609 1920
1610.0 1274 837 614 487 423 385 367 366 360 361
1650.0 351 350 346 339 331 315 285 251 231 218
1690.0 208 202 210 215 226 228 220 199 177 170
1730.0 156 144 126 108 105 114 129 148 154 145
1770.0 126 96 76 63 64 73 88 100 104 104
1810.0 95 93 100 119 141 166 182 186 175 160
1850.0 146 138 151 183 230 284 317 318 290 245
1890.0 195 168 164 181 212 238 238 204 150 89
1930.0 50 39 36 30 29 27 30 28 30 34
1970.0 38 36 42 42 43 49 59 73 87 100
2010.0 104 98 83 64 47 31 24 21 17 12
2050.0 11 14 16 22 28 36 48 63 83 106
2090.0 125 135 133 120 100 74 57 44 34 31
2130.0 32 33 33 30 28 22 19 13 7 2
2170.0 0 3 9 16 28 31 29 26 21 15
2210.0 11 14 17 26 31 38 42 42 38 37
2250.0 35 35 34 31 34 32 36 34 35 37
2290.0 37 41 40 35 33 32 22 26 19 20
2330.0 12 19 20 21 26 34 31 31 31 45
2370.0 44 45 46 51 45 39 34 33 30 30
2410.0 28 29 31 32 34 36 42 44 54 64
2450.0 77 92 106 116 121 125 121 120 119 124
2490.0 129 133 140 141 144 135 132 123 124 125
2530.0 125 125 128 132 137 146 148 156 166 176
2570.0 191 201 199 193 183 174 173 176 187 194
2610.0 205 211 218 232 239 243 247 247 240 234
2650.0 221 213 201 192 182 177 178 183 188 195
2690.0 213 222 235 251 265 288 307 334 364 402
2730.0 447 500 573 670 789 942 1145 1434 1850 2479
2770.0 3439 4800 6410 7935 8964 9264 8759 7685 6371 5218
2810.0 4383 4090 4503 5672 7295 8869 9612 9011 7802 6503
2850.0 5751 5565 5733 5940 5949 5669 5241 4830 4555 4388
2890.0 4240 4140 4061 4006 3965 3973 4025 4137 4339 4711
2930.0 5400 6510 8011 9338 10000 9450 7928 6057 4517 3642
2970.0 3493 3880 4449 4817 4322 3495 2635 1977 1687 1528
3010.0 1414 1328 1291 1297 1326 1357 1377 1405 1442 1500
3050.0 1609 1818 2143 2531 2803 2882 2687 2269 1776 1344
3090.0 1063 883 798 759 729 676 590 493 399 334
3130.0 287 261 250 244 237 232 215 188 166 144
3170.0 130 124 120 115 108 101 101 99 94 89
3210.0 83 81 79 73 69 65 66 58 59 61
3250.0 60 59 48 51 50 46 48 47 40 37
3290.0 35 34 33 30 31 30 29 35 35 31
3330.0 40 40 41 46 41 50 43 49 48 54
3370.0 56 58 68 80 98 122 133 138 136 120
3410.0 104 84 70 60 52 45 39 37 35 34
3450.0 27 30 37 32 34 35 31 36 39 44
3490.0 36 33 37 43 35 31 34 31 28 23
3530.0 23 21 26 24 28 27 31 32 32 27
3570.0 27 27 29 30 36 24 21 22 23 18
3610.0 17 23 27 26 36 26 24 18 20 22
3650.0 21 26 19 21 22 24 27 22 19 14
3690.0 12 15 15 19 18 11 16 19 11 22
3730.0 21 23 22 22 19 24 27 35 29 30
3770.0 22 23 26 27 31 29 24 20 24 15
3810.0 18 22 24 28 28 38 35 46 57 60
3850.0 48 36 25 15 24 23 17 18 19 30
3890.0 38 32 27 30 20 31 20 9 10 9
3930.0 21 30 37 35 34 24 23 22 31 44
##END=
