##TITLE=Ethanone, 1-(2-hydroxy-5-methoxyphenyl)-
##JCAMP-DX=4.24
##DATA TYPE=INFRARED SPECTRUM
##ORIGIN=Sadtler Research Labs Under US-EPA Contract
##OWNER=NIST Standard Reference Data Program
##CAS REGISTRY NO=705-15-7
##MOLFORM=C 9 H 10 O 3
##XUNITS=1/CM
##YUNITS=ABSORBANCE
##XFACTOR=1.0
##YFACTOR=0.000089014
##DELTAX=4.0
##FIRSTX=450.0
##LASTX=3966.0
##FIRSTY=0.000979
##MAXX=3966
##MINX=450
##MAXY=0.89014
##MINY=0
##NPOINTS=880
##XYDATA=(X++(Y..Y))
450.0 11 7 1 25 34 31 63 87 93 119
490.0 119 84 115 129 118 181 156 214 257 233
530.0 270 297 255 232 222 196 205 151 123 176
570.0 129 91 148 114 141 183 142 242 239 247
610.0 323 417 611 840 1107 1429 1647 1505 1422 1055
650.0 673 464 354 281 300 201 253 376 431 500
690.0 744 905 933 918 845 702 690 693 672 692
730.0 692 785 938 1092 1226 1324 1322 1429 1553 1638
770.0 1788 1827 1946 1852 1592 1241 820 486 335 332
810.0 372 532 710 894 1070 1214 1147 1013 892 697
850.0 572 498 512 550 595 613 501 400 315 269
890.0 277 347 356 356 316 219 175 133 122 155
930.0 162 227 302 441 681 987 1220 1279 1194 940
970.0 621 420 298 266 258 280 292 310 360 404
1010.0 483 568 701 905 1176 1534 1925 2317 2656 2731
1050.0 2638 2367 1989 1604 1200 839 582 406 324 282
1090.0 218 215 172 177 194 216 211 306 319 357
1130.0 385 387 420 492 541 605 678 759 905 1107
1170.0 1470 1958 2462 3004 3636 4454 5531 6731 7734 8183
1210.0 7999 7062 6216 5342 4567 3890 3368 2978 2920 3071
1250.0 3329 3493 3528 3455 3497 3727 4200 5038 6122 7107
1290.0 7187 6477 5216 4002 3590 3849 4203 4368 4236 3808
1330.0 3242 2716 2249 1909 1678 1605 1759 2112 2687 3279
1370.0 3564 3526 3086 2491 2104 1879 1802 1821 1883 1987
1410.0 2095 2184 2193 2155 2037 1894 1813 1809 1868 1908
1450.0 1969 2079 2256 2701 3387 4339 5794 7533 9193 10000
1490.0 9548 7822 5664 3857 2553 1667 1256 1007 885 813
1530.0 781 766 742 686 700 717 738 783 831 999
1570.0 1212 1462 1697 1845 1871 1782 1650 1525 1452 1437
1610.0 1521 1750 2014 2237 2287 2183 2012 1937 2237 2989
1650.0 4419 6224 7898 8199 7195 5185 3182 1815 1162 738
1690.0 567 460 352 300 289 274 280 269 286 301
1730.0 304 288 276 244 225 198 169 169 156 143
1770.0 130 107 99 89 75 65 54 54 48 49
1810.0 37 37 42 36 40 32 32 41 43 36
1850.0 49 49 54 60 48 42 49 50 64 72
1890.0 80 106 116 111 110 89 77 65 43 38
1930.0 49 43 51 58 58 64 66 60 61 55
1970.0 44 43 32 28 31 21 20 34 32 42
2010.0 50 48 55 61 61 72 71 78 81 81
2050.0 80 82 83 86 95 89 88 89 77 82
2090.0 72 66 67 58 56 51 35 33 35 23
2130.0 22 17 6 12 10 6 12 9 9 12
2170.0 12 10 17 12 12 11 1 8 9 2
2210.0 8 6 2 10 11 11 18 17 18 29
2250.0 28 34 40 41 47 51 44 44 40 38
2290.0 34 34 39 45 38 44 49 40 46 50
2330.0 30 37 30 21 28 39 38 45 26 34
2370.0 61 58 64 66 59 62 61 49 54 49
2410.0 43 49 44 43 51 42 53 54 50 59
2450.0 60 60 65 70 66 70 70 61 63 51
2490.0 48 55 43 48 54 53 60 60 59 71
2530.0 71 73 78 80 87 97 92 102 109 108
2570.0 120 126 119 126 124 120 119 116 113 120
2610.0 115 108 109 102 109 109 102 110 112 110
2650.0 123 121 119 130 135 135 146 147 152 162
2690.0 156 153 155 150 154 145 146 152 152 151
2730.0 163 151 152 162 158 159 169 169 175 184
2770.0 190 206 212 211 224 228 235 248 259 267
2810.0 291 305 337 386 431 537 697 869 977 984
2850.0 889 748 626 546 510 479 483 483 481 497
2890.0 520 555 613 676 752 843 916 950 969 972
2930.0 1008 1104 1242 1405 1515 1531 1469 1301 1111 987
2970.0 891 825 810 785 787 825 909 1088 1346 1536
3010.0 1556 1430 1169 916 767 696 677 676 698 760
3050.0 806 828 840 834 833 858 881 929 943 925
3090.0 887 828 786 775 763 768 773 767 762 766
3130.0 748 746 734 714 716 699 686 691 674 674
3170.0 668 657 657 655 647 646 647 634 633 636
3210.0 617 612 613 595 602 593 570 579 557 554
3250.0 558 534 540 548 534 545 540 534 545 532
3290.0 516 528 512 510 509 493 492 497 463 457
3330.0 439 412 406 393 374 375 348 347 348 328
3370.0 313 320 297 291 290 278 274 272 260 253
3410.0 252 237 246 232 217 213 208 208 201 184
3450.0 188 184 165 166 155 155 156 146 130 140
3490.0 123 123 124 107 103 105 94 97 93 84
3530.0 85 80 68 80 68 69 63 62 56 59
3570.0 48 67 54 42 52 48 46 46 39 30
3610.0 36 24 24 33 23 13 35 30 28 31
3650.0 18 29 27 22 22 10 14 14 15 12
3690.0 8 1 11 12 6 7 7 6 7 2
3730.0 9 5 5 11 1 2 5 18 11 12
3770.0 5 8 16 10 4 11 0 1 11 6
3810.0 1 6 1 1 5 1 2 9 6 12
3850.0 3 1 9 1 1 11 5 6 12 15
3890.0 12 20 8 12 12 2 6 6 1 4
3930.0 10 4 13 10 6 11 1 1 1 1
##END=
