##TITLE=Ethanol, 2-(4-chloro-m-tolyl)-,
##JCAMP-DX=4.24
##DATA TYPE=INFRARED SPECTRUM
##ORIGIN=Sadtler Research Labs Under US-EPA Contract
##OWNER=NIST Standard Reference Data Program
##CAS REGISTRY NO=705-82-8
##MOLFORM=C 9 H 11 Cl O 2
##XUNITS=1/CM
##YUNITS=ABSORBANCE
##XFACTOR=1.0
##YFACTOR=0.000054193
##DELTAX=4.0
##FIRSTX=450.0
##LASTX=3966.0
##FIRSTY=0.012519
##MAXX=3966
##MINX=450
##MAXY=0.54193
##MINY=0
##NPOINTS=880
##XYDATA=(X++(Y..Y))
450.0 231 197 191 175 50 30 63 66 63 51
490.0 17 89 54 64 106 96 95 49 18 59
530.0 8 24 44 44 16 38 33 52 96 133
570.0 117 198 177 217 179 164 143 108 94 52
610.0 118 118 196 218 344 485 702 817 853 905
650.0 1006 1169 1389 1499 1343 959 509 268 155 128
690.0 72 136 102 122 81 88 60 35 40 64
730.0 61 104 121 113 55 10 10 8 12 7
770.0 21 55 92 198 329 518 764 976 1060 1158
810.0 1182 1054 842 633 494 449 494 603 753 887
850.0 989 1153 1300 1434 1508 1479 1354 1241 1109 1025
890.0 1015 1031 1008 905 731 568 428 348 309 282
930.0 266 277 314 365 422 505 579 599 560 504
970.0 451 436 457 511 571 663 770 895 1047 1239
1010.0 1474 1803 2325 3098 4210 5704 7239 8292 8308 7313
1050.0 5906 4737 4012 3595 3377 3215 3138 3101 3040 2879
1090.0 2589 2237 1868 1570 1331 1191 1200 1452 1912 2342
1130.0 2499 2335 2089 2014 2056 2206 2621 3773 5800 7492
1170.0 7658 6033 3733 2248 1476 1094 955 916 962 1053
1210.0 1163 1304 1569 2089 3087 4729 6787 8280 8130 6283
1250.0 4026 2554 1971 1896 2176 2759 3605 4646 5683 6406
1290.0 6467 5886 5039 4427 3941 3292 2455 1681 1192 962
1330.0 834 788 790 801 796 815 877 1037 1315 1640
1370.0 1850 1876 1678 1464 1324 1331 1410 1627 1909 2141
1410.0 2204 2036 1850 1545 1334 1205 1234 1294 1366 1493
1450.0 1821 2406 3286 3765 4051 4775 6547 9042 10000 9302
1490.0 6411 3804 2336 1667 1395 1261 1102 991 920 795
1530.0 755 703 737 723 757 746 866 994 1215 1455
1570.0 1843 2176 2410 2378 2244 2238 2403 2608 2627 2446
1610.0 2085 1671 1301 937 686 453 344 243 172 162
1650.0 153 135 122 55 75 79 70 54 90 87
1690.0 65 60 93 103 93 90 126 194 156 153
1730.0 176 203 173 185 186 182 164 116 100 59
1770.0 83 60 47 38 51 26 53 29 37 18
1810.0 13 15 3 18 15 37 21 39 45 87
1850.0 74 79 83 101 113 140 133 122 118 101
1890.0 101 88 84 79 73 72 62 61 62 46
1930.0 51 53 54 61 75 63 66 63 70 59
1970.0 59 48 43 39 30 27 24 18 13 16
2010.0 19 28 29 29 34 33 29 19 20 14
2050.0 11 14 16 21 29 28 32 27 32 34
2090.0 34 38 38 38 39 39 39 34 29 25
2130.0 26 23 23 18 16 14 18 15 14 17
2170.0 16 13 10 16 13 14 8 18 22 20
2210.0 19 11 16 12 11 12 11 13 10 12
2250.0 18 9 11 9 5 6 3 13 8 16
2290.0 10 32 35 43 42 51 32 22 26 9
2330.0 11 4 19 7 135 3 59 15 31 50
2370.0 82 82 105 88 75 48 50 50 54 54
2410.0 59 64 53 57 55 55 55 63 65 59
2450.0 66 61 59 55 56 48 49 44 46 40
2490.0 37 37 33 41 40 48 44 54 62 67
2530.0 69 72 71 68 66 64 59 51 47 46
2570.0 43 42 34 32 27 30 28 27 23 33
2610.0 28 30 32 39 39 42 45 49 59 55
2650.0 58 58 64 63 65 69 73 75 81 86
2690.0 88 96 97 114 117 124 133 152 161 166
2730.0 185 182 189 188 198 190 177 181 165 167
2770.0 165 174 177 190 200 202 207 215 221 230
2810.0 243 260 274 292 316 336 365 404 439 492
2850.0 566 656 775 920 1098 1320 1546 1773 1962 2044
2890.0 1988 1864 1730 1642 1595 1613 1707 1875 2153 2508
2930.0 2890 3228 3435 3456 3290 3063 2878 2794 2752 2672
2970.0 2498 2268 1988 1726 1483 1249 1052 844 673 562
3010.0 479 440 419 418 446 481 528 560 557 542
3050.0 492 452 437 433 430 450 481 497 501 463
3090.0 421 383 355 319 276 242 193 151 122 106
3130.0 90 81 77 70 63 69 53 51 58 47
3170.0 45 37 45 47 42 41 34 38 29 36
3210.0 31 36 32 29 30 33 30 24 23 9
3250.0 13 12 18 22 14 19 19 20 7 18
3290.0 12 14 27 26 29 11 19 26 32 37
3330.0 18 16 19 14 19 31 18 14 17 20
3370.0 26 16 11 15 10 16 25 10 23 11
3410.0 30 32 33 34 26 18 19 31 27 31
3450.0 31 14 19 42 32 29 26 23 41 25
3490.0 26 29 37 46 39 39 45 33 46 49
3530.0 50 44 56 54 69 63 52 51 46 83
3570.0 67 63 66 58 71 77 109 76 108 107
3610.0 172 178 219 251 283 445 543 756 937 974
3650.0 930 719 632 606 590 647 561 566 391 404
3690.0 299 248 146 116 106 117 118 102 82 90
3730.0 67 137 117 92 158 77 140 64 77 69
3770.0 60 35 21 62 32 27 25 61 30 70
3810.0 4 71 57 86 62 1 41 62 70 47
3850.0 59 90 48 21 21 54 47 28 59 68
3890.0 12 57 0 42 26 35 10 41 20 24
3930.0 66 42 47 32 49 39 52 26 38 7
##END=
