##TITLE=Benzene, 1-(chloromethyl)-3-(trifluoromethyl)-
##JCAMP-DX=4.24
##DATA TYPE=INFRARED SPECTRUM
##ORIGIN=Sadtler Research Labs Under US-EPA Contract
##OWNER=NIST Standard Reference Data Program
##CAS REGISTRY NO=705-29-3
##MOLFORM=C 8 H 6 Cl F 3
##XUNITS=1/CM
##YUNITS=ABSORBANCE
##XFACTOR=1.0
##YFACTOR=0.000102362
##DELTAX=4.0
##FIRSTX=450.0
##LASTX=3966.0
##FIRSTY=0.005937
##MAXX=3966
##MINX=450
##MAXY=1.02362
##MINY=0
##NPOINTS=880
##XYDATA=(X++(Y..Y))
450.0 58 75 106 65 87 0 122 116 71 78
490.0 102 105 178 75 62 79 70 75 36 50
530.0 63 125 78 71 154 175 276 287 196 169
570.0 64 70 112 86 127 83 82 99 74 111
610.0 73 79 95 139 196 244 239 167 123 99
650.0 211 517 898 916 783 285 83 154 124 246
690.0 453 670 1000 1003 825 718 656 774 1056 1237
730.0 1264 1095 821 655 402 365 407 545 350 333
770.0 268 203 215 228 307 423 535 621 571 472
810.0 317 170 131 76 80 68 104 68 31 50
850.0 45 38 40 29 86 159 141 182 173 184
890.0 199 157 212 235 293 329 361 377 287 197
930.0 154 141 114 91 68 55 40 44 44 33
970.0 36 30 58 47 43 42 52 72 68 79
1010.0 86 78 106 95 108 95 102 96 108 127
1050.0 167 207 320 516 890 1383 1920 2266 2192 1806
1090.0 1369 1127 987 680 457 379 420 490 543 727
1130.0 1117 1890 3148 4903 7247 8850 8687 6849 4778 3824
1170.0 3962 4966 6372 6925 6225 4842 3429 2732 2383 1896
1210.0 1307 827 552 502 469 446 400 397 412 444
1250.0 561 861 1312 1786 1903 1627 1261 977 875 773
1290.0 716 679 731 796 965 1232 1628 2260 3381 5589
1330.0 8389 10000 9020 5289 2263 986 664 456 344 280
1370.0 193 149 123 142 95 114 87 98 149 115
1410.0 169 176 207 224 220 222 230 301 457 607
1450.0 765 747 572 359 265 173 126 128 141 132
1490.0 143 160 155 126 121 32 71 19 12 45
1530.0 56 41 18 1 36 66 66 47 33 83
1570.0 61 53 71 63 108 98 88 144 136 139
1610.0 135 114 95 114 97 89 92 55 63 82
1650.0 19 50 46 65 49 58 67 78 58 51
1690.0 54 59 19 6 47 63 69 75 101 116
1730.0 65 57 54 35 36 30 53 57 58 79
1770.0 65 41 55 62 73 58 58 61 79 64
1810.0 64 59 49 60 51 42 52 54 62 41
1850.0 67 43 51 44 28 45 37 56 50 56
1890.0 71 101 108 96 68 49 52 40 41 59
1930.0 43 42 56 45 59 77 76 64 50 37
1970.0 44 39 35 27 34 25 3 28 34 22
2010.0 22 41 32 29 40 30 29 38 27 33
2050.0 33 18 32 35 39 43 44 50 42 49
2090.0 27 34 29 24 28 27 15 17 15 33
2130.0 25 34 19 24 23 14 18 17 22 32
2170.0 12 25 20 26 15 20 33 28 33 30
2210.0 30 44 39 40 35 32 28 35 30 33
2250.0 33 31 30 37 33 29 22 32 27 29
2290.0 24 20 18 12 5 1 5 7 23 29
2330.0 18 28 11 26 13 20 17 24 4 12
2370.0 15 13 8 8 17 21 13 22 18 21
2410.0 20 24 23 17 14 19 19 15 23 19
2450.0 10 19 12 11 18 17 12 14 21 20
2490.0 28 21 25 22 24 21 14 21 22 20
2530.0 18 18 17 11 14 14 11 13 15 13
2570.0 19 10 9 15 15 13 21 21 18 21
2610.0 15 20 22 18 23 20 19 24 11 19
2650.0 21 23 29 30 29 25 23 15 15 13
2690.0 22 21 21 15 19 24 20 22 23 22
2730.0 30 24 21 18 22 20 18 17 14 21
2770.0 15 13 18 17 24 23 22 18 21 11
2810.0 22 15 12 21 25 23 22 20 25 27
2850.0 28 32 35 34 39 29 38 51 55 49
2890.0 50 45 41 39 32 36 35 36 36 46
2930.0 51 63 75 93 103 122 126 138 169 206
2970.0 248 251 222 181 140 109 104 100 110 120
3010.0 119 110 100 94 98 103 102 105 110 121
3050.0 152 172 184 184 184 188 197 203 206 194
3090.0 178 146 112 82 72 60 55 52 51 51
3130.0 44 32 23 27 23 19 21 19 22 17
3170.0 14 13 15 21 17 14 17 19 21 15
3210.0 14 23 21 23 28 28 23 19 19 18
3250.0 21 20 17 20 12 15 15 17 17 22
3290.0 19 13 13 21 24 21 17 12 22 12
3330.0 14 21 23 22 18 19 24 19 18 25
3370.0 19 19 22 24 24 11 14 15 15 14
3410.0 15 22 25 14 13 21 25 25 15 17
3450.0 20 15 15 11 20 18 15 23 18 12
3490.0 14 30 24 24 12 18 20 29 27 31
3530.0 21 13 23 21 21 35 14 27 19 30
3570.0 38 23 18 38 23 32 26 49 12 31
3610.0 18 23 36 30 51 10 22 34 54 12
3650.0 32 1 53 25 56 35 30 25 36 52
3690.0 12 58 46 56 44 38 35 57 26 44
3730.0 51 13 35 15 28 5 32 14 32 28
3770.0 44 39 38 22 19 29 44 14 38 1
3810.0 62 19 35 1 36 19 28 7 28 21
3850.0 34 7 1 13 9 6 11 8 18 15
3890.0 17 24 14 21 0 31 19 33 47 24
3930.0 43 25 33 12 20 12 6 9 27 13
##END=
