##TITLE=Cyclohexane, (1-methylpropyl)-
##JCAMP-DX=4.24
##DATA TYPE=INFRARED SPECTRUM
##ORIGIN=Sadtler Research Labs Under US-EPA Contract
##OWNER=NIST Standard Reference Data Program
##CAS REGISTRY NO=7058-01-7
##MOLFORM=C 10 H 20
##XUNITS=1/CM
##YUNITS=ABSORBANCE
##XFACTOR=1.0
##YFACTOR=0.000125604
##DELTAX=4.0
##FIRSTX=450.0
##LASTX=3966.0
##FIRSTY=0.032406
##MAXX=3966
##MINX=450
##MAXY=1.25604
##MINY=0
##NPOINTS=880
##XYDATA=(X++(Y..Y))
450.0 258 169 165 140 144 95 197 37 202 10
490.0 141 6 184 117 102 150 113 170 53 166
530.0 105 161 110 135 124 66 193 110 168 78
570.0 157 79 143 119 148 186 58 45 91 126
610.0 115 144 113 132 161 122 41 80 130 102
650.0 128 91 132 111 134 119 111 112 92 122
690.0 90 118 80 114 97 111 98 85 123 61
730.0 72 67 125 92 107 91 99 107 96 111
770.0 77 100 104 106 85 101 81 88 120 93
810.0 116 104 111 90 114 135 151 167 176 185
850.0 141 158 112 116 101 110 98 95 132 137
890.0 167 166 198 163 156 143 148 149 133 142
930.0 114 121 99 110 88 95 88 94 98 109
970.0 144 160 193 186 163 153 118 105 90 96
1010.0 88 101 84 104 100 103 97 102 95 82
1050.0 97 93 102 92 107 93 97 105 95 100
1090.0 93 107 92 96 92 102 95 97 102 97
1130.0 106 97 107 99 125 139 162 182 209 230
1170.0 223 221 180 147 115 117 99 96 94 95
1210.0 101 97 110 100 109 104 100 99 104 112
1250.0 112 135 146 170 185 214 205 192 164 127
1290.0 116 100 109 104 112 111 124 124 133 148
1330.0 165 185 197 216 218 231 237 265 310 377
1370.0 445 462 464 463 464 416 369 273 190 154
1410.0 133 133 123 132 136 164 211 310 464 657
1450.0 823 944 959 890 823 718 616 489 361 252
1490.0 181 142 110 99 85 86 75 77 73 70
1530.0 71 66 68 56 68 64 66 54 62 60
1570.0 57 60 48 61 54 64 54 57 58 53
1610.0 55 51 55 47 56 51 56 47 53 48
1650.0 47 48 52 54 47 55 49 55 56 53
1690.0 51 49 52 44 51 50 53 45 48 49
1730.0 44 42 41 51 38 42 40 45 38 43
1770.0 45 37 43 37 41 40 41 39 40 41
1810.0 43 41 36 45 32 38 35 43 36 35
1850.0 41 39 35 34 37 33 36 35 40 38
1890.0 37 38 35 38 36 38 32 37 33 38
1930.0 35 33 36 34 44 34 34 31 34 28
1970.0 30 31 27 30 31 34 26 33 30 32
2010.0 29 28 30 29 27 24 28 21 23 25
2050.0 31 33 25 25 20 19 13 23 28 32
2090.0 33 33 33 28 36 31 31 30 34 35
2130.0 31 32 28 32 28 38 32 42 27 36
2170.0 30 33 34 31 37 29 36 31 35 30
2210.0 29 28 26 29 24 24 28 25 24 23
2250.0 22 19 21 20 19 16 22 19 21 17
2290.0 23 23 22 25 23 25 26 26 22 27
2330.0 27 27 27 25 24 27 32 24 33 29
2370.0 12 18 17 22 19 20 19 19 19 18
2410.0 14 14 15 15 18 12 15 11 14 14
2450.0 8 8 5 4 4 7 5 15 18 16
2490.0 15 19 18 9 11 8 11 13 10 13
2530.0 15 11 15 16 14 18 17 23 28 29
2570.0 33 39 41 38 50 46 54 57 58 64
2610.0 66 66 70 76 71 75 78 85 84 93
2650.0 102 113 138 142 140 139 136 116 103 90
2690.0 87 87 74 79 84 83 79 91 91 88
2730.0 90 89 88 81 75 68 70 61 65 76
2770.0 84 96 105 120 128 145 160 175 191 199
2810.0 197 212 219 248 296 357 480 688 1007 1462
2850.0 1992 2582 3122 3259 3115 2818 2418 2174 2056 1978
2890.0 1997 2206 2611 3131 3770 4413 5011 5668 6698 8018
2930.0 9457 10000 9382 8083 6253 4739 3833 3808 4233 4417
2970.0 3880 2917 1823 989 588 401 306 242 212 188
3010.0 161 147 127 112 92 88 87 88 82 68
3050.0 79 66 60 57 61 51 58 51 60 59
3090.0 61 51 47 45 33 51 33 36 34 34
3130.0 41 36 35 32 40 41 53 42 47 45
3170.0 45 54 47 50 39 37 35 38 30 20
3210.0 17 16 17 9 23 18 18 18 19 11
3250.0 17 18 21 18 29 30 14 19 22 16
3290.0 23 20 31 26 16 16 23 26 24 26
3330.0 18 23 11 17 30 26 21 21 36 35
3370.0 44 28 39 30 42 42 37 34 13 27
3410.0 39 21 36 21 25 17 14 12 12 16
3450.0 17 12 30 8 12 14 17 7 13 21
3490.0 19 27 23 36 22 25 13 18 14 27
3530.0 23 14 22 18 24 13 30 34 26 28
3570.0 35 37 7 24 23 28 9 18 21 31
3610.0 21 0 20 15 24 38 36 30 27 29
3650.0 36 41 32 31 24 30 5 15 40 46
3690.0 40 41 51 23 29 39 44 52 28 34
3730.0 36 53 26 29 17 45 42 46 21 29
3770.0 49 50 41 47 48 34 36 48 36 41
3810.0 47 51 49 49 40 45 54 36 46 34
3850.0 38 9 34 27 38 37 36 30 57 52
3890.0 30 38 27 26 34 33 43 32 41 17
3930.0 27 33 11 21 45 31 20 25 17 29
##END=
