##TITLE=Cyclopentene, octachloro-
##JCAMP-DX=4.24
##DATA TYPE=INFRARED SPECTRUM
##ORIGIN=Sadtler Research Labs Under US-EPA Contract
##OWNER=NIST Standard Reference Data Program
##CAS REGISTRY NO=706-78-5
##MOLFORM=C 5 Cl 8
##XUNITS=1/CM
##YUNITS=ABSORBANCE
##XFACTOR=1.0
##YFACTOR=0.000166312
##DELTAX=4.0
##FIRSTX=450.0
##LASTX=3966.0
##FIRSTY=0.000000
##MAXX=3966
##MINX=450
##MAXY=1.66312
##MINY=0
##NPOINTS=880
##XYDATA=(X++(Y..Y))
450.0 0 142 335 282 225 320 164 272 243 269
490.0 312 284 263 260 289 262 220 251 146 240
530.0 215 203 163 333 217 278 201 310 240 198
570.0 267 286 228 242 298 326 351 426 518 619
610.0 637 588 526 494 423 351 299 346 330 335
650.0 360 378 369 386 367 423 431 455 468 460
690.0 475 449 466 446 403 409 482 351 365 305
730.0 420 449 431 436 481 494 493 470 520 540
770.0 530 559 644 755 941 1190 1476 1878 2323 2987
810.0 3745 4395 4511 3966 3066 2367 1920 1615 1402 1253
850.0 1105 975 864 782 719 669 647 616 584 537
890.0 507 480 449 433 424 415 415 391 383 389
930.0 381 360 344 355 354 361 365 366 369 373
970.0 370 389 429 486 581 724 981 1399 2115 3236
1010.0 4758 6507 8371 9505 10000 9797 8002 5666 3738 2509
1050.0 2006 1817 1790 1821 1883 1998 2146 2316 2442 2467
1090.0 2387 2215 1975 1736 1506 1294 1127 979 864 756
1130.0 688 605 542 490 468 443 393 349 316 289
1170.0 279 257 248 231 221 216 204 204 207 205
1210.0 214 215 228 235 256 272 300 343 430 546
1250.0 774 1220 1898 2754 3185 2750 1876 1107 669 473
1290.0 388 346 314 297 273 254 231 212 208 200
1330.0 197 192 186 191 187 180 183 176 181 171
1370.0 181 176 169 200 190 205 226 235 252 251
1410.0 264 255 248 222 220 205 206 183 187 200
1450.0 208 174 188 174 201 171 179 180 185 191
1490.0 169 168 156 153 154 111 176 137 160 161
1530.0 179 186 160 171 188 213 203 180 158 195
1570.0 181 177 179 179 186 202 180 225 210 233
1610.0 236 215 216 192 211 185 200 176 184 181
1650.0 125 151 127 181 149 154 146 162 157 133
1690.0 149 161 146 128 173 166 172 156 165 189
1730.0 165 179 143 177 181 171 176 185 180 183
1770.0 174 168 191 191 191 188 183 185 198 188
1810.0 191 192 192 192 182 176 191 185 196 174
1850.0 184 185 183 187 183 189 180 186 183 180
1890.0 184 185 186 182 183 176 187 177 188 187
1930.0 180 185 190 196 182 189 187 190 190 187
1970.0 182 182 186 183 176 188 173 182 179 178
2010.0 171 173 178 173 175 176 166 169 174 171
2050.0 179 177 176 181 178 174 174 172 179 176
2090.0 176 173 168 169 171 167 176 170 173 173
2130.0 173 171 171 174 176 179 186 183 180 182
2170.0 178 173 176 175 176 180 177 173 167 162
2210.0 162 162 162 161 163 157 159 162 158 160
2250.0 162 161 159 159 160 164 166 162 165 166
2290.0 171 181 184 180 187 196 186 183 184 169
2330.0 176 167 162 163 178 187 188 182 195 173
2370.0 179 182 170 171 164 158 157 154 151 151
2410.0 150 152 152 156 152 154 153 152 151 149
2450.0 149 148 149 150 150 149 150 147 151 142
2490.0 144 140 141 141 139 140 138 138 136 139
2530.0 134 131 126 129 135 132 139 145 147 145
2570.0 146 146 145 146 143 144 148 145 148 145
2610.0 140 147 144 144 150 148 145 144 145 148
2650.0 149 156 143 151 150 147 156 155 157 145
2690.0 144 144 138 161 154 150 151 147 148 154
2730.0 171 143 146 149 142 172 170 159 144 159
2770.0 149 177 189 160 165 158 167 187 190 157
2810.0 179 162 186 205 188 172 180 167 193 196
2850.0 180 181 181 188 210 196 198 205 202 209
2890.0 215 227 244 265 307 308 300 285 263 274
2930.0 241 230 235 257 297 321 369 510 744 1015
2970.0 1187 1096 885 618 397 286 250 256 225 200
3010.0 210 222 227 185 191 200 196 181 201 207
3050.0 195 196 217 212 203 213 211 201 192 196
3090.0 192 182 185 180 176 181 178 181 172 163
3130.0 160 152 149 151 148 148 138 139 142 140
3170.0 142 143 142 141 141 134 137 131 133 133
3210.0 136 136 134 134 130 133 135 136 134 139
3250.0 134 135 136 135 136 144 140 141 141 145
3290.0 145 145 139 138 142 138 141 144 143 140
3330.0 141 138 141 141 134 137 138 137 140 138
3370.0 144 137 139 140 138 138 136 136 140 136
3410.0 135 141 135 141 141 133 142 134 140 140
3450.0 140 143 142 141 126 141 146 143 135 142
3490.0 134 133 136 147 138 143 144 136 138 143
3530.0 140 138 143 142 137 141 144 163 141 159
3570.0 155 159 150 155 149 145 160 153 162 153
3610.0 159 161 151 164 157 142 162 158 165 163
3650.0 146 154 151 171 156 155 135 157 153 168
3690.0 151 150 174 157 161 160 152 165 163 177
3730.0 162 141 168 144 149 138 155 137 157 159
3770.0 162 166 159 159 162 160 167 155 158 151
3810.0 137 161 164 144 160 167 161 157 181 142
3850.0 170 133 177 160 165 161 147 152 152 157
3890.0 143 165 172 154 143 150 151 149 157 153
3930.0 138 161 157 180 146 143 139 155 154 145
##END=
