##TITLE=Propanoic acid, 2-(4-chloro-2-methylphenoxy)-, (.+/-.)-
##JCAMP-DX=4.24
##DATA TYPE=INFRARED SPECTRUM
##ORIGIN=Sadtler Research Labs Under US-EPA Contract
##OWNER=NIST Standard Reference Data Program
##CAS REGISTRY NO=7085-19-0
##MOLFORM=C 10 H 11 Cl O 3
##XUNITS=1/CM
##YUNITS=ABSORBANCE
##XFACTOR=1.0
##YFACTOR=0.000047464
##DELTAX=4.0
##FIRSTX=450.0
##LASTX=3966.0
##FIRSTY=0.034032
##MAXX=3966
##MINX=450
##MAXY=0.47464
##MINY=0
##NPOINTS=880
##XYDATA=(X++(Y..Y))
450.0 717 646 717 585 797 798 779 761 763 816
490.0 856 918 886 874 905 890 901 950 980 1025
530.0 1053 1160 1307 1371 1561 1733 1996 2128 2251 2268
570.0 2211 2191 2147 2130 1969 1913 1858 1779 1679 1636
610.0 1523 1549 1439 1313 1156 977 885 749 747 770
650.0 854 1082 1557 1976 2086 1573 924 528 339 334
690.0 237 289 188 211 190 194 189 165 203 183
730.0 260 297 379 421 439 436 458 497 542 703
770.0 862 1067 1153 1209 1195 1164 1293 1469 1660 1569
810.0 1359 1079 844 628 535 452 402 353 256 238
850.0 192 237 289 538 1003 1743 2487 2567 1996 1094
890.0 467 226 144 71 60 13 12 13 42 76
930.0 102 186 199 223 200 169 126 97 96 91
970.0 111 136 189 236 329 418 509 550 564 610
1010.0 669 828 1058 1350 1659 1919 2070 2062 2038 1942
1050.0 1885 1830 1880 2038 2347 2844 3465 4262 5151 6193
1090.0 7155 7939 8229 7841 6870 5679 4950 4809 5267 5838
1130.0 6211 6035 5449 4746 4169 3802 3603 3623 3717 3999
1170.0 4349 5047 6430 8221 9069 7870 5384 3132 1984 1508
1210.0 1384 1437 1748 2352 3400 5003 7025 8990 9339 7792
1250.0 5101 3084 2190 1938 1944 2072 2238 2403 2527 2447
1290.0 2190 1844 1593 1407 1332 1312 1373 1489 1643 1796
1330.0 1888 1964 1919 1849 1754 1703 1661 1631 1653 1644
1370.0 1696 1760 1949 2035 2019 1862 1790 1813 1715 1433
1410.0 988 715 543 536 474 573 615 715 793 920
1450.0 1106 1149 1377 1463 1969 2571 3920 5808 7380 9808
1490.0 10000 9217 6108 3481 2418 1488 1205 898 756 556
1530.0 415 398 316 327 228 243 192 214 186 187
1570.0 230 246 316 362 421 508 590 695 651 628
1610.0 521 448 385 340 321 276 295 272 273 223
1650.0 244 182 155 131 127 131 118 135 128 154
1690.0 140 163 166 191 236 241 293 344 465 501
1730.0 709 851 1113 1334 1683 2052 2418 2884 3358 4258
1770.0 5093 6479 6722 6653 5952 5942 6449 7083 7285 6603
1810.0 5540 3985 2705 1799 1416 1041 883 709 638 508
1850.0 429 367 289 250 197 194 128 136 103 98
1890.0 84 83 75 55 72 50 52 37 51 21
1930.0 31 28 32 33 23 41 29 42 32 45
1970.0 30 32 32 25 30 37 50 40 62 61
2010.0 75 69 72 66 45 46 32 29 19 27
2050.0 17 26 22 21 20 12 17 2 9 0
2090.0 9 8 10 12 7 15 12 23 9 22
2130.0 12 8 9 8 10 8 13 9 16 7
2170.0 17 16 13 10 17 24 20 30 21 23
2210.0 17 24 17 21 19 20 24 22 34 28
2250.0 42 45 47 47 46 42 40 42 41 50
2290.0 45 58 68 67 76 84 70 49 74 43
2330.0 57 40 40 46 62 84 62 73 44 41
2370.0 39 71 72 78 61 43 40 33 40 34
2410.0 41 40 47 39 37 30 25 29 24 32
2450.0 39 44 57 67 70 81 86 75 80 69
2490.0 62 47 42 41 47 50 52 52 49 56
2530.0 49 48 42 31 24 20 21 15 19 14
2570.0 21 13 11 10 10 11 10 8 7 9
2610.0 9 14 9 15 16 17 17 9 15 6
2650.0 15 15 22 22 22 26 25 25 20 25
2690.0 23 23 12 22 15 26 23 15 24 25
2730.0 20 32 41 41 45 50 45 43 34 42
2770.0 29 39 39 34 40 40 41 50 45 48
2810.0 58 59 75 84 90 104 131 144 155 170
2850.0 182 219 250 283 322 366 406 431 465 475
2890.0 492 486 475 481 515 551 602 679 799 959
2930.0 1135 1313 1429 1502 1503 1390 1198 967 820 742
2970.0 714 706 709 749 834 1028 1284 1553 1626 1382
3010.0 980 642 443 363 345 364 398 431 441 402
3050.0 356 311 291 303 307 306 296 293 292 287
3090.0 279 273 260 262 249 217 175 139 111 92
3130.0 78 62 69 57 56 54 63 50 43 47
3170.0 37 43 42 57 37 40 27 37 38 27
3210.0 31 35 45 40 35 35 38 32 31 33
3250.0 20 24 25 28 20 30 13 25 28 26
3290.0 35 28 31 25 35 20 19 21 15 19
3330.0 12 23 10 17 10 19 7 7 11 36
3370.0 24 20 16 20 17 4 13 20 24 25
3410.0 25 35 33 39 38 38 35 37 35 45
3450.0 52 55 65 69 88 92 112 131 163 203
3490.0 260 389 500 630 745 844 850 804 738 686
3530.0 618 584 550 517 492 489 582 775 1339 2352
3570.0 3767 4363 3797 2476 1419 776 522 343 234 139
3610.0 137 75 74 77 72 110 100 134 181 220
3650.0 232 200 145 101 64 65 75 88 35 29
3690.0 54 58 54 58 57 55 79 42 57 72
3730.0 54 104 75 74 75 100 72 63 52 46
3770.0 71 47 51 52 56 50 37 42 72 46
3810.0 48 41 42 84 75 77 77 52 77 49
3850.0 49 91 63 26 73 71 90 70 64 75
3890.0 71 47 74 60 72 66 23 59 74 64
3930.0 52 65 49 67 85 56 55 38 95 68
##END=
