##TITLE=1-Pentanone, 1-(4-fluorophenyl)-
##JCAMP-DX=4.24
##DATA TYPE=INFRARED SPECTRUM
##ORIGIN=Sadtler Research Labs Under US-EPA Contract
##OWNER=NIST Standard Reference Data Program
##CAS REGISTRY NO=709-24-0
##MOLFORM=C 11 H 13 F O
##XUNITS=1/CM
##YUNITS=ABSORBANCE
##XFACTOR=1.0
##YFACTOR=0.000089935
##DELTAX=4.0
##FIRSTX=450.0
##LASTX=3966.0
##FIRSTY=0.044698
##MAXX=3966
##MINX=450
##MAXY=0.89935
##MINY=0
##NPOINTS=880
##XYDATA=(X++(Y..Y))
450.0 497 178 77 119 74 141 217 139 267 243
490.0 418 379 549 479 408 435 354 364 265 384
530.0 310 428 349 444 401 502 689 750 859 829
570.0 938 1078 1318 1292 1120 1007 941 935 764 720
610.0 549 456 320 322 274 234 278 280 279 234
650.0 286 240 242 195 211 199 187 229 203 241
690.0 208 264 247 239 194 195 179 178 220 185
730.0 254 270 344 348 413 451 497 557 537 528
770.0 427 418 355 386 392 419 453 540 669 899
810.0 1204 1419 1472 1405 1534 1940 2511 2962 3167 2935
850.0 2311 1641 1037 673 493 457 448 419 425 380
890.0 353 273 245 196 184 164 164 166 158 203
930.0 218 261 290 379 462 584 692 798 934 1045
970.0 1090 983 814 648 525 488 500 644 919 1432
1010.0 2017 2222 1873 1244 758 509 347 257 216 204
1050.0 211 239 268 279 296 304 334 383 449 417
1090.0 434 495 603 669 679 611 508 410 336 320
1130.0 291 309 313 473 634 1821 4460 5434 4485 1869
1170.0 675 719 726 944 1134 1474 1912 2628 3456 3848
1210.0 3777 3277 3085 2982 3211 3784 5364 8112 10000 9482
1250.0 6344 4208 3463 3314 3134 2860 2393 2012 1770 1613
1290.0 1530 1451 1441 1416 1441 1430 1468 1444 1413 1348
1330.0 1255 1204 1201 1323 1444 1566 1631 1633 1535 1348
1370.0 1143 904 761 688 676 620 586 646 928 1312
1410.0 1519 1440 1051 807 649 599 585 673 817 959
1450.0 1059 1084 1079 1056 1052 973 864 776 763 867
1490.0 1046 1265 1477 2260 3399 3891 3144 1735 748 454
1530.0 322 282 234 210 224 243 251 242 294 351
1570.0 430 565 756 1097 1665 2665 4242 6374 7727 7141
1610.0 4995 2887 1605 1060 759 577 422 332 327 331
1650.0 354 395 455 487 494 511 572 737 1063 1741
1690.0 3027 4783 6672 7809 7500 5871 3805 2045 1141 697
1730.0 471 350 305 290 250 268 280 299 286 291
1770.0 264 243 252 219 193 147 130 103 96 98
1810.0 96 86 75 74 54 51 43 58 37 37
1850.0 47 50 51 51 63 54 88 96 115 113
1890.0 112 106 97 102 92 94 82 82 74 82
1930.0 90 92 88 65 62 47 45 40 46 38
1970.0 44 49 40 35 38 45 34 31 16 21
2010.0 22 23 29 32 54 54 58 53 60 54
2050.0 61 68 76 90 86 93 81 75 49 41
2090.0 23 15 15 11 16 7 13 4 6 6
2130.0 5 4 5 7 4 10 3 7 5 9
2170.0 10 8 11 11 14 13 14 8 14 14
2210.0 17 12 15 19 18 21 15 20 14 20
2250.0 26 35 34 35 35 23 27 22 27 33
2290.0 46 53 58 69 75 86 76 74 58 43
2330.0 22 15 20 1 3 53 32 39 3 2
2370.0 2 2 4 33 50 56 63 72 79 74
2410.0 66 69 75 65 75 68 75 73 65 56
2450.0 48 52 47 52 59 71 74 83 74 62
2490.0 46 34 36 26 30 25 34 39 50 49
2530.0 44 47 47 52 43 60 61 73 67 77
2570.0 87 92 108 118 128 118 107 87 77 70
2610.0 61 51 39 40 35 37 33 43 42 51
2650.0 49 38 45 47 54 69 86 95 98 97
2690.0 97 91 87 85 74 86 74 74 74 80
2730.0 82 93 112 114 128 122 128 116 106 96
2770.0 101 113 114 125 126 145 139 158 168 191
2810.0 203 216 234 240 259 251 283 299 336 372
2850.0 428 529 681 897 1190 1496 1707 1837 2000 2057
2890.0 1939 1680 1521 1520 1582 1647 1723 1854 2054 2281
2930.0 2562 2927 3305 3597 3650 3411 3135 3186 3688 4488
2970.0 5051 4790 3760 2508 1606 1104 839 661 544 460
3010.0 390 352 317 304 282 290 271 285 262 297
3050.0 321 390 427 450 474 505 516 524 566 558
3090.0 459 328 243 236 208 223 216 192 177 161
3130.0 142 109 94 91 88 85 78 77 64 69
3170.0 60 64 69 82 65 77 97 89 71 50
3210.0 42 43 56 35 45 31 37 25 24 35
3250.0 24 39 15 22 20 33 47 40 55 54
3290.0 61 60 63 59 56 66 65 59 69 61
3330.0 49 54 60 55 51 68 79 84 76 94
3370.0 109 122 150 159 177 160 161 145 106 87
3410.0 98 78 53 69 53 66 60 63 66 65
3450.0 41 50 59 42 43 59 52 49 38 46
3490.0 43 51 52 51 35 38 28 42 33 42
3530.0 55 43 39 39 53 36 43 40 37 59
3570.0 72 53 78 80 88 78 46 47 61 43
3610.0 31 35 24 19 36 18 26 25 32 30
3650.0 11 38 30 29 23 46 33 37 24 11
3690.0 32 24 26 26 27 21 54 69 58 46
3730.0 15 27 22 0 32 26 39 9 15 50
3770.0 15 20 11 38 22 15 33 19 35 28
3810.0 39 16 23 24 21 26 39 23 22 20
3850.0 42 6 44 42 45 10 22 38 22 27
3890.0 24 13 35 27 14 67 49 39 29 28
3930.0 39 15 3 2 19 8 6 31 69 23
##END=
