##TITLE=1-Propanol
##JCAMP-DX=4.24
##DATA TYPE=INFRARED SPECTRUM
##ORIGIN=Sadtler Research Labs Under US-EPA Contract
##OWNER=NIST Standard Reference Data Program
##CAS REGISTRY NO=71-23-8
##MOLFORM=C 3 H 8 O
##XUNITS=1/CM
##YUNITS=ABSORBANCE
##XFACTOR=1.0
##YFACTOR=0.000091452
##DELTAX=4.0
##FIRSTX=450.0
##LASTX=3966.0
##FIRSTY=0.030728
##MAXX=3966
##MINX=450
##MAXY=0.91452
##MINY=0
##NPOINTS=880
##XYDATA=(X++(Y..Y))
450.0 336 354 428 449 456 388 381 434 461 349
490.0 285 267 226 169 130 162 94 106 65 97
530.0 61 97 53 50 32 58 79 76 71 56
570.0 70 62 65 25 77 93 61 72 50 56
610.0 76 43 63 58 60 13 74 38 65 44
650.0 59 43 25 41 2 43 39 41 39 52
690.0 45 34 31 22 33 31 25 43 51 42
730.0 48 49 42 59 64 90 82 93 81 83
770.0 74 89 68 47 64 80 63 57 60 60
810.0 65 74 92 83 128 151 162 200 231 265
850.0 293 317 360 367 419 460 500 510 510 531
890.0 567 592 605 597 585 580 566 578 588 625
930.0 695 777 925 1163 1507 1945 2394 2770 2872 2999
970.0 3222 2971 3250 3485 3331 3090 2847 2754 2761 2805
1010.0 2777 2687 2789 2984 3415 3862 4099 4391 4845 5261
1050.0 5441 5665 5839 6266 6708 6147 4998 4050 3530 3171
1090.0 2836 2499 2171 1897 1665 1478 1291 1104 948 816
1130.0 714 643 595 560 528 522 510 521 529 544
1170.0 563 590 637 694 763 843 933 1027 1138 1217
1210.0 1293 1344 1391 1430 1425 1404 1348 1303 1253 1180
1250.0 1093 1012 964 926 911 897 891 875 869 853
1290.0 846 842 831 828 822 825 824 845 861 886
1330.0 913 944 988 999 1034 1064 1107 1165 1243 1295
1370.0 1382 1502 1623 1722 1779 1840 1780 1718 1741 1674
1410.0 1466 1200 998 866 833 814 858 882 1007 1103
1450.0 1147 1195 1213 1327 1335 1244 1323 1203 1090 966
1490.0 900 791 676 568 449 361 336 252 204 181
1530.0 157 137 83 89 78 94 69 62 13 75
1570.0 55 67 38 79 67 73 83 69 76 65
1610.0 87 45 63 43 66 42 58 25 65 19
1650.0 68 4 61 59 46 44 43 39 76 6
1690.0 49 44 7 0 30 36 32 34 34 37
1730.0 36 36 20 57 51 74 73 72 69 74
1770.0 68 42 59 52 67 42 41 35 50 37
1810.0 40 42 47 45 50 42 43 47 32 39
1850.0 36 36 29 36 27 32 23 30 29 30
1890.0 30 33 35 33 39 41 53 54 61 68
1930.0 68 67 66 68 66 66 60 54 45 40
1970.0 38 34 32 23 27 30 30 29 30 36
2010.0 36 39 47 49 50 57 53 61 66 72
2050.0 74 68 74 72 58 53 54 50 46 38
2090.0 34 33 28 26 25 24 25 23 15 13
2130.0 9 13 11 8 10 15 19 15 13 19
2170.0 16 18 22 26 29 33 33 32 39 39
2210.0 30 29 22 29 25 27 28 27 28 30
2250.0 28 28 29 28 23 26 22 25 30 32
2290.0 39 45 49 46 56 59 53 46 45 39
2330.0 42 35 35 38 34 45 38 33 35 50
2370.0 46 49 50 54 46 38 40 41 45 49
2410.0 52 53 47 47 45 47 41 39 39 34
2450.0 28 30 27 26 23 19 12 11 5 6
2490.0 11 3 3 8 10 10 17 17 17 21
2530.0 22 26 26 28 28 37 39 43 48 44
2570.0 45 38 39 34 41 41 43 55 55 62
2610.0 61 58 65 68 72 81 81 76 81 94
2650.0 94 104 115 123 125 128 135 145 152 160
2690.0 171 184 195 203 213 226 244 269 287 312
2730.0 340 362 397 422 442 461 479 502 511 525
2770.0 535 544 557 569 582 603 611 634 653 686
2810.0 723 778 857 946 1054 1194 1377 1597 1855 2158
2850.0 2493 2873 3256 3704 4229 4775 5396 5978 6331 6370
2890.0 6541 6637 6782 6963 7024 7042 7099 7232 7424 7634
2930.0 7870 8382 9086 9357 9138 9266 9310 9308 9545 9380
2970.0 10000 9312 7624 7161 6775 6161 5333 4339 3394 2582
3010.0 1950 1453 1107 842 646 510 412 354 303 277
3050.0 256 239 235 237 229 218 226 220 229 217
3090.0 224 224 223 214 209 213 204 190 187 170
3130.0 158 148 140 138 125 125 123 115 118 122
3170.0 124 123 120 113 121 117 104 103 100 91
3210.0 84 78 70 63 61 67 68 57 61 54
3250.0 53 58 46 47 48 50 31 28 43 38
3290.0 25 24 18 18 20 11 30 9 15 14
3330.0 10 17 18 17 18 20 11 20 25 28
3370.0 34 36 21 20 20 31 31 32 39 39
3410.0 41 45 67 64 61 65 66 61 59 57
3450.0 65 63 73 72 72 76 86 80 75 85
3490.0 78 73 73 75 78 67 49 56 61 74
3530.0 61 54 57 49 75 57 45 62 49 62
3570.0 73 58 58 74 80 102 78 89 98 106
3610.0 133 164 211 228 283 314 402 520 649 793
3650.0 971 1232 1442 1503 1559 1643 1557 1566 1501 1350
3690.0 1168 1014 776 563 381 299 212 172 144 151
3730.0 97 91 68 79 32 75 31 69 91 66
3770.0 83 96 101 72 105 97 121 85 86 52
3810.0 133 85 110 96 117 84 98 67 137 121
3850.0 115 75 104 126 122 84 156 131 108 135
3890.0 97 96 147 85 69 80 64 70 76 84
3930.0 85 87 54 64 63 58 50 94 73 70
##END=
