##TITLE=1-Butanol
##JCAMP-DX=4.24
##DATA TYPE=INFRARED SPECTRUM
##ORIGIN=Sadtler Research Labs Under US-EPA Contract
##OWNER=NIST Standard Reference Data Program
##CAS REGISTRY NO=71-36-3
##MOLFORM=C 4 H 10 O
##XUNITS=1/CM
##YUNITS=ABSORBANCE
##XFACTOR=1.0
##YFACTOR=0.000126709
##DELTAX=4.0
##FIRSTX=450.0
##LASTX=3966.0
##FIRSTY=0.038646
##MAXX=3966
##MINX=450
##MAXY=1.26709
##MINY=0
##NPOINTS=880
##XYDATA=(X++(Y..Y))
450.0 305 269 660 187 460 365 337 281 505 467
490.0 204 943 743 324 1074 115 335 277 401 329
530.0 443 103 209 48 434 191 13 319 371 295
570.0 554 401 381 299 241 78 190 288 237 289
610.0 227 285 282 276 285 280 275 257 284 269
650.0 272 262 266 256 256 268 248 265 242 280
690.0 261 272 249 265 261 279 257 285 302 315
730.0 326 332 340 370 345 364 332 358 324 329
770.0 298 308 259 317 279 328 291 327 303 317
810.0 320 341 400 479 450 482 539 578 619 635
850.0 604 627 645 631 538 499 492 456 457 452
890.0 471 476 496 499 532 540 585 601 670 722
930.0 815 898 1012 1096 1170 1211 1240 1270 1286 1252
970.0 1237 1238 1284 1311 1351 1396 1576 1678 1832 1956
1010.0 2239 2580 2938 3270 3667 4055 4441 4699 4727 4712
1050.0 4703 4638 4415 4126 4005 3932 3815 3652 3382 2962
1090.0 2552 2210 1928 1700 1489 1315 1171 1062 944 860
1130.0 776 727 673 659 628 620 619 640 634 674
1170.0 696 738 769 817 862 912 956 997 1023 1067
1210.0 1073 1096 1071 1080 1057 1038 998 989 965 960
1250.0 953 958 959 971 988 984 986 986 967 944
1290.0 931 900 865 826 801 783 776 778 796 815
1330.0 862 894 920 923 949 957 990 1004 1066 1152
1370.0 1308 1460 1597 1695 1754 1770 1753 1606 1406 1196
1410.0 1018 886 813 768 764 783 826 886 978 1050
1450.0 1147 1212 1284 1330 1358 1308 1264 1198 1096 981
1490.0 858 736 603 498 424 358 307 273 243 227
1530.0 202 204 191 187 176 182 167 173 158 162
1570.0 149 152 148 151 139 144 132 140 132 142
1610.0 125 137 129 133 121 126 124 124 118 124
1650.0 116 128 117 116 109 120 112 109 107 116
1690.0 104 104 108 104 104 100 104 99 98 100
1730.0 108 102 111 101 102 97 105 92 100 91
1770.0 103 90 98 91 92 83 93 81 87 76
1810.0 84 76 87 79 84 76 83 75 77 76
1850.0 83 73 76 74 78 74 77 69 69 75
1890.0 79 70 74 79 74 76 76 78 75 80
1930.0 77 82 77 87 83 77 78 84 71 74
1970.0 74 78 76 85 77 83 77 86 75 83
2010.0 82 94 84 97 93 102 97 105 93 98
2050.0 89 91 81 84 80 80 74 75 70 67
2090.0 69 65 66 67 66 57 54 58 57 47
2130.0 49 50 49 46 49 42 48 46 50 40
2170.0 53 48 52 42 55 45 50 46 52 47
2210.0 49 43 44 34 46 40 39 36 44 33
2250.0 39 38 37 37 44 38 40 43 44 43
2290.0 44 52 56 54 63 68 67 73 68 54
2330.0 58 61 39 27 24 58 50 49 17 7
2370.0 0 11 3 23 27 42 34 45 43 51
2410.0 42 49 42 45 42 44 33 34 31 29
2450.0 17 23 20 18 8 17 12 9 3 5
2490.0 3 7 9 9 10 17 20 12 19 18
2530.0 21 16 25 16 26 27 35 25 34 34
2570.0 36 29 41 36 41 40 52 44 57 49
2610.0 61 58 75 68 77 73 85 79 91 89
2650.0 96 94 115 112 118 126 142 141 149 160
2690.0 159 163 170 181 181 197 201 220 226 258
2730.0 266 289 309 334 343 364 371 390 387 407
2770.0 401 421 431 456 457 481 498 530 543 588
2810.0 614 664 714 796 881 1026 1184 1399 1645 1951
2850.0 2290 2671 3118 3614 4163 4762 5472 6068 6330 6411
2890.0 6519 6618 6605 6522 6556 6702 7065 7453 7937 8490
2930.0 9063 9557 9921 10000 9935 9811 9848 9895 9812 9763
2970.0 9072 8178 7516 6652 5493 4134 3052 2238 1663 1226
3010.0 934 709 568 466 419 360 343 322 300 278
3050.0 277 255 242 223 221 208 185 179 163 156
3090.0 156 146 137 149 134 133 119 118 110 104
3130.0 99 109 97 97 91 103 87 100 84 95
3170.0 82 99 86 97 80 97 78 88 73 70
3210.0 68 65 44 59 57 45 31 34 39 41
3250.0 26 37 19 19 20 22 15 26 19 16
3290.0 0 21 24 13 25 22 29 26 27 19
3330.0 19 16 29 11 28 16 35 29 32 11
3370.0 30 28 39 21 37 20 35 20 38 30
3410.0 44 32 41 39 54 51 33 57 73 51
3450.0 36 50 66 79 47 58 71 76 66 70
3490.0 60 68 77 47 31 66 35 30 29 39
3530.0 30 42 29 48 21 62 28 48 28 59
3570.0 31 51 46 58 44 64 52 58 55 97
3610.0 77 114 139 167 191 239 283 340 447 593
3650.0 743 918 1073 1247 1381 1417 1384 1276 1159 1012
3690.0 811 587 422 287 218 164 157 135 136 98
3730.0 114 78 89 88 109 89 86 68 111 52
3770.0 92 63 114 82 79 65 95 87 93 66
3810.0 101 101 127 98 122 113 146 134 146 120
3850.0 151 116 122 149 119 129 108 140 133 113
3890.0 107 131 105 95 72 111 107 100 62 127
3930.0 87 54 85 129 80 54 86 109 81 119
##END=
