##TITLE=1-Pentanol
##JCAMP-DX=4.24
##DATA TYPE=INFRARED SPECTRUM
##ORIGIN=Sadtler Research Labs Under US-EPA Contract
##OWNER=NIST Standard Reference Data Program
##CAS REGISTRY NO=71-41-0
##MOLFORM=C 5 H 12 O
##XUNITS=1/CM
##YUNITS=ABSORBANCE
##XFACTOR=1.0
##YFACTOR=0.000138123
##DELTAX=4.0
##FIRSTX=450.0
##LASTX=3966.0
##FIRSTY=0.000000
##MAXX=3966
##MINX=450
##MAXY=1.38123
##MINY=0
##NPOINTS=880
##XYDATA=(X++(Y..Y))
450.0 0 354 417 698 854 443 571 398 265 423
490.0 942 598 419 315 769 832 298 393 375 481
530.0 378 467 340 549 340 495 468 233 340 451
570.0 586 493 634 491 234 439 382 405 398 433
610.0 396 395 401 412 520 469 371 411 379 384
650.0 376 374 368 400 357 387 379 372 387 381
690.0 377 384 394 416 390 391 373 379 392 367
730.0 379 413 413 412 465 470 502 509 542 555
770.0 561 577 570 543 524 499 506 499 452 477
810.0 472 497 511 456 412 406 383 407 415 411
850.0 392 402 412 416 427 437 464 492 514 563
890.0 603 626 656 684 693 686 684 664 667 663
930.0 661 670 693 728 784 842 908 1012 1080 1170
970.0 1201 1320 1396 1464 1566 1698 1811 1985 2228 2477
1010.0 2699 2784 2954 3128 3335 3654 4036 4543 4910 5156
1050.0 5163 4892 4307 3368 2439 1686 1182 955 879 877
1090.0 897 928 955 972 977 970 949 922 883 844
1130.0 813 793 780 779 782 792 797 809 811 811
1170.0 802 783 768 768 777 797 830 877 927 988
1210.0 1030 1046 1057 1052 1032 1002 964 929 901 877
1250.0 861 849 847 849 842 846 847 846 840 834
1290.0 826 818 805 802 793 787 779 776 780 785
1330.0 800 814 833 859 883 912 960 1017 1108 1210
1370.0 1325 1448 1545 1631 1691 1661 1553 1434 1239 1055
1410.0 877 767 667 633 598 616 646 747 861 1036
1450.0 1264 1460 1684 1825 1879 1924 1782 1601 1405 1187
1490.0 965 784 645 524 466 433 386 383 375 368
1530.0 358 350 363 340 360 344 361 336 356 335
1570.0 351 332 357 325 345 332 335 317 327 320
1610.0 321 310 326 303 318 298 319 304 312 305
1650.0 322 290 331 294 308 302 313 285 314 290
1690.0 296 282 297 281 288 281 276 282 280 279
1730.0 272 292 266 281 277 281 281 286 280 284
1770.0 288 277 283 272 277 263 267 268 264 266
1810.0 268 269 268 267 268 266 270 269 273 260
1850.0 268 265 262 264 266 263 265 263 259 263
1890.0 258 258 256 258 260 260 262 262 259 266
1930.0 264 266 263 269 262 266 271 265 265 265
1970.0 264 266 263 259 258 258 260 256 265 266
2010.0 270 272 276 280 280 280 282 281 286 287
2050.0 290 294 296 296 296 293 295 295 291 287
2090.0 286 280 275 270 268 267 267 267 265 262
2130.0 262 258 260 259 258 258 258 253 256 256
2170.0 255 251 254 253 248 250 251 253 250 252
2210.0 252 251 250 248 250 248 251 247 250 244
2250.0 250 243 247 247 244 245 245 246 243 241
2290.0 241 239 229 235 230 234 230 237 248 232
2330.0 239 250 238 231 281 227 272 243 234 227
2370.0 238 227 232 236 243 250 262 264 264 263
2410.0 271 267 269 270 268 266 265 264 263 262
2450.0 260 256 254 251 250 250 249 247 243 243
2490.0 238 240 239 239 236 239 238 243 239 242
2530.0 240 242 245 246 248 254 262 266 277 280
2570.0 277 279 284 285 286 288 286 291 291 295
2610.0 294 298 302 303 304 313 312 314 313 319
2650.0 320 320 325 332 341 346 352 358 362 374
2690.0 378 383 392 400 402 408 421 431 454 480
2730.0 504 524 546 565 577 578 578 579 579 584
2770.0 594 604 616 627 643 655 663 673 681 695
2810.0 721 746 778 816 872 937 1005 1113 1261 1467
2850.0 1740 2109 2550 3096 3736 4454 5205 5768 6213 6495
2890.0 6565 6302 6161 5936 5871 5961 6161 6438 6697 6999
2930.0 7059 7123 7009 6908 6810 6854 7112 7822 8757 9514
2970.0 10000 9180 8233 7187 5740 4210 2886 1926 1341 1009
3010.0 815 699 635 593 564 547 533 524 504 504
3050.0 487 502 491 487 474 459 460 448 431 432
3090.0 417 404 410 402 382 392 365 367 369 368
3130.0 363 362 361 369 357 360 363 365 375 373
3170.0 383 365 354 352 337 340 346 330 307 295
3210.0 296 282 275 283 279 278 278 280 276 268
3250.0 266 277 266 272 272 278 275 278 280 275
3290.0 267 264 252 264 256 258 245 268 269 261
3330.0 248 266 270 262 274 270 249 260 255 244
3370.0 269 262 242 237 239 241 243 241 243 254
3410.0 249 239 232 244 239 255 256 248 267 266
3450.0 271 292 290 278 285 288 278 287 301 287
3490.0 265 283 287 275 287 281 286 300 249 253
3530.0 266 256 274 269 258 278 269 252 243 251
3570.0 224 255 263 245 264 249 261 234 270 257
3610.0 269 248 256 300 315 313 355 403 492 522
3650.0 627 816 970 1180 1224 1347 1319 1305 1153 1018
3690.0 846 686 498 385 350 317 281 265 302 244
3730.0 260 241 230 222 273 236 255 289 237 227
3770.0 233 269 242 246 229 243 252 311 260 284
3810.0 277 243 294 236 253 269 232 271 284 264
3850.0 249 290 274 311 293 282 305 287 273 304
3890.0 294 292 277 225 229 304 283 269 250 267
3930.0 302 265 262 230 257 243 239 252 244 248
##END=
