##TITLE=Ethane, 1,1,1-trichloro-
##JCAMP-DX=4.24
##DATA TYPE=INFRARED SPECTRUM
##ORIGIN=Sadtler Research Labs Under US-EPA Contract
##OWNER=NIST Standard Reference Data Program
##CAS REGISTRY NO=71-55-6
##MOLFORM=C 2 H 3 Cl 3
##XUNITS=1/CM
##YUNITS=ABSORBANCE
##XFACTOR=1.0
##YFACTOR=0.000128809
##DELTAX=4.0
##FIRSTX=450.0
##LASTX=3966.0
##FIRSTY=0.009789
##MAXX=3966
##MINX=450
##MAXY=1.28809
##MINY=0
##NPOINTS=880
##XYDATA=(X++(Y..Y))
450.0 76 47 23 33 26 38 32 35 33 24
490.0 35 15 49 53 88 139 226 192 274 382
530.0 226 244 242 181 118 105 72 65 34 31
570.0 46 25 28 0 29 22 25 24 29 26
610.0 28 46 27 43 35 35 22 14 10 9
650.0 10 19 30 36 32 125 164 231 343 512
690.0 618 753 1083 1720 2936 4645 6953 8692 10000 8837
730.0 5798 2704 1190 605 379 287 224 173 138 128
770.0 124 101 82 85 57 79 73 75 67 89
810.0 91 90 75 102 57 61 66 76 55 69
850.0 69 74 95 104 116 157 186 246 231 194
890.0 215 164 89 51 24 25 18 24 22 27
930.0 28 34 34 37 43 36 38 35 45 38
970.0 29 37 36 45 57 72 82 93 95 105
1010.0 93 97 84 56 52 54 74 81 123 171
1050.0 268 381 559 803 1082 1474 1950 2674 3684 4592
1090.0 4240 3392 3015 1870 1008 755 622 560 466 400
1130.0 352 318 294 266 237 184 134 79 55 26
1170.0 20 21 11 18 14 25 14 24 21 26
1210.0 22 33 35 34 56 61 90 104 135 132
1250.0 132 120 113 105 91 94 61 50 31 48
1290.0 37 39 32 32 28 22 32 14 24 10
1330.0 29 5 26 20 32 30 44 76 62 165
1370.0 186 323 169 491 610 308 318 316 178 144
1410.0 78 129 109 151 146 177 161 210 251 248
1450.0 215 286 268 170 172 137 103 65 45 33
1490.0 19 26 13 22 5 9 8 14 3 16
1530.0 15 16 18 14 29 29 43 33 55 54
1570.0 62 55 57 48 53 61 53 52 51 45
1610.0 31 28 19 10 10 13 9 9 12 7
1650.0 6 0 14 8 12 8 5 10 5 6
1690.0 7 8 3 8 6 14 7 8 17 18
1730.0 14 8 14 11 11 4 12 9 8 12
1770.0 7 9 14 14 17 13 15 12 8 10
1810.0 9 7 7 6 7 1 4 6 4 2
1850.0 5 7 4 4 3 4 7 6 8 7
1890.0 6 9 10 11 13 12 12 5 10 9
1930.0 10 9 11 10 9 9 11 5 11 10
1970.0 10 11 10 13 13 8 12 13 13 8
2010.0 10 9 7 6 8 8 10 8 8 10
2050.0 11 14 10 13 9 11 13 12 13 16
2090.0 18 19 19 25 26 25 28 31 30 27
2130.0 33 31 30 27 24 20 15 15 16 11
2170.0 10 12 11 7 8 10 8 8 9 11
2210.0 9 11 12 8 6 11 10 9 9 7
2250.0 8 8 6 8 10 7 7 6 7 2
2290.0 6 9 3 6 6 4 3 3 1 1
2330.0 6 11 15 14 44 9 5 18 28 35
2370.0 54 45 43 34 29 24 24 21 20 23
2410.0 22 25 25 27 26 30 35 39 50 55
2450.0 54 55 49 40 37 26 23 22 23 21
2490.0 22 24 25 20 21 22 21 20 19 24
2530.0 22 21 20 23 24 21 25 22 21 22
2570.0 22 22 23 20 24 23 22 26 22 24
2610.0 23 20 23 17 19 18 21 18 19 17
2650.0 26 26 32 31 35 35 34 37 36 40
2690.0 42 43 32 39 36 38 39 33 36 33
2730.0 36 40 40 33 40 47 40 44 40 39
2770.0 39 44 39 37 33 36 34 35 38 43
2810.0 47 44 57 56 64 63 81 101 130 164
2850.0 186 193 196 290 321 211 179 182 164 149
2890.0 137 147 170 140 119 118 124 132 143 113
2930.0 128 130 155 188 197 306 345 263 321 308
2970.0 333 259 243 237 204 158 141 166 253 289
3010.0 314 436 302 285 237 118 72 39 35 32
3050.0 41 27 38 40 35 35 29 30 28 33
3090.0 29 30 25 32 31 28 26 32 23 28
3130.0 33 28 36 30 34 32 34 25 31 31
3170.0 29 31 24 35 29 27 34 27 31 29
3210.0 21 25 24 24 29 25 30 19 28 36
3250.0 38 22 26 30 30 33 27 31 27 26
3290.0 20 27 32 23 23 25 35 36 29 20
3330.0 18 19 35 35 32 39 35 43 42 32
3370.0 43 28 21 26 24 19 26 20 23 25
3410.0 40 24 24 30 29 12 29 31 27 21
3450.0 27 28 25 26 18 25 19 26 36 26
3490.0 19 32 34 16 28 23 29 35 29 29
3530.0 27 11 27 20 16 17 29 33 26 27
3570.0 34 32 22 24 22 39 20 18 32 31
3610.0 20 15 29 31 16 5 24 17 17 11
3650.0 11 38 31 42 7 32 51 24 31 47
3690.0 50 36 31 23 19 26 39 39 25 42
3730.0 24 39 35 29 22 40 13 20 16 37
3770.0 38 21 38 20 19 49 44 16 61 41
3810.0 7 1 34 12 31 21 22 49 28 32
3850.0 36 17 52 35 45 59 49 39 29 24
3890.0 33 63 22 19 19 33 33 47 66 81
3930.0 90 74 94 42 64 54 30 80 52 81
##END=
