##TITLE=2H-Pyran-2-one, 6-hexyltetrahydro-
##JCAMP-DX=4.24
##DATA TYPE=INFRARED SPECTRUM
##ORIGIN=Sadtler Research Labs Under US-EPA Contract
##OWNER=NIST Standard Reference Data Program
##CAS REGISTRY NO=710-04-3
##MOLFORM=C 11 H 20 O 2
##XUNITS=1/CM
##YUNITS=ABSORBANCE
##XFACTOR=1.0
##YFACTOR=0.000075928
##DELTAX=4.0
##FIRSTX=450.0
##LASTX=3966.0
##FIRSTY=0.014882
##MAXX=3966
##MINX=450
##MAXY=0.75928
##MINY=0
##NPOINTS=880
##XYDATA=(X++(Y..Y))
450.0 196 165 216 275 429 308 123 31 33 33
490.0 50 158 137 116 107 128 181 257 172 123
530.0 141 304 360 380 420 459 298 153 322 331
570.0 325 392 323 304 362 462 360 401 337 269
610.0 270 323 234 352 387 269 346 343 272 317
650.0 267 344 297 354 265 329 440 550 406 322
690.0 361 264 409 355 377 415 474 500 422 411
730.0 563 538 420 470 558 479 420 416 469 472
770.0 343 332 369 391 300 405 351 265 415 381
810.0 348 356 483 426 516 440 409 464 424 483
850.0 374 572 521 524 468 383 414 498 503 474
890.0 535 472 441 517 577 608 624 632 807 938
930.0 954 958 827 711 644 576 461 497 549 538
970.0 460 501 502 565 586 577 669 664 728 746
1010.0 705 761 874 994 1085 1307 1632 2144 2589 2864
1050.0 2890 2742 2518 2303 2176 2059 1895 1808 1688 1637
1090.0 1511 1318 1162 1160 1146 1340 1215 1334 1401 1400
1130.0 1372 1348 1343 1426 1671 1769 1980 2161 2069 1969
1170.0 1904 1763 1675 1531 1467 1358 1218 1197 1231 1328
1210.0 1415 1734 2198 2986 3988 4806 5008 4559 3646 2813
1250.0 2047 1556 1227 1056 981 857 808 712 706 693
1290.0 668 668 614 607 576 608 719 753 907 1042
1330.0 1141 1193 1270 1339 1266 1157 999 937 961 990
1370.0 1014 995 956 1032 1048 913 798 668 588 565
1410.0 479 428 571 564 583 604 630 814 777 821
1450.0 905 906 1120 1033 1150 1074 962 800 608 466
1490.0 487 460 450 408 509 463 367 429 493 382
1530.0 336 367 398 500 372 275 335 526 439 337
1570.0 329 323 349 301 282 289 286 294 307 290
1610.0 277 254 385 308 301 309 325 396 302 382
1650.0 365 562 319 329 327 405 376 389 370 491
1690.0 356 394 471 524 421 400 431 562 512 584
1730.0 688 864 849 1040 1201 1565 2141 3167 4732 6773
1770.0 8844 10000 9580 7891 5768 3967 2708 1867 1407 1061
1810.0 860 728 630 541 495 473 397 361 336 364
1850.0 299 303 264 256 242 277 234 234 225 210
1890.0 222 206 212 197 218 203 182 197 191 191
1930.0 182 173 195 193 188 185 193 182 171 163
1970.0 189 189 179 188 176 185 181 171 149 171
2010.0 168 159 157 162 150 156 149 141 157 151
2050.0 158 151 159 162 140 145 143 149 130 134
2090.0 133 139 142 140 137 131 139 130 134 123
2130.0 131 130 121 108 134 136 123 112 129 127
2170.0 135 128 120 130 136 124 127 123 115 136
2210.0 119 117 110 116 129 111 118 128 117 115
2250.0 99 124 126 107 97 108 115 109 99 103
2290.0 124 142 156 141 176 216 232 234 278 310
2330.0 346 307 296 297 273 320 368 287 420 383
2370.0 232 137 131 123 115 87 92 89 84 77
2410.0 81 69 76 73 55 58 80 74 64 44
2450.0 53 78 76 64 49 75 75 46 56 59
2490.0 65 57 41 45 52 44 43 24 56 61
2530.0 46 48 29 42 48 47 20 45 67 54
2570.0 42 55 56 55 54 51 60 78 55 52
2610.0 52 47 54 48 55 60 71 50 63 73
2650.0 78 68 62 66 105 101 107 82 93 106
2690.0 100 83 66 102 73 79 58 104 75 75
2730.0 69 97 95 111 106 105 91 98 106 97
2770.0 123 132 136 140 135 151 147 162 158 195
2810.0 212 219 214 246 257 303 345 377 473 608
2850.0 762 1018 1360 1676 1956 2094 2117 2150 2193 2243
2890.0 2153 1999 1865 1835 1902 2092 2418 2830 3334 3942
2930.0 4578 5018 5197 5181 5069 4984 4992 4979 4849 4523
2970.0 4022 3262 2364 1610 1130 894 726 632 583 474
3010.0 380 327 293 283 250 206 218 215 200 187
3050.0 159 170 153 131 122 127 142 125 115 133
3090.0 119 125 108 100 72 87 114 101 51 94
3130.0 79 68 62 63 93 82 69 69 80 88
3170.0 35 68 71 65 59 51 61 99 83 67
3210.0 65 59 114 63 54 64 75 71 48 36
3250.0 47 55 60 24 50 75 56 62 27 58
3290.0 55 72 58 66 70 56 11 15 57 108
3330.0 63 18 40 47 61 40 36 71 82 40
3370.0 63 59 82 45 85 57 87 88 77 68
3410.0 44 84 75 37 80 96 85 19 55 50
3450.0 93 79 57 32 64 50 76 30 67 64
3490.0 97 99 78 78 96 133 81 93 156 172
3530.0 169 159 173 137 124 74 90 123 145 119
3570.0 127 119 81 65 124 153 115 124 88 96
3610.0 135 133 134 128 120 202 96 94 90 121
3650.0 230 106 93 90 98 141 152 162 107 105
3690.0 133 88 86 86 81 104 101 95 102 117
3730.0 114 179 219 168 201 166 134 101 94 90
3770.0 107 78 61 80 85 97 104 108 150 139
3810.0 124 140 134 120 102 113 139 199 152 167
3850.0 183 207 121 122 110 122 131 113 99 112
3890.0 92 79 90 121 113 94 103 92 51 71
3930.0 80 75 69 111 127 130 0 10 10 10
##END=
