##TITLE=Butyric acid, 4-ethylthio-,
##JCAMP-DX=4.24
##DATA TYPE=INFRARED SPECTRUM
##ORIGIN=Sadtler Research Labs Under US-EPA Contract
##OWNER=NIST Standard Reference Data Program
##CAS REGISTRY NO=71057-15-3
##MOLFORM=C 6 H 12 O 2 S
##XUNITS=1/CM
##YUNITS=ABSORBANCE
##XFACTOR=1.0
##YFACTOR=0.000067151
##DELTAX=4.0
##FIRSTX=450.0
##LASTX=3966.0
##FIRSTY=0.037672
##MAXX=3966
##MINX=450
##MAXY=0.67151
##MINY=0
##NPOINTS=880
##XYDATA=(X++(Y..Y))
450.0 561 472 482 315 282 383 342 383 456 510
490.0 534 583 605 714 723 737 773 742 703 709
530.0 739 745 734 806 900 1054 1095 1203 1139 1211
570.0 1142 1136 1119 1164 1212 1252 1423 1506 1564 1596
610.0 1601 1623 1622 1657 1666 1679 1590 1442 1235 1048
650.0 893 793 729 675 664 571 546 504 479 425
690.0 399 373 345 353 324 341 336 342 356 335
730.0 335 326 341 341 359 352 389 405 397 399
770.0 410 388 433 348 312 305 227 204 161 149
810.0 134 113 102 112 107 108 82 103 107 104
850.0 104 100 105 89 105 143 173 206 222 227
890.0 187 140 106 93 68 57 51 34 27 32
930.0 35 42 58 72 115 138 188 249 327 396
970.0 464 500 505 478 436 398 383 381 391 421
1010.0 441 465 486 484 506 517 538 573 609 654
1050.0 705 778 862 958 1041 1131 1220 1329 1464 1632
1090.0 1877 2256 2814 3663 4920 6475 7830 8331 7985 6776
1130.0 5350 4222 3449 2925 2578 2376 2266 2259 2311 2351
1170.0 2328 2267 2170 2068 1985 1899 1809 1718 1624 1500
1210.0 1355 1228 1120 1050 995 970 969 1003 1077 1221
1250.0 1411 1602 1741 1800 1762 1618 1434 1229 1089 1013
1290.0 981 962 956 936 891 820 747 698 664 668
1330.0 692 733 780 833 858 869 893 914 1007 1132
1370.0 1306 1543 1760 1953 2027 1982 1740 1440 1124 908
1410.0 781 786 790 894 941 1015 1010 1045 1027 1064
1450.0 1054 1081 999 870 698 546 404 300 247 171
1490.0 158 117 98 82 95 69 52 66 27 57
1530.0 17 62 4 50 3 38 1 38 21 17
1570.0 17 27 5 17 19 13 15 28 19 19
1610.0 32 42 12 51 27 53 22 64 44 44
1650.0 55 77 52 58 97 52 109 77 106 119
1690.0 124 154 164 222 237 324 329 476 606 761
1730.0 938 1147 1436 1618 2166 2524 3306 4006 5367 6642
1770.0 8087 9784 9930 10000 8432 7459 5650 4547 3528 2732
1810.0 2065 1519 1136 825 617 465 356 282 224 182
1850.0 152 130 111 94 95 76 76 67 66 59
1890.0 58 58 55 55 52 51 47 46 48 48
1930.0 48 46 50 50 55 42 52 44 45 35
1970.0 38 35 38 40 33 39 39 44 39 46
2010.0 39 45 41 37 33 32 30 30 30 30
2050.0 33 29 31 29 25 33 27 30 27 32
2090.0 26 31 29 29 29 30 37 28 33 32
2130.0 27 27 32 31 26 27 31 30 30 35
2170.0 35 38 35 41 41 37 43 43 44 45
2210.0 46 45 51 56 61 58 60 67 54 54
2250.0 54 51 44 47 43 45 46 44 49 44
2290.0 48 50 47 50 56 59 57 59 62 56
2330.0 57 61 53 63 83 43 83 63 90 72
2370.0 67 57 60 50 41 38 38 42 42 50
2410.0 44 52 48 50 47 50 46 40 45 43
2450.0 42 38 41 37 38 38 38 42 42 40
2490.0 36 41 36 39 34 35 35 35 32 34
2530.0 38 31 27 29 30 33 26 29 32 31
2570.0 32 35 30 29 27 27 29 30 32 29
2610.0 33 32 35 36 37 39 37 38 38 38
2650.0 40 44 44 45 43 49 46 50 57 63
2690.0 63 70 73 66 76 73 75 68 76 69
2730.0 70 74 75 80 77 75 64 63 63 59
2770.0 65 62 69 69 80 88 96 100 108 114
2810.0 128 142 165 197 237 290 337 392 438 484
2850.0 529 575 631 698 768 841 921 1024 1119 1167
2890.0 1160 1104 1048 1055 1139 1312 1565 1868 2210 2550
2930.0 2893 3255 3513 3569 3440 3126 2802 2622 2628 2763
2970.0 2878 2934 2884 2644 2278 1840 1386 1011 763 604
3010.0 492 417 359 318 289 254 238 219 201 180
3050.0 177 162 154 144 138 139 130 125 122 126
3090.0 112 111 110 108 106 106 103 106 104 98
3130.0 100 102 103 102 98 88 96 98 94 94
3170.0 91 92 98 95 88 86 87 85 90 87
3210.0 86 82 78 73 76 72 65 63 65 66
3250.0 57 56 58 66 64 57 59 53 55 59
3290.0 57 53 55 51 58 60 57 53 55 57
3330.0 55 58 45 55 53 57 50 45 47 50
3370.0 47 41 43 42 50 37 47 41 44 44
3410.0 52 42 38 40 41 39 36 48 45 48
3450.0 40 34 46 51 44 33 40 40 47 43
3490.0 47 51 55 80 54 78 80 91 102 131
3530.0 140 150 170 178 233 243 314 419 703 1215
3570.0 2617 4050 4396 4090 2763 1223 630 391 248 200
3610.0 183 159 135 128 103 130 82 107 40 103
3650.0 110 82 91 30 102 28 144 37 92 28
3690.0 91 59 66 69 47 73 100 54 57 105
3730.0 39 99 110 94 57 151 42 97 75 51
3770.0 92 43 56 50 65 49 52 51 115 36
3810.0 86 0 115 67 67 61 83 74 129 41
3850.0 52 122 74 41 121 108 95 61 85 62
3890.0 91 37 73 87 129 59 86 84 83 91
3930.0 69 102 59 79 89 97 76 77 60 62
##END=
