##TITLE=Benzofuranone, 3-(2-chloroethyl)-3-phenyl-2(3H)-,
##JCAMP-DX=4.24
##DATA TYPE=INFRARED SPECTRUM
##ORIGIN=Sadtler Research Labs Under US-EPA Contract
##OWNER=NIST Standard Reference Data Program
##CAS REGISTRY NO=71173-19-8
##MOLFORM=C 16 H 13 Cl O 2
##XUNITS=1/CM
##YUNITS=ABSORBANCE
##XFACTOR=1.0
##YFACTOR=0.000030783
##DELTAX=4.0
##FIRSTX=450.0
##LASTX=3966.0
##FIRSTY=0.014314
##MAXX=3966
##MINX=450
##MAXY=0.30783
##MINY=0
##NPOINTS=880
##XYDATA=(X++(Y..Y))
450.0 465 200 151 160 216 44 212 268 354 416
490.0 389 431 416 470 722 632 605 467 284 87
530.0 36 42 24 106 115 120 141 226 238 350
570.0 518 704 605 430 262 198 320 496 616 471
610.0 307 182 181 249 296 379 407 442 426 429
650.0 518 635 670 644 600 623 639 649 828 995
690.0 1399 1691 1704 1348 1083 907 914 1021 1148 1210
730.0 1073 1055 1185 1836 3262 4672 4247 2624 1422 1019
770.0 840 702 573 468 342 278 247 234 255 267
810.0 304 351 343 321 291 245 244 219 195 230
850.0 263 350 382 477 599 791 989 1157 1326 1454
890.0 1456 1318 1168 1053 1013 958 897 875 810 694
930.0 710 875 967 822 604 442 365 356 414 506
970.0 643 723 735 707 736 858 1054 1367 1759 2105
1010.0 2485 3275 4473 5285 4835 3579 2611 2183 2047 2161
1050.0 2551 3036 3400 3606 3646 3307 2487 1650 1109 797
1090.0 586 442 378 386 424 506 665 1074 1815 2407
1130.0 2222 1441 767 435 345 338 365 360 370 417
1170.0 529 665 791 823 735 593 490 413 358 360
1210.0 400 503 717 1074 1632 2247 2589 2360 1722 1139
1250.0 782 620 557 512 447 405 408 562 901 1241
1290.0 1289 1081 857 715 617 585 594 628 619 533
1330.0 437 390 395 397 358 293 219 163 153 125
1370.0 108 94 79 53 43 29 7 18 0 10
1410.0 17 56 139 177 241 301 390 465 610 810
1450.0 1099 1534 2578 3666 3790 3011 2304 2212 2029 1630
1490.0 1227 1188 1323 1182 829 443 248 191 182 130
1530.0 116 106 141 153 137 102 107 167 160 124
1570.0 163 218 297 384 558 785 1007 1132 1013 898
1610.0 907 1129 1191 907 524 246 151 119 79 93
1650.0 106 173 95 96 118 129 160 137 163 197
1690.0 126 106 148 153 135 119 156 162 109 80
1730.0 84 99 67 43 72 94 108 147 233 300
1770.0 422 561 651 797 908 1087 1304 1598 1962 2541
1810.0 3611 5520 7973 9760 10000 8234 5853 3672 2302 1475
1850.0 989 728 597 507 459 433 381 328 300 291
1890.0 290 272 265 254 234 215 183 168 156 157
1930.0 179 207 241 261 236 204 178 163 158 134
1970.0 112 86 77 72 72 78 76 78 74 79
2010.0 75 81 86 93 84 93 85 84 81 86
2050.0 67 62 66 70 75 76 84 85 88 91
2090.0 87 89 91 96 90 90 91 83 83 79
2130.0 78 69 69 69 51 56 50 44 54 58
2170.0 51 46 54 57 53 59 57 56 50 48
2210.0 36 44 40 35 36 36 41 45 35 49
2250.0 45 46 42 55 48 50 62 65 86 94
2290.0 104 123 153 160 165 186 155 154 157 136
2330.0 125 100 85 119 103 152 152 113 97 114
2370.0 112 96 108 115 86 55 30 20 27 29
2410.0 22 18 18 18 9 30 17 11 22 30
2450.0 32 49 45 50 55 50 55 44 40 36
2490.0 45 42 39 26 30 39 39 38 38 43
2530.0 40 35 45 30 34 38 32 36 36 25
2570.0 22 17 19 19 45 31 24 38 22 33
2610.0 34 32 32 35 31 38 28 33 38 34
2650.0 39 25 26 20 29 32 31 33 31 29
2690.0 45 39 42 38 31 24 25 44 50 20
2730.0 33 17 18 39 50 38 27 26 36 33
2770.0 39 39 45 40 43 50 46 52 48 35
2810.0 43 40 39 46 44 48 39 45 43 52
2850.0 47 58 58 80 74 89 115 117 126 129
2890.0 119 87 70 71 63 66 90 82 103 127
2930.0 160 211 243 288 291 267 272 308 350 436
2970.0 526 525 421 303 223 181 179 176 223 272
3010.0 269 252 242 276 342 432 532 666 768 809
3050.0 760 735 815 975 1141 1333 1473 1394 1159 940
3090.0 790 727 648 520 411 338 264 218 169 103
3130.0 88 66 42 69 46 48 58 52 52 58
3170.0 56 49 50 40 39 24 24 32 34 35
3210.0 34 21 28 38 43 40 28 11 34 36
3250.0 26 23 33 35 38 33 31 18 46 46
3290.0 36 19 26 28 23 44 49 30 36 35
3330.0 61 54 52 42 35 43 18 36 35 47
3370.0 62 51 27 59 46 24 58 42 63 62
3410.0 50 39 45 66 41 52 45 42 57 36
3450.0 42 58 53 35 53 50 38 56 34 39
3490.0 36 44 61 38 51 43 31 36 40 28
3530.0 53 60 70 43 38 70 48 36 73 55
3570.0 80 67 66 86 32 101 71 69 41 65
3610.0 71 78 146 113 107 144 104 119 94 111
3650.0 87 51 80 62 83 51 82 43 77 53
3690.0 66 40 56 64 61 88 94 107 55 63
3730.0 47 54 88 99 95 48 49 27 48 70
3770.0 61 67 81 77 14 27 35 66 62 12
3810.0 35 96 75 52 41 49 58 90 49 7
3850.0 11 78 10 67 36 45 23 66 5 54
3890.0 88 77 56 64 69 21 48 18 73 47
3930.0 15 93 19 34 42 31 90 11 12 103
##END=
