##TITLE=2-Norbornanol, 1-phenyl-, acetate
##JCAMP-DX=4.24
##DATA TYPE=INFRARED SPECTRUM
##ORIGIN=Sadtler Research Labs Under US-EPA Contract
##OWNER=NIST Standard Reference Data Program
##CAS REGISTRY NO=71173-15-4
##MOLFORM=C 15 H 18 O 2
##XUNITS=1/CM
##YUNITS=ABSORBANCE
##XFACTOR=1.0
##YFACTOR=0.000093771
##DELTAX=4.0
##FIRSTX=450.0
##LASTX=3966.0
##FIRSTY=0.000000
##MAXX=3966
##MINX=450
##MAXY=0.93771
##MINY=0
##NPOINTS=880
##XYDATA=(X++(Y..Y))
450.0 0 21 48 13 49 40 54 74 90 156
490.0 260 331 308 287 204 162 152 143 172 239
530.0 397 540 505 370 213 123 113 107 95 117
570.0 100 99 114 129 135 175 250 339 450 504
610.0 430 291 219 207 235 264 265 223 169 130
650.0 136 173 249 280 297 299 245 227 239 418
690.0 1046 1660 1926 1465 749 362 272 237 241 229
730.0 211 185 183 242 451 856 1117 1069 716 337
770.0 184 163 175 191 195 159 123 98 88 92
810.0 114 116 92 85 89 90 113 154 195 242
850.0 249 253 255 220 180 134 113 101 100 102
890.0 142 190 264 351 408 406 320 214 166 170
930.0 217 309 408 471 483 429 352 319 335 398
970.0 431 400 325 281 293 347 407 472 544 615
1010.0 712 862 1147 1576 2161 2827 3453 3631 3191 2386
1050.0 1622 1203 1082 1141 1277 1415 1448 1342 1105 853
1090.0 700 636 584 534 486 437 382 319 282 265
1130.0 278 330 414 512 624 697 686 610 498 422
1170.0 424 521 737 973 1090 1039 916 920 1154 1618
1210.0 2270 3035 3909 5124 6782 8708 9954 10000 8672 6534
1250.0 4546 3098 2300 1885 1590 1280 982 750 603 506
1290.0 448 423 438 475 493 477 411 355 331 367
1330.0 401 398 382 362 426 597 796 969 1149 1430
1370.0 1828 2118 1984 1487 964 595 424 342 273 250
1410.0 239 228 274 256 270 277 336 437 567 681
1450.0 758 692 612 460 343 285 310 330 342 413
1490.0 561 719 827 755 575 392 316 255 249 202
1530.0 211 192 195 207 177 146 135 165 124 128
1570.0 134 146 154 183 205 259 321 386 430 432
1610.0 372 264 186 120 118 89 98 106 93 105
1650.0 133 147 129 123 129 127 157 142 194 207
1690.0 221 238 315 356 395 430 485 621 691 826
1730.0 940 1108 1204 1466 2137 3459 5493 7159 7559 5407
1770.0 3130 1598 987 797 704 635 609 543 500 441
1810.0 443 416 358 286 227 198 173 161 150 152
1850.0 133 131 130 128 134 137 122 112 106 86
1890.0 82 63 61 54 54 53 46 57 58 65
1930.0 77 103 113 118 99 95 95 85 73 55
1970.0 45 40 38 38 36 44 42 41 36 39
2010.0 34 38 38 32 29 32 34 33 40 37
2050.0 39 37 38 38 40 44 43 45 45 50
2090.0 50 50 48 46 41 40 41 41 44 42
2130.0 46 50 49 49 49 49 49 51 49 51
2170.0 50 54 53 53 46 43 42 39 38 35
2210.0 38 36 36 35 31 29 32 33 26 32
2250.0 31 34 32 35 36 41 43 45 52 48
2290.0 54 55 63 71 74 80 81 77 73 65
2330.0 54 55 46 53 64 63 75 59 58 29
2370.0 31 24 39 41 32 23 18 18 18 20
2410.0 17 18 21 22 20 23 25 26 28 28
2450.0 32 31 32 31 31 32 30 28 25 20
2490.0 18 17 19 17 15 14 14 16 15 16
2530.0 17 16 18 20 19 20 24 21 19 22
2570.0 20 20 24 25 24 24 27 26 26 28
2610.0 30 27 24 22 21 19 17 18 14 19
2650.0 17 17 22 23 26 20 21 21 21 21
2690.0 24 25 26 25 23 20 20 23 21 24
2730.0 23 25 24 26 24 28 27 27 33 33
2770.0 32 32 37 35 33 33 33 34 37 34
2810.0 39 42 41 45 45 51 53 58 72 77
2850.0 94 113 165 251 394 596 936 1412 1783 1731
2890.0 1298 815 545 453 450 505 602 707 780 818
2930.0 869 971 1195 1549 1981 2292 2615 3466 5171 6700
2970.0 6993 5636 3667 2077 1191 723 483 356 299 270
3010.0 266 284 330 409 530 686 830 916 901 802
3050.0 678 649 728 891 1100 1181 1085 857 664 606
3090.0 588 529 438 350 287 250 215 187 152 123
3130.0 97 82 72 67 64 65 62 62 57 53
3170.0 49 42 36 35 36 35 32 33 28 31
3210.0 27 31 30 30 31 29 27 27 29 26
3250.0 25 26 23 24 26 21 27 24 23 24
3290.0 23 26 25 28 26 22 24 25 29 29
3330.0 31 29 30 24 26 28 26 30 32 33
3370.0 37 33 42 41 36 34 37 27 31 27
3410.0 28 27 35 31 30 32 30 30 33 30
3450.0 34 28 33 34 31 39 42 48 50 52
3490.0 56 64 59 55 41 39 34 27 25 21
3530.0 17 25 20 22 38 37 39 40 46 44
3570.0 45 35 48 51 48 43 48 44 39 27
3610.0 36 35 25 22 24 25 30 23 32 26
3650.0 24 23 38 38 32 19 16 22 25 25
3690.0 22 29 37 28 24 36 34 34 31 34
3730.0 41 40 41 24 20 15 19 18 25 25
3770.0 16 27 30 27 21 24 24 23 20 18
3810.0 14 22 34 20 14 15 18 20 16 18
3850.0 23 14 14 28 18 21 35 22 22 22
3890.0 31 29 31 30 26 30 38 34 29 14
3930.0 21 33 19 30 20 30 34 18 24 21
##END=
