##TITLE=Isoindoline, 5-nitro-1,1,2,3,3-pentaethyl-,
##JCAMP-DX=4.24
##DATA TYPE=INFRARED SPECTRUM
##ORIGIN=Sadtler Research Labs Under US-EPA Contract
##OWNER=NIST Standard Reference Data Program
##CAS REGISTRY NO=71173-12-1
##MOLFORM=C 18 H 28 N 2 O 2
##XUNITS=1/CM
##YUNITS=ABSORBANCE
##XFACTOR=1.0
##YFACTOR=0.000044861
##DELTAX=4.0
##FIRSTX=450.0
##LASTX=3966.0
##FIRSTY=0.005608
##MAXX=3966
##MINX=450
##MAXY=0.44861
##MINY=0
##NPOINTS=880
##XYDATA=(X++(Y..Y))
450.0 125 76 24 67 95 90 147 104 152 150
490.0 158 139 150 124 141 151 222 178 100 227
530.0 134 218 236 256 301 317 331 367 374 387
570.0 433 374 390 360 343 238 208 179 118 120
610.0 132 134 151 158 112 120 102 83 79 72
650.0 90 79 100 97 110 193 191 141 119 101
690.0 112 122 100 137 132 139 149 211 296 497
730.0 869 1376 1584 1513 1381 1227 997 769 642 604
770.0 649 693 656 548 447 388 362 349 401 450
810.0 476 478 513 561 726 1088 1376 1251 913 833
850.0 983 995 834 727 804 801 634 502 448 532
890.0 806 1148 1283 1113 748 426 287 259 306 354
930.0 396 387 343 277 242 227 204 230 258 266
970.0 301 386 539 809 1160 1443 1534 1379 1095 846
1010.0 683 613 596 623 679 770 842 799 737 726
1050.0 749 821 897 996 1134 1189 1092 923 829 819
1090.0 885 974 1065 1107 1077 1004 994 1014 888 671
1130.0 465 372 321 299 300 321 359 426 540 648
1170.0 723 721 743 877 1178 1548 1828 1935 1881 1730
1210.0 1524 1368 1248 1167 1068 929 817 797 819 811
1250.0 804 868 1011 1008 845 731 713 704 682 696
1290.0 761 873 1017 1159 1320 1515 1757 2003 2275 2537
1330.0 2934 3691 5092 7330 9505 10000 8454 6161 4220 2936
1370.0 2211 2017 2191 2384 2128 1530 991 674 567 511
1410.0 479 472 404 445 441 480 502 620 789 982
1450.0 1232 1503 1811 2115 2275 2239 2004 1715 1417 1097
1490.0 987 1082 1184 1185 1020 920 942 1235 1650 2454
1530.0 3336 5254 7910 9401 8212 5014 2564 1435 955 878
1570.0 855 956 1123 1209 1205 1045 1006 941 846 639
1610.0 517 458 393 362 279 283 237 229 203 175
1650.0 96 106 138 121 120 103 48 79 17 17
1690.0 50 65 6 23 21 58 34 11 50 76
1730.0 63 25 63 43 25 3 43 28 38 52
1770.0 32 32 71 81 91 98 66 63 33 56
1810.0 30 33 37 22 20 3 26 20 14 0
1850.0 11 19 27 19 10 2 19 28 27 27
1890.0 19 28 45 58 69 87 89 73 44 32
1930.0 30 21 18 8 8 17 17 14 12 13
1970.0 12 14 16 20 14 4 11 15 17 16
2010.0 16 13 11 14 19 21 23 21 20 30
2050.0 24 24 23 19 21 26 25 27 27 23
2090.0 20 22 21 18 21 18 20 21 18 23
2130.0 17 22 14 20 21 17 22 14 23 23
2170.0 23 21 24 22 23 27 28 27 23 27
2210.0 24 30 27 30 30 27 31 24 34 34
2250.0 35 29 41 41 42 49 57 58 60 67
2290.0 74 83 84 92 95 102 90 80 84 68
2330.0 44 32 40 35 57 73 67 60 23 41
2370.0 32 47 73 91 87 73 64 58 68 62
2410.0 64 58 58 56 55 59 62 65 62 67
2450.0 70 71 79 72 74 74 66 64 63 56
2490.0 58 51 53 50 50 51 56 59 58 59
2530.0 60 62 60 64 66 66 67 63 72 73
2570.0 82 78 85 92 95 88 92 100 101 106
2610.0 101 110 108 118 124 130 136 144 147 153
2650.0 148 145 147 139 143 147 145 146 153 157
2690.0 169 177 179 190 187 201 210 225 241 260
2730.0 267 279 280 275 276 263 256 256 252 257
2770.0 261 277 283 300 314 327 345 359 392 428
2810.0 471 517 565 630 702 782 873 974 1101 1244
2850.0 1392 1564 1751 1953 2115 2267 2445 2715 3065 3430
2890.0 3611 3459 3071 2740 2605 2660 2862 3241 3854 4695
2930.0 5704 6636 7210 7404 7162 6420 5403 4634 4623 5600
2970.0 7174 7904 7260 6383 5879 5236 4295 3284 2406 1770
3010.0 1325 1043 856 738 657 612 578 555 550 529
3050.0 484 448 422 415 433 455 447 425 374 325
3090.0 291 278 274 280 260 234 218 203 197 184
3130.0 171 163 161 155 147 147 139 118 123 119
3170.0 126 125 119 112 93 98 94 91 99 86
3210.0 93 86 88 87 78 70 67 61 62 65
3250.0 53 58 49 54 52 50 59 31 36 41
3290.0 50 42 34 45 38 27 34 40 33 36
3330.0 26 34 40 44 34 33 45 35 44 42
3370.0 45 37 37 35 41 52 51 38 45 43
3410.0 48 56 48 35 47 45 56 34 31 43
3450.0 35 31 48 43 31 35 36 38 50 40
3490.0 28 46 29 47 47 43 41 35 36 36
3530.0 50 51 44 41 58 38 28 41 24 61
3570.0 62 57 49 47 59 44 52 34 48 49
3610.0 55 45 57 54 57 54 62 46 61 58
3650.0 67 56 43 60 48 68 37 67 54 60
3690.0 71 66 55 54 54 52 69 62 49 49
3730.0 59 66 64 51 82 25 56 41 42 33
3770.0 45 50 55 46 37 45 29 67 46 70
3810.0 37 52 42 51 41 42 57 60 47 43
3850.0 73 66 68 56 45 67 46 57 70 76
3890.0 56 93 48 94 84 88 81 70 65 73
3930.0 76 72 81 88 90 113 89 74 68 87
##END=
