##TITLE=p-Lactotoluidide
##JCAMP-DX=4.24
##DATA TYPE=INFRARED SPECTRUM
##ORIGIN=Sadtler Research Labs Under US-EPA Contract
##OWNER=NIST Standard Reference Data Program
##CAS REGISTRY NO=71173-20-1
##MOLFORM=C 10 H 13 N O 2
##XUNITS=1/CM
##YUNITS=ABSORBANCE
##XFACTOR=1.0
##YFACTOR=0.000031677
##DELTAX=4.0
##FIRSTX=450.0
##LASTX=3966.0
##FIRSTY=0.014255
##MAXX=3966
##MINX=450
##MAXY=0.31677
##MINY=0
##NPOINTS=880
##XYDATA=(X++(Y..Y))
450.0 450 591 424 532 427 389 256 213 258 319
490.0 359 368 459 544 555 534 487 402 313 353
530.0 243 299 223 174 185 190 157 124 90 105
570.0 185 104 100 145 151 176 193 238 271 232
610.0 201 231 237 238 229 277 311 321 284 268
650.0 282 227 182 146 182 135 73 27 33 42
690.0 57 36 27 64 67 59 38 23 33 27
730.0 2 6 27 33 51 54 57 41 28 52
770.0 57 86 130 181 278 384 572 835 1070 1271
810.0 1325 1197 1004 828 712 574 431 342 237 207
850.0 170 156 159 163 216 306 354 373 330 268
890.0 198 146 130 103 98 95 98 89 94 107
930.0 147 163 179 184 148 116 104 88 85 86
970.0 102 99 110 120 130 142 155 181 212 271
1010.0 343 469 557 649 721 768 839 847 827 788
1050.0 733 675 647 630 639 664 718 781 856 962
1090.0 1108 1299 1508 1706 1822 1848 1784 1703 1625 1593
1130.0 1571 1501 1323 1091 885 772 715 695 679 653
1170.0 628 622 647 679 688 672 606 560 535 515
1210.0 500 509 561 658 840 1122 1448 1637 1595 1357
1250.0 1122 1018 1013 1062 1086 1122 1206 1374 1603 1783
1290.0 1768 1542 1270 1151 1398 1797 1994 1792 1335 977
1330.0 878 808 766 710 613 573 561 595 637 708
1370.0 798 917 1010 1085 1160 1267 1385 1495 1618 1697
1410.0 1676 1475 1220 959 784 716 670 711 708 758
1450.0 829 894 989 1013 1057 1090 1139 1223 1423 1666
1490.0 1992 2454 2914 3572 4298 5421 6707 8462 9835 10000
1530.0 8801 6512 4454 2869 1929 1449 1103 905 752 675
1570.0 651 647 726 833 1122 1439 1716 1738 1512 1229
1610.0 1088 1083 1013 921 720 581 444 414 347 337
1650.0 310 341 360 361 431 462 529 584 662 763
1690.0 911 1170 1517 2106 2782 3643 4403 4860 4822 4242
1730.0 3361 2421 1655 1214 827 675 547 518 476 484
1770.0 453 414 379 356 322 291 281 259 246 211
1810.0 173 151 121 104 98 83 80 76 85 89
1850.0 87 88 90 84 82 77 80 78 85 84
1890.0 78 71 50 45 41 43 36 39 26 21
1930.0 19 18 12 14 14 4 9 7 8 11
1970.0 13 15 18 16 10 12 10 15 6 9
2010.0 1 4 7 4 8 12 10 12 3 4
2050.0 8 14 12 15 16 17 11 19 18 15
2090.0 20 17 19 16 17 21 21 13 16 18
2130.0 19 14 13 17 17 20 12 16 24 21
2170.0 16 20 17 20 13 19 16 18 25 20
2210.0 25 27 29 33 38 39 50 55 62 69
2250.0 77 90 104 129 158 190 236 269 285 278
2290.0 257 223 201 178 176 176 139 109 107 63
2330.0 36 25 12 49 64 89 61 59 20 30
2370.0 9 41 60 84 73 39 21 16 9 9
2410.0 3 10 10 8 11 15 5 17 3 18
2450.0 19 21 15 11 23 16 19 24 16 14
2490.0 13 15 22 11 14 12 10 8 16 22
2530.0 19 16 21 13 16 9 9 4 7 6
2570.0 9 9 11 10 21 21 22 14 20 20
2610.0 17 19 11 14 11 14 9 8 16 21
2650.0 20 21 16 15 18 14 24 19 16 13
2690.0 25 29 28 31 36 32 31 39 39 33
2730.0 47 47 57 74 75 72 64 62 56 48
2770.0 42 42 44 41 44 40 45 48 53 64
2810.0 64 73 81 84 95 106 111 115 137 157
2850.0 175 219 260 324 406 499 596 694 723 699
2890.0 658 598 570 560 567 615 677 764 857 979
2930.0 1148 1309 1308 1164 918 688 555 502 493 535
2970.0 645 855 1060 1111 1032 914 841 803 722 677
3010.0 650 625 646 730 857 958 960 832 706 641
3050.0 611 587 537 463 389 314 242 194 160 140
3090.0 138 119 125 133 128 126 128 122 102 98
3130.0 76 73 60 61 47 36 39 29 27 20
3170.0 21 24 25 22 34 31 17 36 30 35
3210.0 31 27 31 31 40 31 37 33 24 27
3250.0 22 17 23 24 29 20 27 39 30 29
3290.0 27 25 32 34 23 24 38 38 42 41
3330.0 44 44 51 56 50 60 52 60 59 67
3370.0 69 82 79 90 99 118 134 156 201 238
3410.0 331 468 687 1013 1309 1422 1296 953 640 442
3450.0 310 259 239 227 200 169 142 141 129 143
3490.0 138 175 210 236 266 275 268 233 220 214
3530.0 183 166 140 135 129 114 116 86 98 95
3570.0 94 84 88 81 79 66 52 37 67 39
3610.0 66 49 45 38 48 88 72 104 116 186
3650.0 285 308 373 368 354 280 223 140 100 101
3690.0 40 25 1 1 6 20 9 14 2 1
3730.0 2 9 26 11 8 12 4 7 1 2
3770.0 11 1 8 19 12 2 1 1 1 1
3810.0 1 5 1 18 1 3 5 1 6 2
3850.0 1 0 14 20 3 8 1 11 22 15
3890.0 1 1 1 25 7 1 8 7 16 14
3930.0 1 6 1 2 8 15 5 1 0 33
##END=
