##TITLE=Propionic acid, 2-methyl-2-(m-tolylthio)-
##JCAMP-DX=4.24
##DATA TYPE=INFRARED SPECTRUM
##ORIGIN=Sadtler Research Labs Under US-EPA Contract
##OWNER=NIST Standard Reference Data Program
##CAS REGISTRY NO=71173-08-5
##MOLFORM=C 11 H 14 O 2 S
##XUNITS=1/CM
##YUNITS=ABSORBANCE
##XFACTOR=1.0
##YFACTOR=0.000067719
##DELTAX=4.0
##FIRSTX=450.0
##LASTX=3966.0
##FIRSTY=0.000000
##MAXX=3966
##MINX=450
##MAXY=0.67719
##MINY=0
##NPOINTS=880
##XYDATA=(X++(Y..Y))
450.0 0 133 102 112 279 297 297 371 399 549
490.0 555 648 642 771 936 1012 1092 1139 1098 1092
530.0 1158 1254 1406 1505 1678 1791 1856 1970 2077 2078
570.0 1997 1838 1592 1365 1188 1058 1027 987 923 914
610.0 886 852 861 880 918 1042 1234 1539 1784 1861
650.0 1731 1333 1051 796 762 780 707 752 896 1148
690.0 1484 1543 1344 1004 715 520 443 408 398 390
730.0 408 421 459 525 607 687 763 860 938 1177
770.0 1643 2257 2755 2587 2020 1474 1066 823 630 530
810.0 460 420 403 379 363 366 356 376 415 477
850.0 575 619 600 519 411 391 394 446 499 499
890.0 473 434 424 436 474 483 500 489 476 442
930.0 410 386 361 354 353 363 365 355 344 338
970.0 339 347 362 377 396 442 520 609 669 730
1010.0 748 732 660 558 509 502 508 529 575 632
1050.0 712 803 937 1098 1302 1587 1947 2350 2757 3227
1090.0 3884 4924 6323 7673 8390 7896 6548 4987 3952 3378
1130.0 3019 2711 2375 2063 1749 1503 1301 1198 1155 1130
1170.0 1119 1090 1048 1028 1038 1045 1116 1223 1326 1415
1210.0 1417 1370 1226 1045 881 753 667 623 599 594
1250.0 604 628 663 718 778 818 870 924 1012 1109
1290.0 1231 1350 1445 1514 1533 1547 1529 1520 1476 1410
1330.0 1320 1223 1155 1065 985 927 892 870 916 960
1370.0 1027 1049 1011 1034 1151 1264 1249 1099 897 784
1410.0 740 732 759 762 778 785 831 879 937 981
1450.0 1054 1146 1349 1542 1740 1942 1970 1794 1418 1077
1490.0 819 679 615 569 560 546 522 513 531 507
1530.0 512 484 482 472 442 433 433 477 500 554
1570.0 639 717 823 952 1144 1351 1371 1202 917 671
1610.0 510 395 349 297 294 262 271 267 259 271
1650.0 285 295 303 288 317 326 344 353 397 407
1690.0 413 423 466 527 584 660 737 858 897 993
1730.0 1081 1301 1562 2001 2773 4049 6038 8105 10000 9677
1770.0 8194 6060 4453 3769 3468 3062 2441 1773 1294 970
1810.0 785 651 564 481 432 380 338 322 297 306
1850.0 288 292 282 274 268 274 275 266 260 225
1890.0 215 199 193 183 184 185 180 193 191 205
1930.0 216 239 241 240 224 202 186 169 172 167
1970.0 166 162 162 159 154 161 162 160 154 158
2010.0 155 157 159 157 150 152 149 144 149 147
2050.0 145 139 142 137 137 139 136 138 130 136
2090.0 131 140 134 135 138 138 138 137 138 134
2130.0 136 130 133 128 125 129 131 130 131 130
2170.0 135 134 135 136 140 143 146 145 149 151
2210.0 151 146 145 141 136 132 134 140 132 135
2250.0 133 132 133 128 134 135 141 149 163 174
2290.0 189 203 223 235 247 266 238 220 222 208
2330.0 181 190 177 178 219 243 209 189 202 170
2370.0 188 192 218 227 190 148 131 130 128 131
2410.0 128 133 128 129 124 125 129 126 128 124
2450.0 129 122 126 119 120 121 119 118 112 111
2490.0 106 113 115 113 114 111 115 113 112 111
2530.0 115 111 111 115 119 117 115 120 116 118
2570.0 113 113 116 117 111 111 107 106 103 99
2610.0 106 103 98 92 95 92 98 97 100 99
2650.0 95 100 96 99 100 95 92 92 99 89
2690.0 91 87 92 89 91 97 93 98 105 110
2730.0 115 127 128 141 139 137 128 119 116 120
2770.0 120 120 122 117 116 122 127 132 139 143
2810.0 148 157 158 161 169 177 184 203 227 251
2850.0 294 351 425 526 669 803 915 957 921 849
2890.0 782 760 771 810 877 967 1082 1247 1456 1716
2930.0 1980 2212 2334 2268 1996 1603 1231 978 857 877
2970.0 1060 1427 1828 2014 1920 1668 1474 1417 1391 1306
3010.0 1145 967 857 818 837 889 931 959 951 929
3050.0 939 1003 1077 1083 984 840 743 700 694 665
3090.0 595 494 385 290 238 207 186 170 165 157
3130.0 150 141 138 142 137 139 133 139 144 132
3170.0 132 138 133 134 132 132 135 131 134 130
3210.0 134 137 132 135 123 130 126 125 127 125
3250.0 120 122 113 112 109 113 114 111 115 119
3290.0 113 125 117 118 125 130 138 132 140 150
3330.0 152 156 165 174 180 184 197 209 210 217
3370.0 217 219 230 231 251 248 257 258 274 274
3410.0 280 275 271 258 244 236 228 222 213 211
3450.0 199 200 203 193 193 183 175 178 186 178
3490.0 191 182 196 207 215 205 192 179 184 186
3530.0 161 173 192 189 231 279 373 569 936 1660
3570.0 2669 3444 3573 2853 1859 1021 564 375 262 207
3610.0 190 171 153 161 144 150 134 110 119 121
3650.0 140 120 108 101 105 121 125 124 112 101
3690.0 139 98 96 105 103 113 108 102 107 127
3730.0 114 125 141 101 154 140 131 106 87 108
3770.0 95 98 87 103 101 95 89 108 95 102
3810.0 87 87 114 95 97 88 124 116 118 104
3850.0 96 127 103 94 107 121 110 104 111 130
3890.0 106 118 114 159 149 129 127 120 130 89
3930.0 114 107 116 112 128 129 150 118 110 133
##END=
