##TITLE=Isoindoline, 2-allyl-5-amino-1,1,3,3-tetraethyl-,
##JCAMP-DX=4.24
##DATA TYPE=INFRARED SPECTRUM
##ORIGIN=Sadtler Research Labs Under US-EPA Contract
##OWNER=NIST Standard Reference Data Program
##CAS REGISTRY NO=71173-16-5
##MOLFORM=C 19 H 30 N 2
##XUNITS=1/CM
##YUNITS=ABSORBANCE
##XFACTOR=1.0
##YFACTOR=0.000043365
##DELTAX=4.0
##FIRSTX=450.0
##LASTX=3966.0
##FIRSTY=0.002255
##MAXX=3966
##MINX=450
##MAXY=0.43365
##MINY=0
##NPOINTS=880
##XYDATA=(X++(Y..Y))
450.0 52 270 221 160 237 246 230 223 136 152
490.0 143 111 113 100 57 24 3 32 28 102
530.0 138 161 222 286 358 500 532 573 529 465
570.0 436 403 398 414 328 290 284 248 318 359
610.0 385 356 368 305 321 373 451 576 686 893
650.0 1137 1368 1540 1406 1338 1129 997 992 973 953
690.0 832 740 591 486 414 358 293 229 182 130
730.0 144 162 223 207 215 236 198 140 98 101
770.0 122 155 174 159 142 151 271 582 1190 1963
810.0 2228 1600 820 387 196 130 173 232 390 637
850.0 894 1058 1007 752 478 301 221 184 182 156
890.0 154 178 316 620 1226 2069 2774 2887 2415 1817
930.0 1408 1206 1054 833 598 425 309 181 97 59
970.0 72 89 143 242 452 730 919 829 614 479
1010.0 473 513 512 456 416 397 403 466 565 673
1050.0 808 932 1003 1012 963 926 936 930 862 798
1090.0 789 843 913 967 937 860 828 882 1028 1095
1130.0 987 749 512 361 369 497 699 839 848 850
1170.0 1000 1424 2102 2821 3241 3167 2724 2200 1787 1534
1210.0 1395 1248 1029 785 572 429 345 295 274 298
1250.0 400 553 669 652 562 525 584 747 1018 1394
1290.0 1709 1790 1700 1606 1563 1525 1454 1359 1244 1196
1330.0 1225 1301 1464 1720 2258 3161 3989 3982 3056 1987
1370.0 1468 1545 1780 1701 1260 720 447 363 361 472
1410.0 696 975 1212 1072 857 730 807 974 1206 1487
1450.0 1885 2229 2623 2774 2739 2514 2134 1779 1696 2014
1490.0 2759 3856 4678 4307 2913 1465 800 470 416 281
1530.0 268 200 239 257 234 188 199 243 234 230
1570.0 279 338 449 583 789 1054 1256 1412 1654 2088
1610.0 2726 3503 4635 5663 6238 5620 4425 2921 1874 1241
1650.0 863 692 516 387 326 280 227 185 174 233
1690.0 163 164 181 185 124 92 109 126 79 83
1730.0 183 273 245 140 94 81 48 32 40 31
1770.0 41 56 8 33 4 37 34 37 48 37
1810.0 34 54 79 109 163 166 165 101 105 94
1850.0 70 56 67 66 75 91 58 41 30 21
1890.0 13 11 2 2 9 8 13 16 19 5
1930.0 2 11 8 20 20 16 11 20 16 21
1970.0 30 26 32 35 31 40 40 36 32 32
2010.0 34 39 42 43 33 39 40 42 48 44
2050.0 46 48 45 48 54 58 57 52 43 36
2090.0 37 30 25 25 25 19 16 23 24 19
2130.0 18 19 21 16 15 21 16 20 20 20
2170.0 18 20 19 16 15 8 11 11 12 16
2210.0 9 12 10 6 5 4 4 6 6 13
2250.0 23 22 25 28 30 43 42 52 58 67
2290.0 85 100 124 133 139 152 147 130 148 131
2330.0 123 127 113 157 171 157 192 144 164 145
2370.0 138 120 134 139 96 60 45 37 41 41
2410.0 38 34 32 25 28 28 28 24 25 31
2450.0 25 27 33 33 42 34 29 23 24 23
2490.0 25 24 27 24 25 27 34 32 36 43
2530.0 42 49 49 52 60 65 67 65 67 75
2570.0 71 78 76 81 84 89 88 92 96 96
2610.0 102 110 114 127 137 139 147 138 143 146
2650.0 145 147 148 162 164 169 179 180 184 184
2690.0 175 177 179 175 180 186 195 203 226 245
2730.0 274 295 316 332 323 326 319 329 351 364
2770.0 373 386 398 417 444 475 505 541 595 653
2810.0 738 835 975 1120 1255 1366 1453 1517 1558 1605
2850.0 1720 1963 2301 2660 2955 3195 3469 3934 4600 5188
2890.0 5353 4954 4343 3994 3979 4245 4756 5553 6592 7765
2930.0 8702 9326 9770 10000 9530 8222 6739 6016 6648 8298
2970.0 9701 9543 8676 7970 7139 5774 4346 3267 2536 2133
3010.0 2051 2236 2516 2620 2418 2053 1703 1451 1331 1307
3050.0 1316 1303 1259 1204 1172 1152 1190 1420 1696 1607
3090.0 1084 680 528 460 430 395 379 352 311 289
3130.0 257 230 205 188 180 168 172 155 147 151
3170.0 148 150 139 137 128 116 112 111 112 123
3210.0 123 117 120 119 108 111 112 110 94 75
3250.0 62 62 51 45 52 51 41 38 51 49
3290.0 41 39 29 32 30 33 38 39 40 35
3330.0 39 57 60 57 58 78 76 88 102 105
3370.0 109 137 152 164 177 224 299 385 485 542
3410.0 527 448 322 211 137 126 112 84 97 95
3450.0 104 124 124 138 156 196 228 282 342 363
3490.0 372 345 302 235 156 102 68 58 47 45
3530.0 32 34 22 35 44 25 28 20 36 41
3570.0 30 17 25 37 32 24 34 13 38 14
3610.0 49 8 22 23 2 29 20 32 34 18
3650.0 40 7 43 40 14 38 25 51 5 48
3690.0 39 38 41 39 16 30 35 32 11 44
3730.0 39 58 39 53 30 10 15 3 2 14
3770.0 7 2 2 2 2 2 11 0 13 13
3810.0 3 5 2 30 7 2 22 21 2 19
3850.0 2 51 66 45 63 43 32 22 48 34
3890.0 14 32 50 48 48 60 60 73 32 43
3930.0 38 44 39 46 41 55 50 39 47 60
##END=
