##TITLE=Isoindoline, 2-butyl-5-nitro-1,1,3,3-tetraethyl-,
##JCAMP-DX=4.24
##DATA TYPE=INFRARED SPECTRUM
##ORIGIN=Sadtler Research Labs Under US-EPA Contract
##OWNER=NIST Standard Reference Data Program
##CAS REGISTRY NO=71173-17-6
##MOLFORM=C 20 H 32 N 2 O 2
##XUNITS=1/CM
##YUNITS=ABSORBANCE
##XFACTOR=1.0
##YFACTOR=0.000030612
##DELTAX=4.0
##FIRSTX=450.0
##LASTX=3966.0
##FIRSTY=0.007102
##MAXX=3966
##MINX=450
##MAXY=0.30612
##MINY=0
##NPOINTS=880
##XYDATA=(X++(Y..Y))
450.0 232 149 95 144 131 273 237 249 242 241
490.0 357 351 331 341 300 373 359 376 325 283
530.0 301 369 390 465 515 453 529 550 537 548
570.0 531 511 503 473 462 460 390 315 281 295
610.0 277 277 290 259 245 251 238 247 239 225
650.0 246 224 209 211 220 266 259 263 262 262
690.0 317 308 316 305 308 302 349 417 555 840
730.0 1236 1671 1739 1612 1552 1503 1279 1043 911 879
770.0 857 821 742 578 474 362 262 229 262 295
810.0 309 338 366 442 681 1190 1575 1330 922 815
850.0 1152 1489 1224 732 477 390 420 507 671 895
890.0 1177 1524 1617 1412 1004 666 539 556 658 777
930.0 899 970 930 820 645 550 456 423 401 398
970.0 389 372 372 391 457 510 600 718 836 969
1010.0 942 815 682 638 654 738 878 986 1033 1038
1050.0 989 950 929 912 948 982 880 761 746 796
1090.0 943 1099 1223 1256 1199 1128 1184 1203 1029 750
1130.0 562 483 448 434 495 575 686 773 852 871
1170.0 902 1019 1221 1513 1824 2022 2042 1945 1768 1584
1210.0 1425 1250 1054 861 726 673 720 816 893 919
1250.0 922 987 1075 1039 925 912 917 918 890 912
1290.0 972 1084 1238 1395 1564 1779 2063 2371 2713 3065
1330.0 3559 4398 5779 7759 9562 9874 8297 6106 4223 2922
1370.0 2217 2015 2131 2174 1828 1292 886 659 592 557
1410.0 517 546 466 542 550 629 689 852 1081 1339
1450.0 1622 1894 2185 2504 2660 2540 2202 1840 1507 1148
1490.0 1053 1166 1295 1386 1256 1249 1436 1927 2493 3279
1530.0 3845 5223 7507 8962 7735 4558 2272 1265 834 804
1570.0 779 870 1013 1118 1124 952 969 913 780 582
1610.0 479 416 318 300 202 222 159 171 201 225
1650.0 204 195 202 192 165 136 85 99 47 8
1690.0 56 73 0 6 33 86 64 41 118 156
1730.0 118 68 97 109 113 73 103 108 111 136
1770.0 106 97 144 155 164 157 129 122 85 109
1810.0 82 73 87 79 69 48 68 72 56 39
1850.0 60 75 65 63 49 43 65 77 65 68
1890.0 63 71 83 102 119 135 134 119 90 88
1930.0 81 73 70 55 62 72 66 64 69 59
1970.0 65 67 70 68 68 53 57 68 82 77
2010.0 77 66 66 79 82 88 86 81 82 87
2050.0 87 85 83 83 78 86 95 82 79 83
2090.0 79 89 77 73 87 85 82 79 81 81
2130.0 78 80 81 75 77 77 72 78 84 82
2170.0 89 87 93 91 89 95 85 90 84 91
2210.0 83 95 92 88 87 88 94 89 96 92
2250.0 94 95 102 100 101 126 119 132 129 141
2290.0 143 166 181 200 201 222 213 194 223 216
2330.0 208 208 190 218 217 239 281 230 239 214
2370.0 193 175 191 194 167 147 140 124 126 124
2410.0 123 119 124 125 125 133 120 123 124 119
2450.0 128 131 137 140 142 134 133 134 130 129
2490.0 131 130 123 123 128 121 134 137 141 142
2530.0 144 142 149 154 153 150 155 157 158 166
2570.0 167 173 185 192 187 187 189 190 193 199
2610.0 204 203 201 204 223 238 249 246 251 257
2650.0 263 257 269 262 262 265 276 284 284 290
2690.0 298 301 322 318 323 333 344 354 371 391
2730.0 417 428 459 479 479 469 454 444 435 438
2770.0 453 463 479 502 519 546 566 601 640 673
2810.0 727 786 856 934 1031 1145 1270 1408 1540 1709
2850.0 1867 2077 2359 2714 3075 3361 3517 3662 4019 4384
2890.0 4433 4148 3770 3502 3497 3649 3914 4332 4887 5708
2930.0 6660 7507 8068 8386 8316 7713 6868 6395 6833 8294
2970.0 10000 9798 7898 6424 5591 4585 3534 2697 2065 1586
3010.0 1245 1032 876 758 694 655 633 600 591 545
3050.0 513 486 462 461 480 495 498 470 413 358
3090.0 327 339 326 331 308 274 253 237 233 221
3130.0 210 209 194 202 186 188 190 183 185 179
3170.0 162 155 161 162 163 145 152 145 148 147
3210.0 134 144 147 120 125 113 104 101 93 104
3250.0 100 99 110 110 107 107 90 96 101 109
3290.0 108 106 88 109 98 83 97 106 113 112
3330.0 95 98 95 101 104 91 93 121 107 111
3370.0 105 108 110 95 105 112 114 96 122 112
3410.0 109 112 115 101 119 113 91 117 131 123
3450.0 95 109 116 108 108 111 117 122 103 102
3490.0 112 115 115 129 114 132 129 111 111 131
3530.0 139 123 109 117 125 119 110 108 130 139
3570.0 130 131 112 121 135 120 131 130 134 136
3610.0 124 137 139 120 141 132 122 144 128 139
3650.0 122 137 124 121 119 140 135 118 131 147
3690.0 142 109 128 119 149 113 135 120 125 139
3730.0 135 115 114 122 128 134 102 102 107 105
3770.0 129 123 121 136 123 115 105 124 98 109
3810.0 108 125 131 116 125 136 148 154 115 121
3850.0 121 114 145 118 128 149 139 142 154 165
3890.0 120 129 140 134 175 145 183 147 134 158
3930.0 157 157 145 144 141 164 165 174 189 163
##END=
