##TITLE=Morpholine, 4-piperidinosulfonyl-
##JCAMP-DX=4.24
##DATA TYPE=INFRARED SPECTRUM
##ORIGIN=Sadtler Research Labs Under US-EPA Contract
##OWNER=NIST Standard Reference Data Program
##CAS REGISTRY NO=71173-07-4
##MOLFORM=C 9 H 18 N 2 O 3 S
##XUNITS=1/CM
##YUNITS=ABSORBANCE
##XFACTOR=1.0
##YFACTOR=0.000100830
##DELTAX=4.0
##FIRSTX=450.0
##LASTX=3966.0
##FIRSTY=0.000000
##MAXX=3966
##MINX=450
##MAXY=1.0083
##MINY=0
##NPOINTS=880
##XYDATA=(X++(Y..Y))
450.0 0 30 27 123 137 150 207 245 259 341
490.0 446 590 768 821 815 915 1204 1604 2058 2322
530.0 2005 1458 883 521 392 355 349 374 436 620
570.0 890 1199 1439 1494 1365 1121 888 720 672 716
610.0 850 962 945 904 866 900 963 932 831 650
650.0 535 471 468 506 533 619 619 635 683 744
690.0 860 925 1041 1106 1115 1099 1162 1394 2063 3505
730.0 5478 6829 6026 3998 1965 1022 631 444 364 304
770.0 274 250 238 224 208 203 195 217 241 284
810.0 319 364 454 615 804 949 939 775 613 617
850.0 807 914 878 672 517 468 474 539 614 721
890.0 844 1013 1240 1549 1945 2541 3427 4761 6606 8538
930.0 9891 10000 9352 8137 7034 5859 4597 3494 2660 2038
970.0 1571 1250 1016 855 740 648 574 517 501 527
1010.0 591 686 822 979 1139 1263 1418 1653 1964 2303
1050.0 2514 2566 2606 2858 3259 3503 3290 2664 1991 1507
1090.0 1242 1168 1273 1578 2103 2863 3788 4627 5122 4963
1130.0 4112 3172 2691 2931 3597 4349 5110 6041 7250 8337
1170.0 8403 7100 4988 3048 1838 1229 960 840 814 868
1210.0 980 1113 1180 1144 997 814 661 580 575 693
1250.0 1024 1626 2352 2635 2297 1778 1439 1292 1220 1239
1290.0 1361 1465 1438 1340 1261 1289 1382 1526 1712 1889
1330.0 2059 2240 2506 2837 3231 3594 3948 4455 5185 5848
1370.0 5830 5187 4354 3604 2965 2360 1727 1173 781 562
1410.0 437 377 345 332 342 382 468 602 859 1133
1450.0 1495 1756 1761 1522 1153 812 574 409 309 221
1490.0 181 156 145 137 130 117 103 94 86 82
1530.0 77 78 75 71 78 79 78 66 69 63
1570.0 60 55 60 58 62 64 68 75 74 81
1610.0 78 81 77 77 73 77 83 79 80 82
1650.0 75 74 82 79 89 100 107 120 113 113
1690.0 105 100 87 91 83 84 87 81 87 86
1730.0 88 83 88 86 82 80 88 84 87 89
1770.0 87 90 91 90 85 84 78 74 73 70
1810.0 61 60 60 53 53 48 54 54 54 59
1850.0 58 59 60 58 56 55 53 52 49 52
1890.0 54 53 55 58 58 58 59 60 59 61
1930.0 62 64 64 67 71 77 86 92 98 104
1970.0 102 97 88 76 67 60 58 59 59 59
2010.0 58 56 57 53 53 53 53 54 55 58
2050.0 57 59 56 57 58 57 57 55 53 49
2090.0 51 49 47 46 48 47 47 42 41 39
2130.0 40 39 39 38 36 37 37 38 39 39
2170.0 41 40 42 41 40 41 40 40 42 41
2210.0 42 42 45 49 53 58 60 64 61 58
2250.0 56 53 57 54 52 58 62 70 75 80
2290.0 87 91 96 102 108 114 107 101 99 83
2330.0 68 64 56 59 76 75 77 63 67 56
2370.0 63 70 78 76 62 43 34 32 31 32
2410.0 34 34 31 30 27 26 25 24 25 24
2450.0 23 23 25 31 31 34 41 40 41 39
2490.0 40 40 43 45 48 54 52 50 46 42
2530.0 40 34 31 31 31 28 27 26 29 33
2570.0 34 39 40 37 34 34 38 39 41 43
2610.0 49 51 52 60 57 60 66 71 79 90
2650.0 103 111 119 129 147 170 198 223 236 232
2690.0 224 207 200 202 209 217 216 211 211 215
2730.0 218 218 215 213 222 235 244 247 237 228
2770.0 217 206 203 197 198 206 216 240 269 309
2810.0 350 397 460 552 664 800 956 1154 1425 1848
2850.0 2584 3756 5114 6165 6432 5747 4507 3168 2241 1809
2890.0 1701 1776 1957 2152 2288 2371 2462 2694 3061 3488
2930.0 3781 3998 4404 5528 7294 7660 6357 4062 2677 2719
2970.0 3560 4268 4002 2925 1863 1241 1054 944 826 673
3010.0 509 350 236 167 136 120 102 93 80 71
3050.0 62 59 53 46 47 42 42 34 37 36
3090.0 36 34 34 31 31 34 32 30 26 29
3130.0 29 25 21 24 25 22 25 20 19 18
3170.0 18 24 21 22 19 21 22 22 20 20
3210.0 17 18 19 18 20 23 21 18 21 21
3250.0 18 24 25 23 25 26 24 24 23 23
3290.0 26 26 24 23 26 24 27 27 31 30
3330.0 35 30 29 34 34 33 36 33 35 34
3370.0 35 37 39 39 46 43 39 39 38 34
3410.0 35 34 31 36 32 36 36 38 42 38
3450.0 46 40 40 35 33 30 30 33 30 30
3490.0 32 31 35 32 31 34 28 31 36 28
3530.0 32 26 27 32 26 32 32 32 23 38
3570.0 36 32 34 31 37 39 36 34 34 32
3610.0 32 25 29 33 33 31 37 34 33 30
3650.0 30 34 32 32 31 37 27 36 41 42
3690.0 38 35 31 45 40 43 48 38 41 39
3730.0 37 35 47 32 46 33 43 35 36 31
3770.0 35 40 30 38 29 34 33 33 34 48
3810.0 35 34 33 35 42 35 38 35 33 33
3850.0 36 26 29 23 27 32 29 35 35 46
3890.0 48 46 33 41 31 38 27 40 47 30
3930.0 43 45 31 21 28 43 40 49 46 42
##END=
