##TITLE=4,4'-Thiobis(o-cresol- 6-tert-butyl)-, diacetate
##JCAMP-DX=4.24
##DATA TYPE=INFRARED SPECTRUM
##ORIGIN=Sadtler Research Labs Under US-EPA Contract
##OWNER=NIST Standard Reference Data Program
##CAS REGISTRY NO=71173-06-3
##MOLFORM=C 26 H 34 O 4 S
##XUNITS=1/CM
##YUNITS=ABSORBANCE
##XFACTOR=1.0
##YFACTOR=0.000030933
##DELTAX=4.0
##FIRSTX=450.0
##LASTX=3966.0
##FIRSTY=0.011971
##MAXX=3966
##MINX=450
##MAXY=0.30933
##MINY=0
##NPOINTS=880
##XYDATA=(X++(Y..Y))
450.0 387 471 385 267 243 231 161 99 187 96
490.0 147 147 206 179 173 229 152 139 102 199
530.0 251 118 190 265 360 346 305 226 379 319
570.0 329 386 334 295 149 130 230 361 499 734
610.0 683 514 463 504 421 529 512 516 432 175
650.0 65 34 56 4 76 100 52 43 72 91
690.0 98 62 96 109 145 228 333 412 297 177
730.0 184 153 150 155 176 160 197 245 381 585
770.0 580 346 294 287 352 425 598 843 841 608
810.0 521 437 416 388 376 374 388 451 462 601
850.0 792 1032 1257 1455 1704 1697 1548 1459 1212 914
890.0 851 919 1044 1356 1786 2085 1732 1264 930 796
930.0 798 728 546 446 425 400 421 415 455 484
970.0 527 585 641 726 817 948 1113 1358 1713 2013
1010.0 1994 1632 1320 1148 1043 985 971 991 1010 1021
1050.0 998 953 938 988 1018 1104 1147 1208 1265 1366
1090.0 1470 1629 1834 2171 2571 2952 2953 2493 2010 1929
1130.0 2120 2662 3564 5006 7001 8366 7780 5719 3651 2677
1170.0 2595 2973 3742 4854 6279 7691 8661 9417 10000 9655
1210.0 8249 6114 3915 2345 1392 878 628 537 538 661
1250.0 742 779 861 979 1026 1004 836 587 357 206
1290.0 134 111 95 106 115 134 134 162 178 205
1330.0 249 297 367 454 604 807 1124 1679 2764 3981
1370.0 3893 2744 1814 1235 973 1000 1252 1443 1255 1150
1410.0 1203 1436 1761 1965 2009 1898 1764 1611 1504 1443
1450.0 1404 1394 1441 1511 1568 1601 1535 1451 1270 983
1490.0 641 436 352 282 278 256 228 226 229 216
1530.0 232 243 234 275 285 328 393 517 684 908
1570.0 1206 1252 1034 704 456 322 247 196 176 143
1610.0 149 163 164 167 166 160 176 173 165 179
1650.0 190 208 200 196 220 219 264 256 294 308
1690.0 321 344 386 416 443 496 531 606 627 709
1730.0 775 889 1031 1250 1693 2340 3473 4777 6135 6375
1770.0 5555 4400 3435 2482 1575 929 581 378 318 272
1810.0 274 265 242 235 202 179 136 121 104 110
1850.0 90 86 74 62 49 49 46 33 36 33
1890.0 30 29 23 29 40 60 56 65 48 50
1930.0 26 21 21 22 32 28 29 31 27 25
1970.0 27 20 25 30 43 38 38 51 38 47
2010.0 45 41 44 37 33 28 37 37 41 56
2050.0 55 67 66 82 81 68 74 62 58 61
2090.0 56 50 48 59 58 60 58 55 63 54
2130.0 41 42 35 37 34 28 27 23 40 41
2170.0 40 34 27 25 39 29 29 37 34 30
2210.0 24 34 34 28 32 35 36 34 23 33
2250.0 37 39 34 37 48 63 58 58 62 59
2290.0 73 76 78 74 85 80 67 56 52 54
2330.0 32 39 58 30 95 55 67 70 85 59
2370.0 62 52 91 93 79 64 53 61 61 39
2410.0 39 50 41 27 16 21 16 18 14 18
2450.0 17 12 17 21 14 30 25 26 7 16
2490.0 17 16 7 1 6 10 8 10 14 21
2530.0 16 28 24 25 33 23 30 32 33 45
2570.0 45 36 31 40 33 35 26 24 18 23
2610.0 31 9 25 20 25 31 30 38 32 34
2650.0 43 49 43 43 48 46 53 53 39 38
2690.0 47 46 61 53 50 60 70 87 73 73
2730.0 64 83 80 81 93 98 89 96 87 92
2770.0 93 106 111 117 132 125 136 128 147 179
2810.0 171 185 187 219 231 265 280 326 364 414
2850.0 492 600 740 906 1093 1258 1358 1357 1304 1251
2890.0 1229 1249 1308 1416 1524 1663 1771 1832 1910 1975
2930.0 2045 2119 2141 2166 2240 2399 2686 3013 3236 3369
2970.0 3299 2930 2341 1818 1462 1296 1248 1226 1137 959
3010.0 732 564 428 338 303 284 276 266 234 238
3050.0 215 179 157 144 137 141 136 153 132 108
3090.0 118 87 75 59 78 70 73 55 32 24
3130.0 39 45 50 44 42 51 40 45 50 48
3170.0 54 46 23 47 38 42 21 40 34 23
3210.0 47 30 15 19 27 38 32 26 31 26
3250.0 27 13 20 14 11 57 38 36 33 44
3290.0 54 44 47 38 35 39 55 42 26 39
3330.0 24 45 39 50 28 52 56 21 55 77
3370.0 50 46 63 53 58 58 39 65 56 46
3410.0 44 34 70 55 61 46 32 34 52 46
3450.0 29 36 50 64 76 83 82 67 56 75
3490.0 85 96 62 70 104 120 126 111 92 73
3530.0 77 95 67 49 66 40 63 70 55 80
3570.0 65 57 72 75 75 59 56 56 58 74
3610.0 59 34 62 68 15 17 57 17 79 54
3650.0 86 51 49 77 29 74 36 75 0 62
3690.0 52 76 68 58 50 75 77 78 43 110
3730.0 78 99 77 70 115 63 117 78 94 95
3770.0 97 134 92 111 106 113 89 147 112 129
3810.0 70 98 145 152 92 117 91 145 127 125
3850.0 118 96 147 122 144 97 126 114 160 117
3890.0 143 148 138 101 112 154 112 181 169 145
3930.0 98 97 187 97 63 108 137 165 111 139
##END=
