##TITLE=Acetamide, N-butyl-N-(p-tolyl)-,
##JCAMP-DX=4.24
##DATA TYPE=INFRARED SPECTRUM
##ORIGIN=Sadtler Research Labs Under US-EPA Contract
##OWNER=NIST Standard Reference Data Program
##CAS REGISTRY NO=71173-14-3
##MOLFORM=C 13 H 19 N O 3 S
##XUNITS=1/CM
##YUNITS=ABSORBANCE
##XFACTOR=1.0
##YFACTOR=0.000052319
##DELTAX=4.0
##FIRSTX=450.0
##LASTX=3966.0
##FIRSTY=0.003244
##MAXX=3966
##MINX=450
##MAXY=0.52319
##MINY=0
##NPOINTS=880
##XYDATA=(X++(Y..Y))
450.0 62 24 62 39 189 67 148 189 195 194
490.0 214 266 261 254 219 255 289 296 338 448
530.0 585 858 1189 1638 2121 2439 2238 1695 1202 1203
570.0 1582 2636 4313 5303 4797 3352 2235 1599 1168 800
610.0 563 350 297 229 249 289 464 705 1110 1708
650.0 2289 2558 2553 2026 1765 1463 1466 1801 2347 2554
690.0 2332 1759 1498 1629 2059 2437 2345 1753 1070 650
730.0 467 378 356 331 315 285 244 182 153 159
770.0 160 251 327 461 589 678 732 786 946 1240
810.0 1540 1439 1028 595 374 299 257 260 249 269
850.0 296 329 354 373 397 488 604 757 950 1236
890.0 1634 2116 2580 2769 2524 1959 1331 885 634 518
930.0 486 544 690 899 1080 1177 1143 987 810 711
970.0 709 767 844 933 1020 1095 1088 992 835 704
1010.0 618 582 562 514 432 388 424 432 442 438
1050.0 426 426 431 480 552 699 906 1239 1746 2435
1090.0 3104 3266 2689 1789 1167 917 844 834 795 706
1130.0 638 620 661 787 1044 1445 1970 2618 3489 4718
1170.0 6262 7450 7261 5577 3690 2397 1672 1345 1320 1484
1210.0 1726 2008 2382 2942 3638 4348 4797 4770 4304 3680
1250.0 3143 2635 2119 1670 1402 1255 1169 1085 970 847
1290.0 720 621 555 553 583 592 585 638 779 941
1330.0 1057 1080 1033 1079 1267 1584 2111 2898 4201 6313
1370.0 8703 10000 8888 6398 3995 2472 1679 1282 1130 1035
1410.0 939 860 755 758 749 764 758 787 825 797
1450.0 749 704 688 720 702 679 543 438 402 387
1490.0 440 653 695 568 342 185 147 129 98 108
1530.0 90 88 95 45 60 73 85 49 106 95
1570.0 119 121 190 172 270 335 472 593 646 557
1610.0 370 282 177 194 142 191 163 197 198 232
1650.0 168 225 221 212 280 320 361 456 454 526
1690.0 616 821 1063 1606 2617 4654 7272 8540 7180 4364
1730.0 2343 1245 774 565 414 372 362 351 321 303
1770.0 271 258 255 243 236 236 248 244 195 164
1810.0 122 83 67 46 36 20 26 23 14 0
1850.0 12 30 31 26 27 14 39 43 49 48
1890.0 58 62 76 94 101 118 109 99 69 69
1930.0 65 56 53 35 37 44 43 42 47 39
1970.0 41 44 48 50 51 43 41 47 49 51
2010.0 48 47 47 52 56 55 58 59 61 53
2050.0 53 56 55 54 48 58 58 58 51 51
2090.0 50 52 59 58 67 69 73 70 71 68
2130.0 69 74 66 67 65 66 66 69 69 72
2170.0 66 68 64 65 64 54 59 53 56 48
2210.0 50 48 52 50 54 53 50 59 55 56
2250.0 54 58 57 60 60 58 58 63 58 63
2290.0 61 73 83 92 92 93 91 75 84 77
2330.0 70 53 44 68 73 85 78 80 66 63
2370.0 68 69 87 90 69 58 50 51 48 49
2410.0 48 47 44 40 35 27 32 23 30 26
2450.0 26 28 27 34 31 37 30 34 32 36
2490.0 33 26 30 34 35 43 46 45 45 48
2530.0 56 51 53 56 60 58 68 64 56 60
2570.0 55 63 60 66 61 66 66 61 62 54
2610.0 57 55 57 53 50 44 42 44 44 44
2650.0 46 45 48 53 51 56 59 64 62 62
2690.0 62 69 60 59 59 63 55 65 65 65
2730.0 69 76 86 86 103 97 97 91 88 82
2770.0 82 84 86 93 95 106 105 116 119 127
2810.0 135 144 157 156 173 175 203 217 247 273
2850.0 315 368 446 567 738 941 1119 1252 1344 1363
2890.0 1241 1053 907 852 869 942 1035 1146 1251 1381
2930.0 1585 1850 2124 2295 2298 2177 2099 2176 2444 2856
2970.0 3154 2939 2286 1597 1173 952 838 784 734 698
3010.0 643 619 581 576 584 633 676 704 669 619
3050.0 597 551 492 421 412 427 419 364 293 262
3090.0 254 242 221 190 166 153 136 137 119 107
3130.0 103 103 95 91 91 87 92 84 89 69
3170.0 82 67 82 70 70 70 56 59 60 68
3210.0 52 59 55 64 54 57 48 47 47 50
3250.0 48 51 48 42 52 43 53 50 55 45
3290.0 45 55 45 52 43 56 51 46 58 60
3330.0 54 52 57 54 58 61 57 58 57 67
3370.0 71 65 66 56 70 70 82 86 91 107
3410.0 134 138 121 108 82 70 56 50 38 33
3450.0 45 48 49 47 51 52 48 45 49 34
3490.0 48 47 54 31 36 38 41 46 43 44
3530.0 38 49 47 58 42 46 53 39 61 52
3570.0 61 51 52 61 55 33 68 41 57 42
3610.0 58 38 55 44 35 70 41 59 32 33
3650.0 63 40 54 40 45 56 56 69 36 42
3690.0 54 53 33 47 45 44 53 42 36 48
3730.0 46 69 33 73 62 66 63 33 33 63
3770.0 57 39 43 53 31 41 47 41 76 71
3810.0 63 57 75 66 51 47 63 82 56 70
3850.0 59 100 68 64 72 91 71 71 77 50
3890.0 69 63 74 65 74 50 70 74 63 78
3930.0 56 43 59 45 65 67 69 78 47 63
##END=
