##TITLE=Pyridazineacetic acid, 1-, (6H), 3-chloro-6-oxo-, ethyl ester
##JCAMP-DX=4.24
##DATA TYPE=INFRARED SPECTRUM
##ORIGIN=Sadtler Research Labs Under US-EPA Contract
##OWNER=NIST Standard Reference Data Program
##CAS REGISTRY NO=71173-10-9
##MOLFORM=C 8 H 9 Cl N 2 O 3
##XUNITS=1/CM
##YUNITS=ABSORBANCE
##XFACTOR=1.0
##YFACTOR=0.000102832
##DELTAX=4.0
##FIRSTX=450.0
##LASTX=3966.0
##FIRSTY=0.000000
##MAXX=3966
##MINX=450
##MAXY=1.02832
##MINY=0
##NPOINTS=880
##XYDATA=(X++(Y..Y))
450.0 0 18 12 31 79 86 105 133 137 140
490.0 165 223 259 287 340 429 499 516 488 443
530.0 411 332 324 274 266 269 264 271 297 342
570.0 380 376 373 356 322 329 355 420 490 519
610.0 499 443 384 327 302 278 313 332 379 480
650.0 640 867 1097 1027 932 583 415 375 358 359
690.0 323 313 287 294 293 287 267 241 241 243
730.0 268 276 271 245 217 212 218 223 227 270
770.0 321 368 398 399 363 324 290 275 267 255
810.0 265 290 389 651 1135 1694 1852 1375 814 484
850.0 391 401 426 428 413 368 313 278 256 251
890.0 245 250 270 317 410 529 652 750 819 878
930.0 901 857 746 663 674 785 909 947 849 652
970.0 458 345 288 263 255 253 253 272 309 367
1010.0 452 598 826 1157 1546 1841 1879 1652 1302 986
1050.0 776 651 583 549 545 581 683 893 1258 1659
1090.0 1913 1976 1838 1571 1292 1074 1052 1210 1554 2070
1130.0 2529 2631 2297 1739 1281 1083 1061 1170 1399 1780
1170.0 2241 2614 2885 3181 3758 4652 5675 6409 6489 5757
1210.0 4531 3333 2469 1989 1745 1666 1729 1929 2232 2530
1250.0 2686 2575 2244 1831 1486 1235 1079 976 920 909
1290.0 963 1093 1319 1632 1961 2173 2092 1755 1344 1003
1330.0 799 698 657 664 723 837 966 966 868 791
1370.0 922 1168 1252 1114 846 755 849 972 1022 942
1410.0 789 649 519 440 388 361 344 347 368 382
1450.0 399 386 373 384 390 410 395 392 371 336
1490.0 303 322 371 485 631 748 777 672 518 398
1530.0 318 270 224 189 185 205 208 210 247 291
1570.0 344 439 651 1058 1798 2539 2778 2422 1531 853
1610.0 557 414 324 291 239 235 198 215 204 229
1650.0 213 279 335 440 516 567 666 889 1256 1904
1690.0 3118 4895 7553 9534 10000 7772 5266 3064 2123 1648
1730.0 1426 1216 1121 1029 1013 1137 1595 2504 4084 5518
1770.0 6115 5521 3958 2499 1489 933 714 605 544 485
1810.0 434 379 334 303 274 247 221 203 167 144
1850.0 130 130 118 112 113 99 110 109 113 103
1890.0 107 104 104 102 98 97 88 89 77 81
1930.0 79 79 77 78 89 101 102 89 79 61
1970.0 62 61 63 57 57 54 48 51 49 50
2010.0 46 47 45 48 50 50 53 49 54 55
2050.0 60 60 61 58 57 61 58 60 57 62
2090.0 60 60 60 57 54 51 50 42 42 37
2130.0 37 30 28 23 22 21 17 19 16 17
2170.0 17 19 18 19 17 15 15 13 13 14
2210.0 14 14 15 17 19 21 18 23 20 23
2250.0 21 24 25 28 29 26 25 23 22 21
2290.0 23 28 32 35 39 42 41 42 51 50
2330.0 53 63 54 81 77 68 91 74 102 82
2370.0 84 70 70 58 45 38 34 32 32 32
2410.0 29 35 32 33 31 27 30 26 28 28
2450.0 29 27 33 37 38 45 52 56 57 61
2490.0 58 53 45 38 34 27 26 23 21 19
2530.0 20 19 21 21 17 20 20 23 23 21
2570.0 23 27 24 22 20 20 21 21 25 23
2610.0 27 29 31 33 33 31 28 30 27 25
2650.0 22 21 21 18 20 21 22 26 29 30
2690.0 31 31 28 27 24 23 23 23 21 21
2730.0 23 24 26 28 29 35 35 34 39 37
2770.0 43 43 41 39 42 45 41 43 44 44
2810.0 48 53 58 66 64 60 62 60 58 58
2850.0 60 64 72 77 87 98 113 132 155 178
2890.0 186 187 187 196 218 243 258 267 265 262
2930.0 274 314 378 460 521 530 504 518 598 717
2970.0 792 802 806 898 1020 1053 948 782 648 560
3010.0 490 423 352 287 230 188 153 132 112 103
3050.0 87 84 80 80 84 91 87 80 67 54
3090.0 54 53 61 66 72 75 71 64 57 46
3130.0 42 38 35 38 34 35 34 30 30 32
3170.0 34 31 33 31 33 29 25 26 26 28
3210.0 29 32 29 27 26 25 23 26 26 21
3250.0 21 19 23 21 20 26 24 25 26 34
3290.0 34 32 32 29 24 24 21 21 20 21
3330.0 23 17 21 21 23 20 22 22 20 32
3370.0 33 45 49 64 81 104 105 98 86 58
3410.0 43 32 28 18 25 23 18 20 18 15
3450.0 19 13 13 22 21 23 21 13 20 18
3490.0 21 29 28 31 34 41 51 47 50 43
3530.0 39 36 28 27 22 22 21 14 19 28
3570.0 27 25 23 25 30 26 28 21 24 20
3610.0 22 20 24 33 23 31 22 31 21 19
3650.0 22 13 18 22 24 21 20 28 21 24
3690.0 13 33 25 29 26 27 29 26 23 32
3730.0 25 22 31 32 23 29 14 21 30 25
3770.0 19 28 23 36 16 15 20 13 22 12
3810.0 26 13 18 14 26 22 14 14 15 21
3850.0 20 30 21 22 28 28 13 18 33 20
3890.0 26 25 32 22 26 19 26 24 18 22
3930.0 27 34 26 21 19 31 19 22 27 19
##END=
