##TITLE=3-Pyridinemethanol, .alpha.,2,4,6-tetramethyl-,
##JCAMP-DX=4.24
##DATA TYPE=INFRARED SPECTRUM
##ORIGIN=Sadtler Research Labs Under US-EPA Contract
##OWNER=NIST Standard Reference Data Program
##CAS REGISTRY NO=71173-18-7
##MOLFORM=C 10 H 15 N O
##XUNITS=1/CM
##YUNITS=ABSORBANCE
##XFACTOR=1.0
##YFACTOR=0.000051974
##DELTAX=4.0
##FIRSTX=450.0
##LASTX=3966.0
##FIRSTY=0.003794
##MAXX=3966
##MINX=450
##MAXY=0.51974
##MINY=0
##NPOINTS=880
##XYDATA=(X++(Y..Y))
450.0 73 201 366 651 587 673 619 472 352 257
490.0 176 163 136 138 164 160 229 263 456 620
530.0 782 829 740 619 457 271 165 156 172 165
570.0 247 257 304 306 320 310 308 300 266 228
610.0 192 158 99 87 64 38 38 27 36 30
650.0 22 5 20 15 48 88 65 63 95 130
690.0 195 201 225 295 449 650 828 871 762 516
730.0 284 159 120 85 83 88 106 108 94 91
770.0 73 88 95 102 93 111 110 90 93 104
810.0 111 130 147 153 154 154 202 290 495 806
850.0 1127 1534 1644 1302 1047 929 960 1275 1739 2222
890.0 2451 2373 1984 1574 1308 1294 1401 1438 1363 1131
930.0 835 607 508 489 533 598 646 652 637 608
970.0 591 642 737 889 1090 1305 1513 1675 1789 1843
1010.0 1886 1920 1963 1961 1911 1804 1658 1550 1515 1599
1050.0 1823 2234 2812 3503 4166 4666 4944 4996 4908 4686
1090.0 4363 3855 3225 2548 1919 1430 1096 900 812 796
1130.0 837 928 1060 1242 1449 1643 1784 1824 1759 1579
1170.0 1365 1159 1000 912 873 887 894 956 1042 1121
1210.0 1216 1293 1321 1307 1285 1261 1305 1429 1645 1979
1250.0 2376 2761 2977 2910 2601 2156 1735 1449 1272 1197
1290.0 1202 1265 1356 1409 1400 1348 1258 1217 1273 1401
1330.0 1602 1840 2105 2306 2406 2453 2463 2511 2677 2996
1370.0 3437 3991 4372 4406 4167 3771 3377 3100 2834 2580
1410.0 2318 2119 2024 1981 2027 2131 2335 2596 2950 3320
1450.0 3735 4072 4298 4302 4136 3836 3434 3001 2610 2331
1490.0 2157 1993 1914 1855 1839 1844 1846 1919 1974 2090
1530.0 2219 2457 2704 3077 3542 3937 4330 4526 4613 4455
1570.0 4333 4387 4950 6172 8016 9781 10000 9180 6915 4500
1610.0 2542 1538 1055 773 646 533 482 420 360 313
1650.0 273 230 200 179 152 129 113 104 113 109
1690.0 119 142 186 214 237 231 222 186 127 82
1730.0 62 53 29 31 31 32 26 25 24 21
1770.0 23 24 25 27 30 33 30 33 39 24
1810.0 16 24 15 10 8 13 6 3 7 16
1850.0 14 15 19 20 28 36 38 43 50 55
1890.0 56 56 53 50 51 46 49 39 37 30
1930.0 29 27 31 35 38 46 52 54 57 62
1970.0 59 58 58 57 47 45 33 28 14 14
2010.0 11 11 14 8 10 7 5 11 11 11
2050.0 11 7 6 10 12 13 11 15 18 20
2090.0 22 30 30 25 27 29 31 37 38 45
2130.0 42 40 40 38 37 39 34 37 38 37
2170.0 38 40 32 23 20 16 12 13 11 5
2210.0 8 8 8 5 7 8 9 9 11 10
2250.0 5 11 14 7 9 10 9 13 15 19
2290.0 27 34 41 37 43 52 37 30 41 37
2330.0 29 38 22 38 53 69 62 60 51 76
2370.0 90 88 106 117 114 108 109 108 106 110
2410.0 109 98 99 93 85 77 78 77 80 77
2450.0 71 74 77 80 82 77 73 72 73 64
2490.0 68 56 53 57 58 57 56 56 56 50
2530.0 47 51 53 50 51 47 52 46 48 49
2570.0 48 44 50 56 59 65 68 66 68 71
2610.0 69 71 83 76 76 78 74 72 78 77
2650.0 82 82 78 92 97 102 103 117 116 114
2690.0 113 118 117 120 125 124 133 149 165 198
2730.0 229 256 266 268 258 238 219 206 196 197
2770.0 207 204 212 216 222 236 244 262 279 291
2810.0 309 334 364 395 424 462 511 571 643 744
2850.0 878 1032 1222 1421 1617 1783 1928 2025 2089 2095
2890.0 2104 2105 2136 2205 2333 2537 2836 3305 3966 4891
2930.0 5931 6810 7272 7207 6641 5872 5250 4828 4647 4699
2970.0 4969 5362 5723 5856 5755 5427 4937 4427 3903 3358
3010.0 2901 2597 2417 2334 2332 2351 2365 2307 2178 1974
3050.0 1761 1553 1368 1213 1072 947 838 749 675 624
3090.0 585 555 522 487 455 422 398 364 331 314
3130.0 285 264 248 225 210 211 194 185 170 157
3170.0 138 137 119 108 99 102 79 77 65 58
3210.0 62 45 50 42 40 35 28 23 15 25
3250.0 31 24 17 19 24 14 26 17 17 9
3290.0 11 6 12 13 5 5 6 15 5 11
3330.0 9 9 10 9 12 10 14 11 25 31
3370.0 36 14 21 42 39 48 27 38 26 28
3410.0 56 51 39 42 49 41 55 53 47 50
3450.0 35 47 45 39 50 50 51 38 40 40
3490.0 42 34 32 35 40 25 39 40 26 33
3530.0 23 27 26 28 34 29 45 41 61 67
3570.0 106 139 130 120 103 82 73 44 40 43
3610.0 48 57 65 82 111 182 350 635 1027 1506
3650.0 1970 1989 1595 1159 681 363 174 107 69 65
3690.0 44 41 38 43 39 22 26 45 38 20
3730.0 32 1 3 3 3 3 7 3 3 3
3770.0 3 3 4 3 18 7 10 14 4 3
3810.0 3 12 4 5 3 23 3 22 0 34
3850.0 30 22 32 30 16 42 25 46 24 54
3890.0 59 47 51 65 27 60 79 64 42 49
3930.0 55 48 39 42 25 52 56 52 85 76
##END=
