##TITLE=Acetamide, N-ethyl-N-(p-tolyl)-,
##JCAMP-DX=4.24
##DATA TYPE=INFRARED SPECTRUM
##ORIGIN=Sadtler Research Labs Under US-EPA Contract
##OWNER=NIST Standard Reference Data Program
##CAS REGISTRY NO=71173-13-2
##MOLFORM=C 11 H 15 N O 3 S
##XUNITS=1/CM
##YUNITS=ABSORBANCE
##XFACTOR=1.0
##YFACTOR=0.000079581
##DELTAX=4.0
##FIRSTX=450.0
##LASTX=3966.0
##FIRSTY=0.000398
##MAXX=3966
##MINX=450
##MAXY=0.79581
##MINY=0
##NPOINTS=880
##XYDATA=(X++(Y..Y))
450.0 5 0 30 30 134 86 185 243 296 316
490.0 369 392 389 384 391 409 435 438 473 540
530.0 623 745 948 1308 1864 2458 2534 2033 1390 1305
570.0 1855 3019 4636 5355 4771 3244 2082 1458 1080 800
610.0 604 475 425 441 481 618 837 1250 1809 2137
650.0 2059 1548 1188 960 932 1044 1465 2292 3890 5076
690.0 5523 3943 2606 1975 1919 1608 1060 619 416 338
730.0 294 279 285 277 301 344 407 523 728 1065
770.0 1514 1835 1846 1574 1256 1052 955 947 1066 1307
810.0 1524 1458 1132 770 552 443 377 348 311 298
850.0 315 329 355 375 390 384 345 316 323 342
890.0 381 453 583 802 1152 1524 1703 1700 1744 2089
930.0 2724 3398 3865 3816 3314 2558 1834 1287 941 734
970.0 613 543 517 515 536 590 627 630 591 551
1010.0 527 579 645 639 583 521 532 559 588 605
1050.0 605 615 634 695 778 917 1097 1372 1773 2378
1090.0 3005 3230 2858 2077 1422 1070 916 864 831 780
1130.0 724 688 700 790 1016 1449 2205 3293 4402 5037
1170.0 5077 4979 5207 5540 5410 4507 3243 2229 1736 1663
1210.0 1768 1961 2250 2704 3305 4033 4762 5304 5419 4940
1250.0 4049 3043 2228 1668 1333 1104 957 847 756 672
1290.0 596 540 514 534 577 622 693 848 1069 1263
1330.0 1359 1344 1281 1284 1425 1710 2219 3027 4383 6448
1370.0 8690 10000 9130 6906 4566 2963 2030 1510 1292 1184
1410.0 1093 1008 905 872 832 809 779 779 818 854
1450.0 861 817 746 716 675 626 518 450 445 461
1490.0 539 706 746 652 464 303 272 249 225 224
1530.0 212 205 205 179 186 199 205 188 222 221
1570.0 235 234 280 281 361 426 553 679 740 674
1610.0 506 387 286 281 246 278 263 287 285 295
1650.0 251 265 257 256 315 369 431 509 527 561
1690.0 645 818 1088 1683 2815 4896 7373 8374 7254 4675
1730.0 2705 1569 1035 785 606 554 542 539 496 454
1770.0 398 351 324 296 289 279 297 291 254 223
1810.0 183 151 135 118 107 92 85 82 66 60
1850.0 62 75 73 67 70 57 75 77 84 84
1890.0 93 95 107 119 130 139 129 119 89 83
1930.0 74 67 59 46 43 42 41 38 39 37
1970.0 36 41 43 42 41 36 38 44 47 53
2010.0 54 53 52 51 51 47 46 41 39 32
2050.0 33 33 33 31 27 35 33 32 30 32
2090.0 34 33 44 43 49 50 53 47 42 43
2130.0 43 41 38 43 44 46 50 56 64 68
2170.0 66 68 64 64 60 49 48 41 41 35
2210.0 36 35 34 28 30 27 25 33 29 35
2250.0 33 37 39 40 43 44 46 51 49 49
2290.0 47 51 54 56 53 47 45 34 39 44
2330.0 33 32 26 44 47 45 48 44 41 37
2370.0 37 37 48 45 36 32 28 33 32 34
2410.0 33 33 30 25 24 18 19 16 20 20
2450.0 20 23 25 29 29 32 27 28 21 24
2490.0 16 15 19 17 18 21 25 26 26 27
2530.0 32 30 35 35 36 35 38 34 31 37
2570.0 32 36 32 34 32 35 36 31 27 24
2610.0 25 19 24 22 18 13 7 6 4 5
2650.0 1 0 1 2 4 6 5 10 10 14
2690.0 14 16 11 14 12 16 9 12 14 16
2730.0 17 19 23 29 41 33 33 30 28 25
2770.0 28 25 24 28 30 35 34 40 45 50
2810.0 55 56 61 59 69 72 83 89 102 112
2850.0 133 154 174 206 240 292 350 416 475 520
2890.0 523 499 452 415 404 412 430 464 519 607
2930.0 729 895 1069 1207 1252 1148 948 765 681 675
2970.0 703 780 917 1107 1240 1201 1021 831 711 659
3010.0 628 602 552 519 505 538 581 599 578 532
3050.0 503 467 420 368 355 362 353 303 241 209
3090.0 199 185 170 141 124 106 89 86 71 66
3130.0 55 58 51 50 48 47 50 40 43 33
3170.0 36 32 36 33 27 28 20 18 17 17
3210.0 10 17 13 11 10 10 12 5 5 9
3250.0 8 6 9 5 10 2 8 8 13 9
3290.0 6 14 5 5 5 12 10 17 20 15
3330.0 9 18 17 17 20 24 22 23 20 30
3370.0 36 32 33 25 31 38 47 54 71 85
3410.0 111 128 118 101 78 58 35 28 14 15
3450.0 22 17 22 21 23 18 21 12 12 13
3490.0 13 15 16 7 12 11 7 19 16 17
3530.0 6 19 16 23 14 13 17 25 26 19
3570.0 29 21 25 33 28 15 40 21 28 26
3610.0 30 17 26 19 18 21 10 27 15 15
3650.0 26 14 23 14 15 32 28 33 1 12
3690.0 21 18 9 16 21 14 17 9 12 23
3730.0 31 36 10 27 32 28 30 16 4 19
3770.0 19 4 5 14 6 14 17 10 24 27
3810.0 19 13 27 30 17 27 31 34 12 23
3850.0 24 43 16 28 41 50 38 25 36 17
3890.0 39 29 32 35 36 23 38 36 30 39
3930.0 33 24 29 14 30 38 32 33 10 29
##END=
