##TITLE=Methanone, cyclohexylphenyl-
##JCAMP-DX=4.24
##DATA TYPE=INFRARED SPECTRUM
##ORIGIN=Sadtler Research Labs Under US-EPA Contract
##OWNER=NIST Standard Reference Data Program
##CAS REGISTRY NO=712-50-5
##MOLFORM=C 13 H 16 O
##XUNITS=1/CM
##YUNITS=ABSORBANCE
##XFACTOR=1.0
##YFACTOR=0.000148712
##DELTAX=4.0
##FIRSTX=450.0
##LASTX=3966.0
##FIRSTY=0.011897
##MAXX=3966
##MINX=450
##MAXY=1.48712
##MINY=0
##NPOINTS=880
##XYDATA=(X++(Y..Y))
450.0 80 111 29 55 84 107 72 74 70 115
490.0 90 109 149 124 119 80 68 49 71 23
530.0 48 59 52 75 66 64 29 47 49 50
570.0 30 30 31 17 9 31 42 17 42 40
610.0 53 53 82 74 82 108 116 126 130 223
650.0 310 538 796 946 972 814 754 854 1119 1527
690.0 2104 2446 2436 2003 1488 1041 717 542 424 363
730.0 327 292 287 274 290 328 377 429 485 477
770.0 442 404 370 356 343 320 307 293 340 478
810.0 585 567 373 165 94 76 76 81 77 91
850.0 123 163 172 192 176 200 257 285 299 305
890.0 322 295 238 197 175 178 191 213 220 237
930.0 254 264 268 278 293 357 482 716 1128 1819
970.0 2627 2831 2346 1328 576 319 283 334 350 335
1010.0 283 269 330 388 400 336 265 209 191 164
1050.0 137 118 110 115 126 138 134 124 108 98
1090.0 89 94 100 103 106 101 104 110 130 159
1130.0 198 229 256 257 241 238 252 311 412 582
1170.0 818 1092 1259 1220 1117 1102 1345 1913 2542 2825
1210.0 2564 1851 1204 876 772 799 872 1008 1330 1978
1250.0 2481 2416 1747 914 564 477 457 481 542 655
1290.0 759 823 829 812 799 822 902 1030 1150 1175
1330.0 1133 1022 829 607 423 326 348 444 639 907
1370.0 1107 1105 874 568 358 262 204 173 153 145
1410.0 135 143 137 153 170 207 282 433 833 1341
1450.0 1661 1663 1281 911 656 439 291 187 148 107
1490.0 90 92 81 78 66 67 68 70 61 76
1530.0 79 90 89 75 83 89 98 91 116 144
1570.0 189 252 325 363 382 392 421 460 438 361
1610.0 260 202 177 163 143 133 122 117 131 150
1650.0 176 220 281 340 402 495 620 889 1292 2063
1690.0 3194 4456 5074 4966 3818 2508 1510 941 627 456
1730.0 317 214 158 116 89 75 84 77 84 87
1770.0 89 83 77 67 55 52 60 81 99 125
1810.0 121 104 80 62 48 36 31 26 22 17
1850.0 20 23 24 24 26 26 34 43 48 56
1890.0 63 70 76 74 71 62 54 43 31 25
1930.0 25 26 36 43 62 77 85 87 86 83
1970.0 73 59 40 25 19 15 15 13 13 12
2010.0 14 10 10 8 7 5 4 4 3 6
2050.0 5 8 8 10 7 5 3 2 0 1
2090.0 0 2 2 4 4 3 1 0 2 2
2130.0 3 4 4 4 5 6 8 8 6 7
2170.0 9 10 13 13 12 8 5 6 4 5
2210.0 6 8 7 9 8 10 12 15 11 12
2250.0 9 10 9 9 9 8 7 10 9 10
2290.0 12 12 18 23 24 29 42 47 50 51
2330.0 53 58 53 53 65 48 69 53 48 40
2370.0 39 27 34 35 28 24 26 26 23 26
2410.0 24 22 21 18 17 15 13 11 11 10
2450.0 10 8 11 10 10 8 13 13 13 15
2490.0 13 14 9 11 6 10 9 9 11 15
2530.0 15 13 12 10 12 11 12 13 15 17
2570.0 18 23 30 31 35 40 40 43 41 40
2610.0 39 37 43 45 46 45 46 45 49 56
2650.0 63 76 86 97 106 110 107 98 85 72
2690.0 64 60 59 55 54 47 43 37 36 36
2730.0 36 36 37 39 36 39 42 46 49 52
2770.0 57 67 77 87 100 111 123 132 139 139
2810.0 140 145 153 169 183 201 232 279 365 534
2850.0 858 1425 2204 2958 3259 2920 2205 1547 1152 952
2890.0 882 917 1028 1192 1407 1673 1996 2421 3071 4041
2930.0 5431 7277 9208 10000 9121 6829 4288 2568 1604 1061
2970.0 733 519 381 289 231 189 164 154 150 154
3010.0 165 186 220 267 328 394 464 513 516 482
3050.0 445 453 545 686 906 1132 1177 1049 841 733
3090.0 729 671 564 428 329 246 171 118 83 69
3130.0 59 53 49 48 52 54 59 62 64 57
3170.0 49 39 29 22 20 15 13 14 16 11
3210.0 15 15 15 15 13 17 17 12 12 11
3250.0 9 11 11 8 10 11 15 12 12 13
3290.0 13 12 13 10 13 17 13 14 12 13
3330.0 13 14 20 22 25 29 35 42 52 61
3370.0 70 83 86 81 70 54 42 29 24 23
3410.0 19 17 16 18 19 16 17 22 22 22
3450.0 26 21 19 26 25 24 16 18 17 13
3490.0 11 9 9 13 8 9 8 10 5 10
3530.0 9 4 11 12 10 12 10 9 11 10
3570.0 6 7 8 10 12 13 5 10 9 13
3610.0 12 14 12 12 16 16 17 17 18 23
3650.0 27 24 22 20 24 14 19 21 26 17
3690.0 17 21 24 30 30 30 33 31 27 34
3730.0 37 33 26 30 30 34 24 22 22 11
3770.0 16 13 12 23 23 23 21 11 17 21
3810.0 25 16 19 21 10 17 21 22 24 26
3850.0 19 16 22 15 12 17 14 14 23 15
3890.0 21 16 8 12 25 18 14 21 23 22
3930.0 14 22 5 13 16 26 33 18 19 16
##END=
