##TITLE=Ethanol, 2-[4-(1,1-dimethylethyl)phenoxy]-
##JCAMP-DX=4.24
##DATA TYPE=INFRARED SPECTRUM
##ORIGIN=Sadtler Research Labs Under US-EPA Contract
##OWNER=NIST Standard Reference Data Program
##CAS REGISTRY NO=713-46-2
##MOLFORM=C 12 H 18 O 2
##XUNITS=1/CM
##YUNITS=ABSORBANCE
##XFACTOR=1.0
##YFACTOR=0.000117505
##DELTAX=4.0
##FIRSTX=450.0
##LASTX=3966.0
##FIRSTY=0.006933
##MAXX=3966
##MINX=450
##MAXY=1.17505
##MINY=0
##NPOINTS=880
##XYDATA=(X++(Y..Y))
450.0 59 77 94 89 62 107 121 90 147 25
490.0 29 90 103 178 212 193 210 241 250 277
530.0 351 438 617 710 868 987 981 957 787 694
570.0 499 449 449 366 207 193 148 114 92 78
610.0 66 59 86 69 107 99 90 84 110 127
650.0 178 184 218 249 279 367 312 287 207 138
690.0 94 56 41 40 37 37 42 52 56 25
730.0 56 64 74 59 60 65 67 82 94 113
770.0 139 203 279 365 441 477 533 547 555 581
810.0 675 855 1096 1374 1673 1850 1819 1613 1305 988
850.0 739 591 524 498 506 522 553 590 639 710
890.0 811 930 1042 1145 1226 1279 1218 1055 841 669
930.0 531 449 381 333 301 277 268 263 269 275
970.0 290 295 322 357 396 444 510 611 752 1057
1010.0 1472 1772 1973 2167 2657 3377 4160 4799 4985 4705
1050.0 4021 3294 2685 2325 2161 2111 2113 2122 2083 1973
1090.0 1805 1608 1427 1274 1182 1113 1049 955 854 761
1130.0 693 636 597 554 526 517 532 598 734 1005
1170.0 1507 2551 4159 5265 4898 3353 2038 1582 1513 1601
1210.0 1757 2014 2433 3089 4014 5152 6463 7885 9275 10000
1250.0 9404 7480 5419 4091 3379 2902 2618 2568 2743 2992
1290.0 3069 2821 2337 1829 1420 1127 936 800 750 723
1330.0 732 747 747 813 915 1020 1183 1422 1739 2121
1370.0 2331 2209 1823 1410 1108 1053 1166 1264 1197 978
1410.0 769 707 550 534 473 482 446 485 571 693
1450.0 890 1248 1731 2055 2014 1712 1497 1546 1693 1765
1490.0 1838 2122 2666 3826 5646 7908 8784 7070 4214 2050
1530.0 1089 688 474 336 301 335 316 291 345 406
1570.0 452 535 625 696 768 838 1000 1230 1509 1763
1610.0 1906 1797 1422 992 614 447 310 237 218 180
1650.0 123 111 136 122 109 90 62 87 40 27
1690.0 59 76 18 17 40 72 47 5 58 80
1730.0 58 19 71 92 103 110 149 123 99 90
1770.0 58 37 63 43 43 34 29 35 32 67
1810.0 62 61 70 62 57 46 61 76 60 52
1850.0 78 107 116 123 123 118 156 159 161 147
1890.0 129 120 116 110 101 93 86 81 66 81
1930.0 85 85 86 74 83 90 95 96 96 89
1970.0 90 87 84 79 71 54 56 61 67 66
2010.0 68 65 69 85 97 101 113 110 113 117
2050.0 117 113 106 97 95 106 115 123 127 127
2090.0 120 113 97 83 72 64 61 57 50 51
2130.0 49 47 45 43 41 39 35 33 34 32
2170.0 29 29 29 27 23 26 22 25 26 22
2210.0 21 23 25 24 22 19 19 17 19 12
2250.0 15 19 20 24 17 22 26 31 37 50
2290.0 53 62 77 77 81 84 85 81 82 62
2330.0 57 36 46 15 7 51 103 93 20 2
2370.0 2 2 2 2 24 42 46 50 53 58
2410.0 57 57 58 59 59 54 52 43 38 35
2450.0 35 40 33 35 36 39 44 42 44 46
2490.0 47 41 36 28 31 31 39 38 42 54
2530.0 57 54 64 52 50 47 39 35 36 28
2570.0 20 16 15 19 19 23 21 16 17 16
2610.0 2 3 5 8 13 16 19 24 13 12
2650.0 23 24 36 43 53 64 59 62 71 83
2690.0 88 92 102 101 110 117 130 157 166 168
2730.0 161 148 146 137 121 123 131 140 138 141
2770.0 141 137 148 151 166 178 181 189 188 202
2810.0 226 249 276 289 305 331 359 395 448 513
2850.0 614 764 961 1252 1618 2060 2456 2761 2891 2855
2890.0 2710 2565 2490 2526 2706 2962 3150 3194 3216 3270
2930.0 3389 3554 3696 3860 4132 4660 5591 6942 8470 9538
2970.0 9237 7699 5592 3778 2564 1750 1211 863 649 507
3010.0 433 386 362 350 376 448 576 748 959 1055
3050.0 962 778 638 586 585 580 548 515 469 444
3090.0 417 416 410 398 355 319 266 221 179 152
3130.0 144 128 95 68 58 53 52 59 58 58
3170.0 61 70 66 69 77 62 58 55 60 65
3210.0 58 65 67 59 51 54 43 40 42 41
3250.0 29 51 59 74 84 78 86 77 80 67
3290.0 66 52 40 46 27 44 35 18 27 25
3330.0 22 22 22 26 35 19 27 26 40 38
3370.0 33 28 28 30 29 34 32 30 29 39
3410.0 39 35 37 35 33 28 28 29 27 27
3450.0 1 32 20 26 31 27 43 32 28 29
3490.0 23 26 36 26 10 30 34 29 34 33
3530.0 17 28 17 31 33 32 36 19 25 27
3570.0 30 21 34 37 46 57 50 53 63 90
3610.0 113 142 189 262 317 434 558 717 761 676
3650.0 540 429 400 398 385 368 327 269 234 195
3690.0 164 110 63 49 49 42 33 15 21 13
3730.0 17 2 2 12 23 2 2 2 2 2
3770.0 2 2 2 2 2 2 2 2 5 5
3810.0 2 2 2 2 2 2 2 2 2 2
3850.0 17 43 4 2 8 2 2 2 2 3
3890.0 1 14 4 2 2 2 2 2 5 2
3930.0 9 26 0 58 18 34 6 16 27 34
##END=
