##TITLE=Pentadecanoic acid, methyl ester
##JCAMP-DX=4.24
##DATA TYPE=INFRARED SPECTRUM
##ORIGIN=Sadtler Research Labs Under US-EPA Contract
##OWNER=NIST Standard Reference Data Program
##CAS REGISTRY NO=7132-64-1
##MOLFORM=C 16 H 32 O 2
##XUNITS=1/CM
##YUNITS=ABSORBANCE
##XFACTOR=1.0
##YFACTOR=0.000167578
##DELTAX=4.0
##FIRSTX=450.0
##LASTX=3966.0
##FIRSTY=0.006200
##MAXX=3966
##MINX=450
##MAXY=1.67578
##MINY=0
##NPOINTS=880
##XYDATA=(X++(Y..Y))
450.0 37 102 156 167 40 13 68 135 269 93
490.0 83 138 75 4 125 50 146 139 153 16
530.0 48 109 89 124 144 118 102 72 93 175
570.0 55 105 76 67 98 79 127 149 138 139
610.0 143 109 92 56 87 65 98 98 22 79
650.0 98 119 80 97 88 138 75 61 123 107
690.0 87 101 102 138 176 189 203 214 218 210
730.0 236 213 188 166 117 116 155 145 146 137
770.0 114 92 109 116 116 101 95 90 112 147
810.0 136 153 156 139 149 158 171 165 191 175
850.0 157 158 168 149 158 158 168 130 99 121
890.0 129 107 107 89 78 69 60 84 63 80
930.0 60 52 64 74 60 49 74 78 88 88
970.0 94 106 118 149 141 163 215 252 275 314
1010.0 333 376 369 405 399 363 356 346 333 329
1050.0 321 306 298 306 334 316 342 329 373 358
1090.0 371 395 432 481 525 572 655 634 661 698
1130.0 716 786 870 1005 1153 1320 1486 1658 1817 1953
1170.0 2036 2072 2005 1897 1762 1680 1676 1664 1651 1586
1210.0 1529 1477 1434 1410 1380 1377 1366 1379 1398 1387
1250.0 1353 1305 1215 1118 1014 908 828 771 711 691
1290.0 655 641 636 634 629 632 612 610 583 566
1330.0 561 575 605 661 720 766 817 830 796 739
1370.0 658 573 492 426 356 295 243 203 196 185
1410.0 212 225 249 295 377 489 709 910 1010 926
1450.0 885 902 954 991 968 792 666 448 340 271
1490.0 195 173 135 133 110 79 106 67 65 77
1530.0 57 79 41 53 56 55 68 20 41 50
1570.0 49 57 37 65 50 55 48 54 45 41
1610.0 54 23 46 21 46 27 29 20 32 26
1650.0 24 13 22 49 34 30 38 44 59 58
1690.0 72 92 96 110 158 201 256 312 416 546
1730.0 697 905 1161 1484 1813 2381 2818 3431 3423 2849
1770.0 2359 1781 1445 1097 781 564 365 283 197 145
1810.0 116 76 80 51 42 40 29 39 27 26
1850.0 24 24 24 22 21 18 21 17 19 16
1890.0 19 13 20 18 17 14 15 15 18 17
1930.0 16 19 19 22 21 26 22 24 22 26
1970.0 28 26 28 27 28 30 30 34 33 35
2010.0 35 38 42 43 45 46 44 47 45 44
2050.0 44 40 40 40 37 35 33 32 28 27
2090.0 28 21 23 21 18 18 12 14 16 13
2130.0 13 12 12 12 14 12 12 14 12 12
2170.0 11 12 12 13 8 10 9 10 9 7
2210.0 8 8 8 7 4 7 6 10 8 10
2250.0 10 9 12 11 10 12 12 13 14 14
2290.0 16 19 20 18 20 20 15 17 14 15
2330.0 18 8 12 8 16 18 19 18 25 20
2370.0 15 15 19 19 17 18 14 14 17 12
2410.0 15 15 16 14 15 14 14 14 14 16
2450.0 13 13 13 12 12 12 12 14 15 14
2490.0 14 15 15 16 16 19 21 23 23 22
2530.0 25 24 25 29 27 28 26 28 31 29
2570.0 33 35 37 37 39 41 42 46 46 49
2610.0 52 52 54 53 57 56 59 62 65 66
2650.0 70 75 74 81 82 89 93 90 96 95
2690.0 97 94 90 87 87 81 82 83 86 85
2730.0 89 92 95 98 102 102 106 107 117 125
2770.0 135 141 147 153 164 176 191 203 214 229
2810.0 252 277 308 350 394 446 511 605 753 991
2850.0 1372 2000 2908 3741 3905 3422 2785 2278 1993 1833
2890.0 1713 1685 1804 2068 2461 2957 3571 4375 5567 7350
2930.0 9272 10000 9283 7802 6266 4964 4095 3671 3533 3344
2970.0 2964 2418 1808 1349 1074 888 770 686 620 550
3010.0 492 447 415 389 366 343 314 282 251 222
3050.0 199 181 163 151 137 128 127 119 112 112
3090.0 104 100 93 92 89 84 81 76 71 66
3130.0 62 62 57 57 52 50 52 47 47 46
3170.0 44 44 45 41 38 40 38 38 35 32
3210.0 31 28 28 25 25 21 23 20 21 17
3250.0 16 19 22 20 16 19 15 13 18 19
3290.0 18 16 15 17 20 17 8 16 14 14
3330.0 16 21 18 17 15 15 19 16 14 22
3370.0 18 19 20 16 17 17 19 20 15 17
3410.0 22 19 21 19 18 18 20 13 18 18
3450.0 19 21 22 24 22 25 23 26 35 41
3490.0 41 44 47 39 46 34 34 26 25 28
3530.0 21 22 20 18 28 16 14 19 28 22
3570.0 41 44 50 47 32 24 24 37 20 26
3610.0 24 30 28 25 27 36 25 33 31 24
3650.0 25 16 36 32 50 18 29 11 37 36
3690.0 10 21 43 35 34 26 20 34 36 31
3730.0 37 9 23 34 12 24 13 44 31 26
3770.0 33 20 47 30 40 41 29 32 22 10
3810.0 36 21 43 0 39 36 27 35 13 34
3850.0 26 16 8 40 35 18 31 19 34 17
3890.0 46 19 40 10 17 44 29 38 22 39
3930.0 33 21 38 40 22 51 25 33 20 32
##END=
