##TITLE=Vanillic acid, isobutyl ester
##JCAMP-DX=4.24
##DATA TYPE=INFRARED SPECTRUM
##ORIGIN=Sadtler Research Labs Under US-EPA Contract
##OWNER=NIST Standard Reference Data Program
##CAS REGISTRY NO=7152-88-7
##MOLFORM=C 12 H 16 O 4
##XUNITS=1/CM
##YUNITS=ABSORBANCE
##XFACTOR=1.0
##YFACTOR=0.000095996
##DELTAX=4.0
##FIRSTX=450.0
##LASTX=3966.0
##FIRSTY=0.029279
##MAXX=3966
##MINX=450
##MAXY=0.95996
##MINY=0
##NPOINTS=880
##XYDATA=(X++(Y..Y))
450.0 305 316 344 372 389 370 332 308 275 222
490.0 171 135 120 109 68 62 36 24 33 30
530.0 62 64 78 54 96 100 92 130 87 102
570.0 106 130 63 40 43 21 20 34 38 69
610.0 21 48 47 74 101 172 243 290 213 123
650.0 53 28 7 27 2 32 32 24 32 47
690.0 43 62 77 65 82 61 88 107 113 123
730.0 121 113 136 189 184 336 526 860 1210 1390
770.0 1315 1041 679 426 329 326 386 403 339 263
810.0 225 204 201 237 276 350 333 281 211 145
850.0 134 127 151 176 188 237 295 340 360 358
890.0 333 289 268 232 238 234 238 236 229 244
930.0 243 280 317 333 337 314 287 267 303 314
970.0 322 383 512 709 959 1193 1264 1110 810 543
1010.0 437 476 548 732 900 1086 1129 1064 962 751
1050.0 549 450 407 383 420 498 616 897 1339 1939
1090.0 2487 2881 2818 2510 2197 1805 1576 1428 1236 978
1130.0 732 553 471 421 430 461 529 631 748 929
1170.0 1124 1321 1511 1646 1824 2091 2536 3221 4179 5371
1210.0 6406 7003 7084 5403 3613 2211 1499 1194 1106 1157
1250.0 1329 1553 1794 2163 2929 4385 6549 9514 10000 8551
1290.0 6117 4132 2800 2134 1727 1333 944 684 562 500
1330.0 476 468 479 497 503 493 487 567 707 915
1370.0 1187 1412 1528 1377 1033 713 582 513 463 409
1410.0 385 427 541 772 1167 1566 1621 1197 760 587
1450.0 600 741 898 1054 1160 1210 1096 890 701 587
1490.0 581 676 915 1392 2098 2800 2798 2080 1261 737
1530.0 474 332 251 188 175 189 173 165 148 180
1570.0 202 237 271 367 519 717 980 1239 1406 1401
1610.0 1255 1064 827 587 387 272 212 165 159 148
1650.0 144 127 151 158 156 150 154 163 178 185
1690.0 217 256 271 293 353 454 620 933 1518 2376
1730.0 3362 4179 4221 3329 2032 1056 577 395 323 296
1770.0 277 248 238 214 191 175 145 133 111 100
1810.0 84 74 70 68 57 58 54 53 56 48
1850.0 53 53 54 53 59 53 60 64 80 81
1890.0 83 85 73 73 70 63 58 52 52 48
1930.0 47 46 41 49 45 41 41 43 43 47
1970.0 48 48 52 57 53 53 46 49 53 46
2010.0 46 51 52 52 57 62 62 66 72 77
2050.0 79 81 78 78 77 77 76 76 71 71
2090.0 67 61 61 59 56 56 56 50 51 55
2130.0 46 51 50 50 46 46 45 41 39 39
2170.0 33 37 38 39 33 34 34 38 33 37
2210.0 33 33 33 27 33 33 32 27 33 33
2250.0 33 33 29 26 30 34 30 32 33 27
2290.0 23 21 16 16 16 11 7 5 2 2
2330.0 2 2 2 2 2 2 2 2 2 2
2370.0 2 2 7 12 25 36 37 41 36 37
2410.0 37 37 38 36 36 36 36 36 33 31
2450.0 37 31 32 32 32 37 41 44 50 49
2490.0 52 59 59 59 59 52 59 52 58 61
2530.0 58 59 61 61 52 52 52 48 48 47
2570.0 48 48 41 40 41 39 36 37 34 36
2610.0 37 31 37 37 41 41 49 53 55 61
2650.0 63 69 68 64 59 59 53 48 41 38
2690.0 34 37 40 43 43 41 41 47 52 63
2730.0 59 69 69 73 72 69 65 68 74 68
2770.0 69 73 68 74 79 74 78 78 78 86
2810.0 90 101 115 124 140 149 165 181 208 241
2850.0 289 319 331 323 323 332 391 485 618 704
2890.0 712 686 665 655 638 619 619 633 657 681
2930.0 715 788 916 1076 1233 1359 1432 1483 1592 1774
2970.0 2017 2119 2012 1580 1053 663 457 379 362 401
3010.0 476 510 450 321 218 168 142 122 109 104
3050.0 104 103 109 120 127 137 150 169 195 192
3090.0 165 130 100 85 78 73 68 68 64 64
3130.0 58 64 55 53 57 53 47 53 47 48
3170.0 52 46 49 47 47 51 41 51 48 53
3210.0 43 41 48 36 36 32 27 33 29 27
3250.0 30 26 35 31 36 37 32 26 32 28
3290.0 33 28 26 27 26 32 27 32 32 32
3330.0 37 36 34 39 39 40 33 40 31 32
3370.0 35 31 32 36 31 32 41 35 32 29
3410.0 27 30 28 35 31 36 43 53 59 52
3450.0 53 51 59 46 44 35 32 31 36 36
3490.0 37 37 38 35 38 41 41 54 48 45
3530.0 52 63 69 78 94 116 156 229 364 609
3570.0 1017 1491 1832 1854 1516 996 571 311 179 116
3610.0 76 62 51 39 44 30 37 46 61 73
3650.0 69 48 30 32 15 19 12 7 20 17
3690.0 8 9 11 22 16 17 11 11 17 16
3730.0 20 9 4 12 6 8 6 12 17 16
3770.0 12 11 16 12 14 16 19 15 12 7
3810.0 21 27 16 21 16 21 10 7 11 21
3850.0 15 7 15 17 16 16 22 11 16 15
3890.0 17 23 16 20 16 20 23 21 26 32
3930.0 31 26 23 28 32 34 0 2 2 2
##END=
