##TITLE=2-Bromobenzoyl chloride
##JCAMP-DX=4.24
##DATA TYPE=INFRARED SPECTRUM
##ORIGIN=Sadtler Research Labs Under US-EPA Contract
##OWNER=NIST Standard Reference Data Program
##CAS REGISTRY NO=7154-66-7
##MOLFORM=C 7 H 4 Br Cl O
##XUNITS=1/CM
##YUNITS=ABSORBANCE
##XFACTOR=1.0
##YFACTOR=0.000050494
##DELTAX=4.0
##FIRSTX=450.0
##LASTX=3966.0
##FIRSTY=0.019036
##MAXX=3966
##MINX=450
##MAXY=0.50494
##MINY=0
##NPOINTS=880
##XYDATA=(X++(Y..Y))
450.0 377 376 468 579 855 1064 1121 897 740 463
490.0 314 232 140 53 76 89 85 20 24 37
530.0 97 90 104 134 60 106 35 40 57 37
570.0 56 34 50 43 2 72 33 50 46 66
610.0 94 126 150 241 353 710 1425 2379 3040 2955
650.0 2155 1317 800 706 825 1193 1482 1983 2727 3544
690.0 3979 3926 3136 1888 1064 799 1004 1592 2134 3145
730.0 2139 1504 876 508 537 1015 1649 2470 3057 1806
770.0 1177 573 285 226 221 251 260 245 209 189
810.0 225 296 368 433 505 562 630 817 1144 1706
850.0 2637 3801 4974 6071 7032 7853 8166 7768 6556 5107
890.0 3707 2524 1667 1156 867 669 587 538 486 448
930.0 421 418 430 436 439 416 370 310 262 226
970.0 201 181 168 167 163 157 150 159 168 175
1010.0 194 234 296 426 691 1083 1332 1360 1299 1238
1050.0 1422 1473 1349 868 458 289 226 188 163 138
1090.0 132 131 133 141 157 196 247 370 603 826
1130.0 862 759 537 350 308 320 371 537 716 827
1170.0 940 993 1177 1625 2332 3203 4042 4450 4152 3343
1210.0 2294 1395 865 600 457 368 305 267 257 300
1250.0 391 543 772 1003 1121 1131 1013 823 648 467
1290.0 288 189 145 119 114 106 98 104 100 100
1330.0 106 106 111 103 93 84 77 79 65 70
1370.0 63 67 66 59 64 71 85 104 118 144
1410.0 201 262 374 495 716 1097 1561 1644 1474 1004
1450.0 519 475 730 1196 1446 1444 1099 567 261 194
1490.0 159 125 102 104 92 112 115 113 114 101
1530.0 104 81 91 98 134 149 193 250 379 547
1570.0 676 775 821 957 1132 1165 993 660 344 194
1610.0 151 137 146 154 156 121 99 71 55 35
1650.0 57 16 56 49 68 65 97 86 115 113
1690.0 136 151 211 252 322 362 408 456 522 590
1730.0 676 743 825 897 960 987 1025 1060 1124 1217
1770.0 1368 1576 1892 2329 2923 3865 5491 7729 9606 10000
1810.0 8479 5960 3915 2710 1955 1451 1081 785 566 396
1850.0 284 199 144 116 102 88 77 73 74 84
1890.0 96 113 120 118 108 99 102 113 140 166
1930.0 171 153 116 93 79 83 99 119 122 109
1970.0 79 51 32 30 25 21 16 17 18 20
2010.0 19 17 15 18 22 24 26 28 30 30
2050.0 32 35 33 36 38 33 31 31 29 25
2090.0 24 22 19 17 16 14 15 18 18 19
2130.0 17 21 20 16 16 12 15 11 14 20
2170.0 13 12 13 12 13 11 14 19 16 11
2210.0 11 12 16 18 20 20 24 23 24 27
2250.0 29 33 27 30 30 27 23 32 35 40
2290.0 43 52 48 45 48 59 52 51 55 57
2330.0 50 50 43 40 71 62 17 21 36 65
2370.0 80 82 81 71 46 29 15 12 13 7
2410.0 9 6 0 9 11 16 14 18 18 21
2450.0 18 23 25 30 31 26 24 20 16 19
2490.0 19 15 16 14 12 14 9 10 14 17
2530.0 16 20 22 27 32 34 32 34 35 33
2570.0 28 26 26 22 28 30 30 35 34 33
2610.0 30 31 34 37 41 43 43 46 43 42
2650.0 40 36 28 37 36 33 30 45 32 35
2690.0 28 31 32 41 29 28 30 26 27 38
2730.0 43 26 28 25 19 36 48 25 24 24
2770.0 25 42 56 24 26 21 23 59 32 11
2810.0 16 17 18 60 23 26 25 26 46 54
2850.0 32 25 24 21 32 20 15 11 16 13
2890.0 13 15 18 12 37 16 13 7 7 44
2930.0 19 11 15 27 69 22 22 25 57 51
2970.0 32 31 49 95 52 56 60 93 55 51
3010.0 47 79 57 55 56 73 52 53 52 74
3050.0 66 88 158 263 385 494 620 707 691 617
3090.0 447 255 163 121 82 51 53 55 50 64
3130.0 72 80 81 79 78 60 42 30 19 24
3170.0 19 21 18 9 19 25 19 17 18 20
3210.0 14 19 18 12 14 14 20 19 21 14
3250.0 30 14 16 13 18 20 19 16 18 25
3290.0 22 20 16 20 16 18 20 26 24 19
3330.0 17 18 18 18 26 25 22 21 30 25
3370.0 21 24 26 22 20 30 33 28 22 24
3410.0 29 30 32 25 16 26 17 27 25 21
3450.0 23 16 22 22 19 29 28 30 28 22
3490.0 22 30 32 39 34 33 39 53 55 57
3530.0 54 71 61 79 80 91 69 76 63 69
3570.0 62 71 67 70 69 64 73 63 31 29
3610.0 23 22 11 18 14 3 30 16 13 16
3650.0 24 35 35 38 33 11 25 18 33 28
3690.0 40 36 34 35 44 19 38 29 33 26
3730.0 42 44 47 37 23 38 38 56 48 43
3770.0 25 39 40 32 37 25 41 27 25 47
3810.0 38 29 29 18 36 36 22 18 36 20
3850.0 30 21 44 27 39 28 33 44 33 30
3890.0 44 49 33 33 34 48 44 43 31 57
3930.0 33 34 47 42 62 51 55 51 40 32
##END=
