##TITLE=Benzene, 1-(4-chlorobutoxy)-3-methyl-
##JCAMP-DX=4.24
##DATA TYPE=INFRARED SPECTRUM
##ORIGIN=Sadtler Research Labs Under US-EPA Contract
##OWNER=NIST Standard Reference Data Program
##CAS REGISTRY NO=71648-39-0
##MOLFORM=C 11 H 15 Cl O
##XUNITS=1/CM
##YUNITS=ABSORBANCE
##XFACTOR=1.0
##YFACTOR=0.000090198
##DELTAX=4.0
##FIRSTX=450.0
##LASTX=3966.0
##FIRSTY=0.058087
##MAXX=3966
##MINX=450
##MAXY=0.90198
##MINY=0
##NPOINTS=880
##XYDATA=(X++(Y..Y))
450.0 644 244 77 75 122 82 103 3 89 145
490.0 105 49 66 56 104 54 86 139 130 110
530.0 94 186 22 20 80 82 55 75 105 64
570.0 67 129 130 141 167 192 122 168 203 250
610.0 267 251 222 189 155 142 188 212 299 433
650.0 523 734 947 1016 1058 913 920 959 1334 1767
690.0 1899 1600 1267 916 748 710 767 925 1071 1281
730.0 1405 1432 1451 1346 1243 1305 1486 1868 2305 2657
770.0 2799 2745 2593 2161 1609 1156 829 625 510 441
810.0 413 393 385 351 362 399 463 551 582 627
850.0 617 624 616 622 704 731 772 791 776 762
890.0 737 709 686 682 672 699 716 747 765 770
930.0 758 743 750 789 862 956 1040 1099 1120 1150
970.0 1133 1141 1134 1112 1141 1177 1210 1250 1298 1368
1010.0 1430 1492 1554 1625 1772 2017 2330 2726 3085 3425
1050.0 3669 3796 3786 3675 3407 2967 2463 2015 1663 1367
1090.0 1108 891 723 584 499 447 439 463 514 608
1130.0 731 936 1295 2026 3461 5780 8253 9281 8186 5982
1170.0 4445 3347 2272 1424 975 759 655 644 700 808
1210.0 910 978 998 1037 1200 1536 2090 2929 4095 5582
1250.0 7268 8883 10000 9932 8816 7317 6427 6335 6567 6645
1290.0 6211 5309 4254 3508 3053 2685 2310 2018 1816 1643
1330.0 1426 1187 997 853 753 710 673 649 637 637
1370.0 702 870 1154 1530 1867 1886 1596 1222 928 767
1410.0 694 693 833 1020 1349 1781 2329 2855 3300 3572
1450.0 3515 3065 2506 2107 2093 2413 3018 3579 4176 4943
1490.0 5376 4846 3620 2596 2069 1800 1632 1502 1408 1313
1530.0 1285 1254 1210 1147 1055 1005 1043 1155 1304 1557
1570.0 2021 2721 3723 4846 5692 5961 5820 5947 6225 6286
1610.0 5663 4605 3449 2433 1677 1105 773 552 412 324
1650.0 282 251 205 180 193 220 268 280 311 308
1690.0 236 173 157 144 139 134 162 201 184 172
1730.0 185 193 160 147 150 146 124 117 103 90
1770.0 93 90 66 67 58 60 65 69 86 85
1810.0 99 98 85 85 95 107 113 104 110 102
1850.0 80 66 63 72 87 107 102 112 118 126
1890.0 138 148 146 152 167 182 190 194 184 153
1930.0 123 91 73 77 67 56 58 58 54 62
1970.0 63 59 56 61 60 63 63 58 57 58
2010.0 59 58 66 68 65 72 67 67 67 68
2050.0 60 57 58 51 56 52 49 51 43 43
2090.0 42 39 32 39 33 41 41 40 45 44
2130.0 39 45 42 42 44 43 50 61 66 63
2170.0 61 58 46 42 41 31 30 33 38 27
2210.0 28 30 28 23 14 9 9 4 3 8
2250.0 2 3 0 0 2 1 5 10 14 19
2290.0 18 31 46 51 60 66 68 77 69 58
2330.0 67 55 61 90 62 59 38 31 61 72
2370.0 63 64 68 63 57 50 52 59 69 76
2410.0 75 72 74 75 77 73 77 75 69 68
2450.0 59 55 49 42 36 31 29 27 27 28
2490.0 25 26 29 32 36 40 37 51 51 60
2530.0 69 75 84 88 90 82 64 44 27 24
2570.0 18 19 21 27 19 26 26 23 22 22
2610.0 20 21 20 16 13 12 20 25 26 23
2650.0 28 30 28 32 32 37 50 58 55 66
2690.0 71 75 80 88 93 97 100 118 126 141
2730.0 170 192 222 251 259 243 219 199 188 162
2770.0 163 155 145 136 138 137 147 159 177 192
2810.0 225 228 261 296 323 366 422 492 595 727
2850.0 908 1115 1337 1551 1806 2087 2397 2620 2691 2630
2890.0 2518 2409 2395 2465 2630 2869 3125 3428 3707 4002
2930.0 4240 4334 4342 4381 4528 4650 4725 4676 4601 4394
2970.0 4012 3385 2693 2147 1833 1716 1757 1822 1756 1551
3010.0 1283 1137 1124 1206 1350 1535 1696 1827 1931 1945
3050.0 1906 1826 1758 1662 1555 1449 1357 1240 1095 931
3090.0 778 664 570 488 426 379 295 215 163 127
3130.0 104 75 70 73 62 36 41 50 60 65
3170.0 50 55 45 62 62 61 53 52 68 62
3210.0 63 70 72 74 78 69 64 67 63 51
3250.0 76 81 82 54 65 65 69 45 41 34
3290.0 46 40 49 44 61 54 53 34 51 73
3330.0 58 59 69 63 51 63 51 67 46 42
3370.0 28 47 65 65 47 32 25 33 32 32
3410.0 30 44 33 34 24 25 45 17 32 28
3450.0 31 21 38 47 48 24 22 18 14 22
3490.0 42 28 32 24 39 42 22 39 41 20
3530.0 12 24 20 24 10 3 27 19 33 55
3570.0 22 39 24 12 24 25 50 47 51 47
3610.0 21 25 30 20 43 71 11 19 25 42
3650.0 54 37 38 22 48 50 23 54 42 43
3690.0 21 42 36 31 57 36 36 51 43 32
3730.0 52 15 32 51 42 56 60 70 96 52
3770.0 40 26 68 88 39 71 70 62 74 25
3810.0 63 48 38 73 60 30 62 40 48 54
3850.0 38 77 65 66 92 94 56 49 63 59
3890.0 68 94 46 58 67 107 98 76 57 77
3930.0 59 69 86 96 133 122 61 126 76 94
##END=
