##TITLE=Acetophenone, 2-chloro-5-trifluoromethyl-,
##JCAMP-DX=4.24
##DATA TYPE=INFRARED SPECTRUM
##ORIGIN=Sadtler Research Labs Under US-EPA Contract
##OWNER=NIST Standard Reference Data Program
##CAS REGISTRY NO=71648-45-8
##MOLFORM=C 9 H 6 Cl F 3 O
##XUNITS=1/CM
##YUNITS=ABSORBANCE
##XFACTOR=1.0
##YFACTOR=0.000113248
##DELTAX=4.0
##FIRSTX=450.0
##LASTX=3966.0
##FIRSTY=0.036239
##MAXX=3966
##MINX=450
##MAXY=1.13248
##MINY=0
##NPOINTS=880
##XYDATA=(X++(Y..Y))
450.0 320 190 226 0 109 82 212 219 207 423
490.0 406 621 835 856 861 614 446 362 281 301
530.0 257 226 298 248 248 253 221 329 361 469
570.0 527 522 615 639 647 590 434 362 258 271
610.0 263 279 318 205 208 96 116 153 152 154
650.0 178 196 268 284 198 192 136 125 152 177
690.0 103 104 182 183 113 129 83 167 286 524
730.0 575 366 398 151 65 61 180 90 88 126
770.0 126 135 169 78 120 99 152 108 150 152
810.0 147 172 312 602 1063 1473 1353 862 479 248
850.0 143 156 116 135 131 130 130 126 147 181
890.0 217 294 401 554 698 681 541 370 243 180
930.0 165 153 153 156 165 184 207 229 260 266
970.0 258 247 225 191 177 165 173 188 199 229
1010.0 235 254 275 310 370 472 672 1031 1456 1751
1050.0 1597 1156 736 566 640 955 1741 2880 3567 3201
1090.0 2105 1386 1406 1660 1722 1442 1067 840 776 781
1130.0 905 1308 2179 3814 6289 8787 10000 8326 5739 3615
1170.0 3017 4273 6556 6752 5324 3295 1927 1462 1508 1747
1210.0 2173 2727 3532 4543 5460 5648 4889 3557 2303 1583
1250.0 1292 1503 2541 3781 4203 3240 2181 1902 1910 1666
1290.0 1215 800 635 648 721 936 1315 2085 3629 5912
1330.0 8120 8545 6948 4616 2865 1939 1585 1529 1479 1301
1370.0 1010 716 531 427 377 360 337 336 338 347
1410.0 354 361 380 374 362 358 355 348 318 304
1450.0 298 311 315 329 335 432 502 487 363 269
1490.0 219 175 169 164 167 177 125 155 166 150
1530.0 157 143 171 178 176 171 194 250 270 280
1570.0 339 397 462 475 443 413 420 471 619 864
1610.0 1197 1439 1239 808 432 268 220 198 184 175
1650.0 218 247 258 244 255 264 300 334 424 494
1690.0 586 680 851 1066 1371 1908 2520 3134 3239 2810
1730.0 2181 1527 1131 864 698 567 444 362 302 243
1770.0 213 197 178 187 189 179 172 151 153 149
1810.0 148 139 123 118 110 111 99 96 92 90
1850.0 77 72 75 75 80 82 84 82 80 74
1890.0 72 74 80 86 102 125 133 133 114 90
1930.0 75 63 63 62 60 61 61 60 64 66
1970.0 65 63 64 67 64 65 63 57 60 56
2010.0 58 60 61 58 51 50 51 49 50 51
2050.0 51 54 55 57 52 49 52 49 44 48
2090.0 49 48 47 47 44 41 42 41 43 40
2130.0 42 41 42 41 45 46 51 52 59 61
2170.0 54 53 49 53 45 43 45 42 44 43
2210.0 45 46 46 54 52 52 56 56 54 51
2250.0 48 51 53 52 50 47 50 49 53 56
2290.0 65 67 67 65 63 61 61 61 66 64
2330.0 63 68 57 46 47 51 67 64 70 62
2370.0 47 45 40 34 34 31 31 31 33 34
2410.0 32 31 32 31 30 29 34 33 33 33
2450.0 31 34 32 32 35 34 38 38 40 38
2490.0 40 37 32 30 28 27 30 26 29 28
2530.0 25 27 25 27 28 28 32 33 32 36
2570.0 33 32 34 34 30 29 33 33 34 31
2610.0 27 29 27 21 27 24 26 22 25 29
2650.0 26 33 35 34 35 32 33 34 34 28
2690.0 30 31 31 25 26 21 27 23 19 23
2730.0 19 24 24 23 26 26 25 26 20 20
2770.0 20 22 16 14 17 20 21 18 19 22
2810.0 17 20 19 20 19 20 20 28 27 25
2850.0 28 24 25 25 22 23 26 22 29 26
2890.0 22 23 26 37 33 33 38 45 51 57
2930.0 63 76 83 76 76 71 63 61 63 64
2970.0 72 73 72 75 81 81 89 97 101 113
3010.0 122 131 136 129 116 93 85 77 69 70
3050.0 60 62 61 58 62 60 71 82 85 87
3090.0 80 65 60 52 54 53 45 42 36 36
3130.0 33 34 32 27 26 27 29 30 22 27
3170.0 32 28 25 30 35 29 33 30 25 29
3210.0 30 37 28 25 27 28 24 29 26 28
3250.0 26 23 27 22 26 28 25 17 22 27
3290.0 30 24 30 24 26 27 23 26 30 24
3330.0 35 35 34 29 28 30 30 37 27 33
3370.0 36 33 37 37 37 36 50 52 47 56
3410.0 62 70 71 72 62 68 63 56 54 52
3450.0 48 43 44 33 35 35 34 29 28 31
3490.0 30 21 31 31 32 30 24 24 23 17
3530.0 20 18 27 27 22 19 26 22 23 25
3570.0 23 24 27 23 16 28 20 24 24 22
3610.0 21 16 25 17 33 22 17 22 25 17
3650.0 31 14 30 20 18 26 26 27 15 28
3690.0 21 19 12 14 14 18 21 36 24 11
3730.0 27 24 16 10 39 10 33 12 28 25
3770.0 26 15 25 23 25 11 22 20 42 36
3810.0 32 13 37 12 20 12 12 18 32 30
3850.0 22 12 12 12 12 15 12 28 36 32
3890.0 26 24 19 57 46 13 20 24 64 12
3930.0 30 21 36 41 15 23 32 53 44 58
##END=
