##TITLE=Cyclohexanepropionic acid, 1-nitro methyl ester
##JCAMP-DX=4.24
##DATA TYPE=INFRARED SPECTRUM
##ORIGIN=Sadtler Research Labs Under US-EPA Contract
##OWNER=NIST Standard Reference Data Program
##CAS REGISTRY NO=71648-41-4
##MOLFORM=C 10 H 17 N O 4
##XUNITS=1/CM
##YUNITS=ABSORBANCE
##XFACTOR=1.0
##YFACTOR=0.000085278
##DELTAX=4.0
##FIRSTX=450.0
##LASTX=3966.0
##FIRSTY=0.047244
##MAXX=3966
##MINX=450
##MAXY=0.85278
##MINY=0
##NPOINTS=880
##XYDATA=(X++(Y..Y))
450.0 554 237 122 161 91 161 151 89 111 62
490.0 42 45 125 140 117 127 104 114 74 115
530.0 92 119 106 194 112 100 114 133 94 134
570.0 126 110 134 27 68 89 120 100 90 122
610.0 103 101 79 134 78 131 190 163 170 117
650.0 175 178 150 98 109 111 41 42 37 45
690.0 57 74 44 46 44 31 55 59 49 87
730.0 128 130 112 225 221 181 180 164 152 131
770.0 114 132 107 113 117 137 158 202 262 320
810.0 364 420 483 529 622 712 902 1079 1232 1235
850.0 1098 888 667 518 440 416 413 448 479 519
890.0 592 580 563 505 451 397 355 312 298 278
930.0 222 188 133 121 115 136 159 197 236 276
970.0 310 323 362 413 505 613 746 824 812 778
1010.0 745 768 798 853 891 936 949 896 831 767
1050.0 704 621 552 512 505 511 544 558 558 553
1090.0 569 606 654 729 815 925 1033 1161 1264 1380
1130.0 1532 1710 1909 2090 2328 2624 3010 3491 4030 4581
1170.0 5079 5444 5580 5350 4904 4463 4163 3964 3734 3519
1210.0 3329 3223 3177 3206 3238 3248 3234 3162 3081 2976
1250.0 2888 2767 2623 2460 2325 2198 2084 2009 1960 1978
1290.0 2079 2220 2367 2464 2454 2354 2214 2074 2032 2055
1330.0 2184 2372 2589 2751 2744 2596 2330 2112 2009 2037
1370.0 2051 2097 1970 1782 1469 1183 901 758 646 622
1410.0 596 683 790 1009 1222 1626 2172 2865 3144 3190
1450.0 3068 3063 3001 2595 2104 1782 1361 990 750 657
1490.0 650 710 795 854 1018 1112 1063 1359 1489 1784
1530.0 2112 2889 4047 5765 7984 9252 9535 7948 5811 4129
1570.0 2954 2484 2100 1726 1432 1221 1005 883 724 580
1610.0 396 350 251 224 137 159 119 197 75 170
1650.0 100 307 87 86 141 115 168 131 136 264
1690.0 166 190 315 386 355 421 520 729 848 1012
1730.0 1336 1743 2250 2691 3793 4873 6423 7291 7499 6320
1770.0 5037 3903 2990 2348 1751 1311 944 712 536 445
1810.0 353 305 221 184 152 136 104 69 102 90
1850.0 83 55 65 36 63 37 47 29 28 33
1890.0 41 54 45 49 46 54 49 61 53 40
1930.0 46 28 45 34 37 26 30 35 40 37
1970.0 40 46 32 46 41 48 40 43 49 48
2010.0 52 53 56 58 64 66 69 59 57 69
2050.0 58 61 65 76 80 80 75 65 53 40
2090.0 39 27 27 21 28 24 21 21 26 17
2130.0 12 13 9 15 6 11 12 14 2 11
2170.0 16 16 23 24 25 24 21 19 20 20
2210.0 18 18 16 22 22 31 26 27 23 24
2250.0 16 13 15 16 24 18 24 16 15 20
2290.0 20 18 16 18 13 7 9 0 1 11
2330.0 12 13 17 50 9 8 1 27 46 37
2370.0 55 75 68 69 55 64 57 48 38 36
2410.0 29 29 38 41 38 36 38 30 28 23
2450.0 25 26 23 29 37 35 29 36 36 33
2490.0 44 28 31 26 28 27 35 35 31 36
2530.0 28 37 35 40 34 34 31 39 41 37
2570.0 46 49 65 65 78 73 74 82 87 81
2610.0 78 61 58 67 65 66 71 77 89 97
2650.0 101 110 122 138 154 175 184 191 195 183
2690.0 157 154 135 125 118 113 120 107 115 106
2730.0 96 106 106 96 118 109 120 106 112 111
2770.0 116 126 137 141 147 163 174 197 207 228
2810.0 244 253 283 296 333 388 461 566 739 939
2850.0 1149 1394 1702 2170 2536 2644 2697 2683 2524 2214
2890.0 1890 1671 1580 1593 1713 1902 2108 2331 2585 2976
2930.0 3647 4682 6145 8002 9559 10000 9171 7813 6375 5203
2970.0 4198 3261 2603 2062 1594 1263 1051 917 825 745
3010.0 660 595 550 525 496 477 444 410 357 320
3050.0 282 253 237 219 212 190 185 161 165 157
3090.0 150 144 135 135 116 128 113 109 114 105
3130.0 105 81 68 69 62 63 56 54 65 57
3170.0 71 73 67 72 57 67 61 54 53 45
3210.0 48 47 24 37 34 35 30 43 47 48
3250.0 45 51 57 62 48 60 50 47 49 52
3290.0 48 44 44 44 59 59 51 48 32 38
3330.0 42 39 39 54 51 38 39 56 52 46
3370.0 54 47 39 44 37 57 49 45 40 49
3410.0 51 64 51 32 37 66 54 57 64 49
3450.0 49 69 57 75 61 70 77 68 70 57
3490.0 78 89 108 112 75 84 50 69 73 22
3530.0 40 41 43 37 24 38 38 19 39 1
3570.0 78 98 106 85 43 70 28 49 63 52
3610.0 43 17 43 20 26 56 53 54 48 27
3650.0 54 70 82 44 42 69 129 78 70 38
3690.0 108 75 72 51 50 74 66 45 44 56
3730.0 78 97 68 52 185 86 132 29 66 66
3770.0 67 93 56 66 59 79 38 85 37 124
3810.0 38 68 90 81 69 69 120 113 77 88
3850.0 147 166 102 62 81 94 69 141 50 132
3890.0 51 85 34 139 44 91 60 88 99 97
3930.0 111 95 148 72 122 117 128 62 115 101
##END=
