##TITLE=3-Hepten-2-one, 5-ethyl-
##JCAMP-DX=4.24
##DATA TYPE=INFRARED SPECTRUM
##ORIGIN=Sadtler Research Labs Under US-EPA Contract
##OWNER=NIST Standard Reference Data Program
##CAS REGISTRY NO=71648-42-5
##MOLFORM=C 9 H 16 O
##XUNITS=1/CM
##YUNITS=ABSORBANCE
##XFACTOR=1.0
##YFACTOR=0.000096692
##DELTAX=4.0
##FIRSTX=450.0
##LASTX=3966.0
##FIRSTY=0.007252
##MAXX=3966
##MINX=450
##MAXY=0.96692
##MINY=0
##NPOINTS=880
##XYDATA=(X++(Y..Y))
450.0 75 36 61 65 67 74 79 95 122 151
490.0 184 160 46 115 37 25 104 169 200 187
530.0 224 236 221 332 319 380 429 451 503 443
570.0 411 364 330 382 382 421 429 563 628 533
610.0 445 350 241 218 141 226 85 48 22 63
650.0 26 43 48 31 1 92 44 36 25 70
690.0 81 51 60 73 39 91 55 104 26 89
730.0 79 77 1 63 118 114 155 152 169 191
770.0 246 327 400 468 397 399 321 243 200 173
810.0 137 124 160 153 166 177 163 170 177 178
850.0 185 226 222 255 208 208 215 204 194 193
890.0 178 187 207 188 214 244 246 260 299 358
930.0 438 557 672 818 931 968 913 851 830 947
970.0 1254 1723 2232 2503 2506 2214 1686 1207 921 757
1010.0 660 611 603 568 566 556 572 557 535 484
1050.0 440 373 315 296 260 256 281 292 297 314
1090.0 325 318 327 313 328 334 367 381 430 498
1130.0 600 693 827 1000 1232 1422 1503 1492 1421 1454
1170.0 1628 1887 2010 1923 1612 1203 895 742 670 651
1210.0 698 783 900 1097 1439 1911 2519 3325 4338 5198
1250.0 5317 4632 3293 1871 1164 936 912 976 1151 1318
1290.0 1427 1445 1366 1217 1090 1015 1041 1124 1203 1221
1330.0 1170 1086 1052 1257 1621 2174 2908 3639 4098 4046
1370.0 3548 2741 2086 1715 1455 1298 1052 810 672 593
1410.0 535 590 548 677 701 808 749 850 858 939
1450.0 1066 1210 1481 1563 1616 1434 1178 864 654 417
1490.0 299 268 257 198 235 126 145 171 171 198
1530.0 151 224 182 226 169 202 217 238 279 226
1570.0 249 220 339 275 335 360 426 464 541 617
1610.0 753 997 1457 2116 2940 3699 3929 3617 2699 1888
1650.0 1198 1118 863 888 933 1076 1196 1670 2339 3912
1690.0 6040 8009 8846 8296 6553 5191 4801 4281 3554 2917
1730.0 2283 1884 1548 1304 1006 819 651 515 422 364
1770.0 312 291 242 212 213 179 196 163 138 156
1810.0 151 125 116 98 90 67 62 83 32 39
1850.0 35 58 42 44 20 17 24 32 39 23
1890.0 18 15 13 24 12 8 14 21 1 19
1930.0 25 19 29 12 16 21 31 25 29 16
1970.0 21 21 13 7 6 0 9 23 25 26
2010.0 36 36 35 42 58 45 58 50 49 58
2050.0 65 52 62 59 49 62 62 63 51 45
2090.0 31 25 27 7 13 5 8 14 16 6
2130.0 10 20 24 34 27 20 31 27 24 26
2170.0 28 23 18 21 10 9 14 23 24 20
2210.0 26 18 24 18 10 10 1 10 16 26
2250.0 28 24 25 31 15 14 20 31 30 38
2290.0 41 57 70 60 88 87 85 66 40 37
2330.0 12 39 22 28 47 59 11 19 52 81
2370.0 77 65 104 92 91 73 67 72 63 52
2410.0 47 59 60 61 62 49 66 50 43 52
2450.0 65 54 70 55 66 72 78 66 62 67
2490.0 63 71 73 66 62 68 68 67 71 57
2530.0 69 75 67 65 76 83 75 74 84 84
2570.0 86 93 96 107 111 116 116 111 103 96
2610.0 92 87 66 66 78 77 86 104 102 91
2650.0 100 100 107 106 116 124 135 145 155 156
2690.0 164 163 161 157 137 123 128 128 132 146
2730.0 157 156 181 189 210 210 196 205 186 183
2770.0 189 204 203 219 215 234 240 227 252 266
2810.0 278 279 271 303 312 342 386 449 517 599
2850.0 734 929 1258 1729 2229 2658 2964 3270 3667 3837
2890.0 3721 3336 2766 2351 2189 2285 2599 3110 3837 4774
2930.0 5691 6198 6248 5865 5217 4539 4024 4056 4880 6571
2970.0 8999 10000 9311 7358 4716 2829 1875 1436 1309 1259
3010.0 1313 1311 1264 1167 1070 1029 981 930 871 788
3050.0 724 660 589 541 471 451 402 398 373 349
3090.0 351 335 286 286 264 229 208 193 167 156
3130.0 141 164 140 134 145 126 104 130 116 117
3170.0 148 123 108 108 106 112 95 134 76 78
3210.0 56 67 36 29 55 48 109 70 71 77
3250.0 86 26 20 47 52 76 57 63 73 95
3290.0 124 114 107 99 92 83 83 93 105 90
3330.0 116 131 129 126 127 106 117 124 133 153
3370.0 154 172 178 159 200 126 140 127 144 150
3410.0 132 126 125 112 138 122 67 95 49 40
3450.0 87 41 92 84 108 48 44 28 66 64
3490.0 76 36 64 79 60 75 28 78 65 20
3530.0 67 45 69 59 32 35 48 3 53 39
3570.0 63 84 37 59 49 95 35 29 81 42
3610.0 64 21 49 41 25 113 46 42 11 61
3650.0 104 45 93 51 78 132 76 94 88 96
3690.0 90 79 55 101 67 50 86 48 53 17
3730.0 74 112 111 113 189 139 164 97 96 99
3770.0 86 105 81 69 84 93 84 94 92 69
3810.0 112 68 75 81 79 70 65 92 74 98
3850.0 109 123 109 93 111 114 90 84 56 69
3890.0 74 78 71 89 75 97 70 37 27 41
3930.0 57 54 55 74 98 90 113 102 100 84
##END=
