##TITLE=2,5-Cyclohexadiene-1,4-dione, 2,6-bis(1,1-dimethylethyl)-
##JCAMP-DX=4.24
##DATA TYPE=INFRARED SPECTRUM
##ORIGIN=Sadtler Research Labs Under US-EPA Contract
##OWNER=NIST Standard Reference Data Program
##CAS REGISTRY NO=719-22-2
##MOLFORM=C 14 H 20 O 2
##XUNITS=1/CM
##YUNITS=ABSORBANCE
##XFACTOR=1.0
##YFACTOR=0.000137732
##DELTAX=4.0
##FIRSTX=450.0
##LASTX=3966.0
##FIRSTY=0.027822
##MAXX=3966
##MINX=450
##MAXY=1.37732
##MINY=0
##NPOINTS=880
##XYDATA=(X++(Y..Y))
450.0 202 159 193 409 555 510 728 439 252 214
490.0 194 220 200 246 165 173 112 133 180 124
530.0 207 265 192 0 210 56 40 75 84 100
570.0 70 105 123 75 144 59 92 70 79 151
610.0 91 133 152 179 222 274 305 279 219 191
650.0 125 149 103 95 46 45 53 47 56 70
690.0 48 30 37 53 54 68 99 45 60 101
730.0 78 198 192 220 188 118 88 48 36 35
770.0 36 84 43 64 87 105 122 168 157 169
810.0 162 167 131 185 296 519 705 772 602 343
850.0 203 168 126 136 110 111 98 86 84 95
890.0 78 90 141 240 445 723 1019 1133 1001 824
930.0 627 469 302 199 143 107 89 104 91 105
970.0 106 102 111 114 126 119 155 172 232 326
1010.0 526 895 1215 1164 840 513 352 294 286 306
1050.0 321 386 527 795 1262 1756 1930 1586 1028 586
1090.0 369 287 218 185 188 163 177 172 151 154
1130.0 138 141 145 169 214 254 301 374 524 790
1170.0 1235 1678 1882 1611 1116 735 553 491 423 388
1210.0 346 375 475 632 992 1490 2084 2503 2608 2499
1250.0 2214 1783 1341 966 702 505 359 266 223 189
1290.0 153 141 131 124 127 149 202 279 391 624
1330.0 1046 1558 1879 1689 1162 746 631 769 1168 1676
1370.0 1909 1668 1161 638 471 513 667 782 646 435
1410.0 318 242 324 248 256 232 277 293 276 327
1450.0 424 562 808 932 998 1027 1077 1066 1076 1081
1490.0 935 617 447 327 350 351 238 260 280 198
1530.0 193 155 198 241 206 143 157 249 202 190
1570.0 250 329 446 662 957 1383 1702 1629 1307 930
1610.0 649 494 480 411 502 533 680 808 886 1363
1650.0 2291 4308 7829 9919 10000 6756 3884 2145 1506 1157
1690.0 905 755 693 581 433 302 274 289 213 152
1730.0 189 249 171 182 190 202 163 150 147 117
1770.0 155 162 113 130 120 133 152 147 169 136
1810.0 130 129 98 101 108 123 114 91 118 139
1850.0 94 70 71 74 85 99 55 47 46 49
1890.0 57 54 40 34 38 35 39 49 60 35
1930.0 33 36 28 46 47 36 45 45 46 59
1970.0 51 47 41 41 34 53 53 39 38 42
2010.0 43 40 37 26 27 24 26 27 36 25
2050.0 14 22 16 21 27 15 24 25 21 27
2090.0 29 26 26 31 26 25 25 29 22 22
2130.0 24 32 28 29 30 33 34 30 30 32
2170.0 29 27 25 29 27 31 34 34 38 37
2210.0 40 36 27 24 28 33 31 29 26 26
2250.0 30 21 28 28 22 30 33 30 34 40
2290.0 43 46 46 45 49 45 44 43 41 29
2330.0 22 15 7 7 7 20 39 41 11 7
2370.0 7 7 7 7 33 36 37 34 38 37
2410.0 36 42 33 35 34 32 31 28 23 29
2450.0 22 21 23 26 25 18 23 20 22 21
2490.0 28 24 21 27 31 36 33 28 30 40
2530.0 29 30 31 30 34 35 44 49 46 38
2570.0 44 38 40 41 40 38 37 37 36 38
2610.0 38 35 33 38 39 35 39 28 33 36
2650.0 32 27 29 36 35 30 29 26 28 21
2690.0 28 15 11 7 9 10 13 28 34 37
2730.0 35 31 21 20 25 26 33 41 39 26
2770.0 26 28 26 31 31 37 30 24 22 38
2810.0 69 91 105 118 127 127 125 140 160 187
2850.0 222 261 325 418 575 802 1097 1379 1551 1599
2890.0 1539 1437 1354 1308 1344 1462 1649 1847 1971 1995
2930.0 1953 1941 1958 1984 2059 2200 2544 3308 4236 5147
2970.0 5899 5967 4883 2902 1490 868 682 710 877 1005
3010.0 977 791 513 313 215 166 142 122 120 117
3050.0 116 125 152 169 190 194 180 147 122 112
3090.0 104 102 109 94 93 88 92 93 96 102
3130.0 108 118 112 123 129 122 119 101 76 72
3170.0 82 86 89 90 93 78 72 73 69 63
3210.0 69 67 69 55 50 50 63 56 46 57
3250.0 63 57 64 76 90 107 142 165 173 161
3290.0 133 119 128 163 181 190 175 151 114 84
3330.0 54 48 46 45 38 41 40 51 35 33
3370.0 33 33 30 40 41 37 34 23 35 30
3410.0 27 30 36 42 40 29 41 35 35 42
3450.0 48 45 42 39 42 34 37 45 40 45
3490.0 48 42 48 42 31 40 40 43 38 39
3530.0 40 35 43 35 39 35 23 30 53 38
3570.0 42 37 41 34 49 53 39 47 42 26
3610.0 43 49 32 24 30 40 26 22 16 27
3650.0 14 17 7 20 11 17 27 14 21 24
3690.0 24 20 9 7 15 16 27 18 29 14
3730.0 37 20 7 29 27 34 7 17 7 15
3770.0 16 9 9 14 10 26 12 14 34 31
3810.0 16 26 27 17 16 15 18 15 12 15
3850.0 42 36 9 8 23 25 9 14 32 41
3890.0 24 22 5 22 22 8 18 22 43 26
3930.0 11 8 7 16 29 6 10 14 8 10
##END=
