##TITLE=Methoxychlor
##JCAMP-DX=4.24
##DATA TYPE=INFRARED SPECTRUM
##ORIGIN=Sadtler Research Labs Under US-EPA Contract
##OWNER=NIST Standard Reference Data Program
##CAS REGISTRY NO=72-43-5
##MOLFORM=C 16 H 15 Cl 3 O 2
##XUNITS=1/CM
##YUNITS=ABSORBANCE
##XFACTOR=1.0
##YFACTOR=0.000079346
##DELTAX=4.0
##FIRSTX=450.0
##LASTX=3966.0
##FIRSTY=0.016187
##MAXX=3966
##MINX=450
##MAXY=0.79346
##MINY=0
##NPOINTS=880
##XYDATA=(X++(Y..Y))
450.0 204 200 194 138 139 150 176 172 228 216
490.0 230 237 245 305 252 392 359 524 570 578
530.0 696 708 889 959 1224 1433 1255 1209 954 879
570.0 1042 1221 1442 1017 721 501 322 277 204 299
610.0 309 533 650 328 109 29 146 197 147 178
650.0 160 235 252 384 427 394 282 222 207 153
690.0 226 240 370 418 642 689 652 670 333 329
730.0 305 305 494 997 1327 1638 989 545 432 291
770.0 309 368 600 739 1220 1882 2608 2724 2544 1945
810.0 1501 1310 1436 1769 1942 2351 2603 2106 1603 1166
850.0 1054 1083 1107 1331 1415 1179 795 498 299 266
890.0 294 314 222 180 148 193 177 169 194 204
930.0 244 248 208 203 213 241 280 314 324 390
970.0 409 376 355 357 369 405 483 562 638 790
1010.0 1007 1251 1497 1977 2577 3164 3250 2817 2244 1665
1050.0 1177 807 603 472 414 348 346 332 362 383
1090.0 411 407 406 504 703 830 813 691 604 523
1130.0 506 483 471 503 547 634 781 1000 1429 2343
1170.0 4087 6065 5448 3358 1901 1075 709 592 565 587
1210.0 734 926 1152 1419 1818 2399 3328 4844 7004 9155
1250.0 10000 8670 6403 4460 3232 2671 2519 2650 2886 3282
1290.0 3567 3324 2677 2113 1660 1144 822 662 594 562
1330.0 540 495 489 447 411 377 359 347 370 328
1370.0 319 322 295 275 281 296 306 329 351 408
1410.0 466 536 542 508 507 567 726 1062 1439 1427
1450.0 1292 1309 1544 1667 1714 1538 1380 1169 1092 1188
1490.0 1432 1878 2856 4487 6906 9006 7128 3841 1864 992
1530.0 692 610 552 598 565 569 623 710 771 859
1570.0 1059 1166 1292 1369 1554 1943 2494 3162 3867 4109
1610.0 3544 2567 1680 1035 724 579 516 501 429 417
1650.0 366 390 264 236 217 222 191 178 169 180
1690.0 128 119 157 178 121 108 115 146 104 110
1730.0 116 151 124 124 137 173 162 163 154 132
1770.0 136 133 115 117 121 120 149 121 143 118
1810.0 127 120 116 103 122 122 110 110 113 140
1850.0 124 119 127 130 139 174 163 179 193 195
1890.0 188 151 127 114 104 98 86 101 95 83
1930.0 71 74 76 88 80 96 90 82 85 88
1970.0 91 92 93 104 98 113 122 115 118 120
2010.0 127 128 146 154 163 171 175 186 203 202
2050.0 199 199 185 186 170 157 151 139 126 108
2090.0 101 83 72 73 63 66 61 47 45 45
2130.0 40 43 44 31 34 34 31 33 34 36
2170.0 38 35 48 30 39 34 41 36 32 41
2210.0 40 35 33 36 30 32 35 29 31 46
2250.0 49 51 55 61 63 65 70 82 92 98
2290.0 101 109 126 133 145 151 159 146 166 150
2330.0 155 155 159 178 196 164 200 233 242 209
2370.0 188 133 135 100 72 42 37 38 40 49
2410.0 50 60 63 63 58 57 48 50 46 48
2450.0 49 58 61 63 58 64 61 63 57 68
2490.0 69 71 78 76 83 85 94 102 107 116
2530.0 138 141 147 137 125 116 102 88 77 72
2570.0 60 60 59 56 57 56 59 57 50 51
2610.0 52 46 43 45 53 41 49 44 43 46
2650.0 51 51 35 37 34 33 42 65 37 35
2690.0 48 44 42 77 73 50 50 37 45 71
2730.0 88 50 51 54 68 97 127 77 90 80
2770.0 85 116 148 95 104 113 114 191 185 164
2810.0 178 222 263 356 377 506 693 980 1105 1067
2850.0 878 679 545 447 436 376 368 366 388 423
2890.0 487 566 650 736 849 910 989 1038 1126 1233
2930.0 1272 1314 1324 1302 1373 1278 1264 1246 1210 1068
2970.0 829 696 629 640 574 597 659 816 870 971
3010.0 1035 959 674 495 421 460 465 486 484 474
3050.0 400 350 365 347 331 352 356 323 284 266
3090.0 242 222 235 218 204 164 158 130 123 107
3130.0 92 84 67 56 54 42 36 27 43 38
3170.0 38 27 27 12 14 23 15 36 17 27
3210.0 23 9 24 0 14 18 14 7 24 17
3250.0 30 15 17 7 5 19 13 1 28 35
3290.0 34 23 23 27 29 31 24 16 18 13
3330.0 41 36 30 21 28 34 45 42 33 35
3370.0 33 41 40 36 38 57 27 46 31 17
3410.0 35 46 57 51 35 56 62 30 33 43
3450.0 58 24 41 51 43 26 39 66 43 50
3490.0 58 46 57 47 40 50 64 42 34 66
3530.0 52 50 56 64 66 88 81 63 86 99
3570.0 105 63 83 82 101 125 84 93 93 92
3610.0 118 105 89 128 112 155 138 129 126 105
3650.0 153 142 117 131 120 127 116 160 121 125
3690.0 155 128 125 112 116 124 143 130 146 147
3730.0 161 151 192 183 206 180 172 136 131 126
3770.0 136 144 138 131 130 143 145 168 171 169
3810.0 178 178 200 210 180 168 186 195 193 183
3850.0 192 227 188 191 213 208 209 190 221 208
3890.0 202 199 219 240 225 218 222 253 234 222
3930.0 218 211 215 216 212 238 182 188 189 191
##END=
