##TITLE=Triazene, 1-(p-chlorophenyl)-3,3-dimethyl-
##JCAMP-DX=4.24
##DATA TYPE=INFRARED SPECTRUM
##ORIGIN=Sadtler Research Labs Under US-EPA Contract
##OWNER=NIST Standard Reference Data Program
##CAS REGISTRY NO=7203-90-9
##MOLFORM=C 8 H 10 Cl N 3
##XUNITS=1/CM
##YUNITS=ABSORBANCE
##XFACTOR=1.0
##YFACTOR=0.000065549
##DELTAX=4.0
##FIRSTX=450.0
##LASTX=3966.0
##FIRSTY=0.000000
##MAXX=3966
##MINX=450
##MAXY=0.65549
##MINY=0
##NPOINTS=880
##XYDATA=(X++(Y..Y))
450.0 0 44 243 199 276 303 222 323 335 313
490.0 287 311 417 697 1078 1584 1894 1781 1342 845
530.0 651 494 501 386 376 320 271 239 307 393
570.0 617 635 589 408 269 164 100 111 102 72
610.0 39 50 102 93 155 209 229 229 217 171
650.0 214 226 209 232 217 329 374 413 552 587
690.0 488 569 632 771 865 915 925 777 750 711
730.0 718 689 1122 1076 674 631 650 583 465 333
770.0 287 222 264 291 307 280 341 371 441 516
810.0 621 887 1279 1763 2206 2535 2343 1806 1349 880
850.0 550 380 299 245 199 156 147 152 175 174
890.0 186 199 235 355 604 1007 1245 1148 770 410
930.0 258 221 205 195 196 196 202 214 274 301
970.0 318 309 353 359 398 458 542 653 850 1541
1010.0 2202 2481 2065 1533 1523 1626 1651 1590 1683 1988
1050.0 2391 3025 3740 4678 5770 6825 7475 7366 6867 6724
1090.0 6827 6227 4516 2690 1760 1370 1213 1146 1068 1033
1130.0 966 939 893 885 887 944 1120 1341 1408 1389
1170.0 1261 1199 1237 1205 1169 1185 1280 1394 1449 1380
1210.0 1220 1122 1153 1226 1194 1100 988 969 971 1018
1250.0 1094 1198 1342 1479 1523 1405 1331 1445 1806 2169
1290.0 2308 2309 2478 3076 3821 4312 4498 4457 4336 4171
1330.0 3917 3501 3015 2531 2142 1780 1509 1302 1184 1099
1370.0 1088 1137 1242 1492 1947 2773 3282 3477 3125 2538
1410.0 2225 2294 2800 3024 2715 2065 1737 1851 2282 2937
1450.0 4112 5875 8315 10000 9954 8744 7676 7629 7801 7590
1490.0 6266 4409 2938 2178 1672 1259 1017 847 730 638
1530.0 578 538 503 481 470 474 482 488 518 546
1570.0 614 690 778 800 837 854 828 772 690 571
1610.0 461 415 396 391 392 408 417 417 419 414
1650.0 381 341 322 264 244 239 235 250 247 254
1690.0 263 278 307 335 341 369 412 399 422 457
1730.0 444 479 538 546 468 314 256 250 253 247
1770.0 215 188 170 160 147 134 132 118 94 89
1810.0 78 76 73 72 68 74 79 85 82 94
1850.0 93 98 103 111 125 138 156 177 204 216
1890.0 221 206 177 134 101 81 63 50 53 50
1930.0 44 48 46 49 55 47 44 42 44 35
1970.0 35 35 35 34 34 35 30 31 36 32
2010.0 38 40 44 50 56 54 58 58 53 53
2050.0 49 48 49 52 57 56 52 47 44 46
2090.0 44 42 41 46 44 53 57 55 64 65
2130.0 68 68 72 71 74 77 73 73 75 76
2170.0 74 62 59 54 59 53 50 50 43 47
2210.0 44 43 44 42 49 49 54 53 60 63
2250.0 71 73 78 83 85 87 91 90 90 90
2290.0 88 87 88 86 84 94 81 59 56 39
2330.0 31 29 43 47 120 58 70 69 98 110
2370.0 147 146 160 139 120 95 89 85 84 76
2410.0 76 72 64 55 50 53 49 55 58 62
2450.0 61 62 67 76 77 77 77 77 78 80
2490.0 76 81 77 81 82 82 86 89 93 100
2530.0 101 105 110 110 114 112 112 107 104 103
2570.0 103 99 99 101 95 100 100 100 98 101
2610.0 96 91 92 97 96 96 101 100 102 98
2650.0 104 107 114 116 121 123 126 124 127 127
2690.0 129 132 134 143 149 152 162 171 186 195
2730.0 217 230 249 273 306 336 372 429 480 557
2770.0 632 701 777 843 908 1051 1145 1202 1250 1260
2810.0 1260 1263 1265 1294 1346 1424 1510 1587 1681 1737
2850.0 1813 1918 2005 2082 2123 2113 2092 2063 2034 2032
2890.0 2044 2119 2210 2304 2429 2527 2600 2625 2648 2690
2930.0 2753 2825 2947 2962 2924 2831 2634 2398 2172 1952
2970.0 1772 1654 1574 1420 1340 1285 1251 1195 1145 1096
3010.0 1047 1013 979 897 855 794 826 839 811 749
3050.0 692 631 614 589 614 666 714 772 801 859
3090.0 824 776 712 592 463 347 293 231 210 184
3130.0 165 160 141 145 126 130 115 116 112 108
3170.0 105 93 94 89 96 86 90 81 84 81
3210.0 72 73 70 73 69 76 74 69 67 70
3250.0 74 67 66 62 66 61 62 62 64 65
3290.0 67 64 62 56 52 51 64 67 68 70
3330.0 64 58 54 44 47 61 62 54 49 60
3370.0 53 54 56 57 59 62 58 62 79 76
3410.0 72 65 75 80 84 77 77 73 69 64
3450.0 66 70 67 69 68 65 74 66 70 63
3490.0 67 66 68 73 69 70 74 66 66 66
3530.0 58 58 61 66 58 68 40 53 62 67
3570.0 56 63 57 54 65 56 65 59 73 49
3610.0 79 57 60 75 57 88 71 75 93 99
3650.0 137 148 151 128 90 90 72 85 61 90
3690.0 69 75 63 81 85 92 83 79 70 94
3730.0 75 95 87 84 104 65 92 56 62 71
3770.0 61 56 55 62 58 66 73 69 55 73
3810.0 37 53 62 69 70 57 57 74 63 89
3850.0 64 74 74 58 76 70 50 52 68 75
3890.0 68 88 61 68 65 86 72 79 65 57
3930.0 84 58 47 69 78 71 63 76 55 74
##END=
