##TITLE=Benzene, 1-chloro-4-[(chloromethyl)thio]-
##JCAMP-DX=4.24
##DATA TYPE=INFRARED SPECTRUM
##ORIGIN=Sadtler Research Labs Under US-EPA Contract
##OWNER=NIST Standard Reference Data Program
##CAS REGISTRY NO=7205-90-5
##MOLFORM=C 7 H 6 Cl 2 S
##XUNITS=1/CM
##YUNITS=ABSORBANCE
##XFACTOR=1.0
##YFACTOR=0.000072525
##DELTAX=4.0
##FIRSTX=450.0
##LASTX=3966.0
##FIRSTY=0.008993
##MAXX=3966
##MINX=450
##MAXY=0.72525
##MINY=0
##NPOINTS=880
##XYDATA=(X++(Y..Y))
450.0 124 119 40 10 140 223 384 544 765 1125
490.0 1509 1859 2017 1962 1527 1094 702 425 353 428
530.0 619 869 1017 868 607 355 173 140 102 88
570.0 65 82 47 47 39 38 39 27 87 50
610.0 124 122 203 177 230 256 328 398 491 701
650.0 927 1294 1632 1901 1995 1821 1379 982 699 606
690.0 555 683 818 1057 1382 1877 2625 3534 4638 5483
730.0 5553 4859 3714 2898 2375 1962 1586 1207 978 766
770.0 592 520 485 529 533 625 753 1057 1586 2305
810.0 3041 3709 4134 3892 3211 2328 1592 1055 799 800
850.0 1082 1413 1483 1150 595 284 162 131 100 95
890.0 76 67 51 40 35 21 27 26 29 24
930.0 44 40 45 47 51 37 31 44 23 37
970.0 28 59 39 51 46 65 69 131 344 991
1010.0 3163 4648 4027 2392 522 188 168 144 152 163
1050.0 224 226 323 372 496 582 779 950 1243 1995
1090.0 4177 8136 10000 9365 5262 2140 1214 868 648 513
1130.0 396 329 269 244 219 196 190 173 179 179
1170.0 217 270 331 374 420 457 511 567 507 487
1210.0 594 972 1499 2524 4037 4310 3770 2273 943 574
1250.0 347 285 213 183 156 134 133 112 111 103
1290.0 124 117 120 112 107 112 126 141 146 139
1330.0 116 131 131 139 133 137 135 155 181 208
1370.0 291 402 553 737 956 1043 1026 1030 1064 1075
1410.0 993 821 675 574 545 583 626 667 650 604
1450.0 547 546 664 888 1544 3173 6497 8963 8130 5234
1490.0 1981 685 375 250 234 164 151 121 123 84
1530.0 83 75 84 116 126 157 196 294 379 539
1570.0 780 1032 1095 932 629 349 219 174 160 148
1610.0 149 150 182 197 240 278 313 331 291 246
1650.0 177 117 46 23 1 0 15 4 35 51
1690.0 53 57 103 116 129 142 178 226 199 203
1730.0 147 158 89 185 257 198 114 188 193 242
1770.0 254 288 241 201 146 122 107 83 79 52
1810.0 44 32 26 25 29 33 38 40 53 67
1850.0 57 48 49 60 72 94 112 136 164 194
1890.0 237 260 271 249 206 148 94 60 44 29
1930.0 23 25 22 26 26 22 22 22 16 18
1970.0 18 12 10 8 8 15 17 22 21 25
2010.0 22 23 19 17 10 13 10 12 13 15
2050.0 11 12 14 14 22 21 21 25 22 20
2090.0 19 23 24 25 30 35 38 37 33 32
2130.0 31 26 23 16 19 17 17 18 24 23
2170.0 25 22 25 27 27 29 28 28 28 30
2210.0 27 31 39 37 39 36 35 36 44 50
2250.0 55 56 60 63 71 73 76 78 82 84
2290.0 88 85 93 92 96 92 92 89 89 87
2330.0 89 84 66 91 80 90 100 89 101 95
2370.0 80 85 80 76 60 53 46 39 33 34
2410.0 31 23 18 15 14 17 19 18 18 22
2450.0 26 28 25 23 24 24 22 23 24 26
2490.0 30 33 38 37 41 42 41 47 41 36
2530.0 40 36 35 42 46 49 48 51 54 53
2570.0 60 61 55 53 54 56 51 56 47 40
2610.0 40 49 42 56 70 70 70 77 71 66
2650.0 80 96 78 78 89 80 82 98 68 51
2690.0 63 52 64 87 99 51 72 63 76 104
2730.0 156 93 103 105 116 163 191 118 112 155
2770.0 135 156 229 140 114 112 140 250 295 195
2810.0 225 195 195 279 172 130 149 100 133 153
2850.0 77 106 55 123 169 96 105 88 106 85
2890.0 78 93 148 89 108 107 90 83 122 197
2930.0 141 103 123 157 235 200 295 400 630 701
2970.0 630 491 411 328 197 140 163 185 169 109
3010.0 158 209 209 159 231 256 208 177 180 189
3050.0 158 155 182 200 201 265 311 387 469 544
3090.0 541 468 359 243 168 118 97 77 73 59
3130.0 50 46 40 38 36 39 31 37 27 38
3170.0 32 32 35 32 34 29 33 22 27 26
3210.0 22 25 25 26 21 30 31 25 19 22
3250.0 18 19 22 23 21 24 28 21 20 14
3290.0 23 24 28 27 18 26 22 24 26 30
3330.0 18 33 26 23 29 28 39 26 33 24
3370.0 35 31 25 33 34 35 30 33 29 33
3410.0 28 30 25 29 32 32 37 32 40 39
3450.0 32 28 44 42 31 39 42 31 34 45
3490.0 39 48 38 33 44 37 35 33 32 34
3530.0 40 34 30 25 35 38 33 34 36 41
3570.0 41 35 32 28 34 46 44 35 37 46
3610.0 42 36 41 41 36 47 46 45 39 44
3650.0 52 40 48 42 48 52 42 45 44 47
3690.0 51 52 59 46 60 63 71 72 76 58
3730.0 59 47 49 57 37 53 50 44 42 46
3770.0 44 51 44 49 44 37 45 46 60 41
3810.0 49 62 56 66 57 72 75 83 69 67
3850.0 64 65 58 56 64 62 47 55 60 51
3890.0 51 47 53 51 67 51 59 36 46 61
3930.0 67 50 35 49 58 55 60 45 53 45
##END=
