##TITLE=2-Octanone, oxime
##JCAMP-DX=4.24
##DATA TYPE=INFRARED SPECTRUM
##ORIGIN=Sadtler Research Labs Under US-EPA Contract
##OWNER=NIST Standard Reference Data Program
##CAS REGISTRY NO=7207-49-0
##MOLFORM=C 8 H 17 N O
##XUNITS=1/CM
##YUNITS=ABSORBANCE
##XFACTOR=1.0
##YFACTOR=0.000092844
##DELTAX=4.0
##FIRSTX=450.0
##LASTX=3966.0
##FIRSTY=0.019961
##MAXX=3966
##MINX=450
##MAXY=0.92844
##MINY=0
##NPOINTS=880
##XYDATA=(X++(Y..Y))
450.0 215 150 75 126 46 9 92 67 101 65
490.0 91 102 93 71 73 55 41 88 96 118
530.0 130 142 124 101 50 60 29 50 70 98
570.0 140 165 155 146 161 225 285 327 344 360
610.0 357 470 532 466 485 561 647 634 501 317
650.0 231 185 191 185 187 203 205 225 237 256
690.0 273 289 317 333 363 391 434 479 507 488
730.0 439 377 315 248 225 223 207 204 208 202
770.0 181 169 165 173 194 217 240 249 260 242
810.0 233 232 235 236 216 205 205 211 215 222
850.0 253 287 323 376 406 448 497 565 629 708
890.0 791 892 1055 1324 1748 2274 2840 3297 3554 3616
930.0 3403 2925 2279 1711 1284 992 825 756 729 717
970.0 679 634 591 544 495 452 435 429 450 495
1010.0 570 665 753 823 860 842 765 645 472 369
1050.0 335 336 318 303 293 296 318 349 399 468
1090.0 574 731 968 1274 1473 1481 1356 1130 869 661
1130.0 512 423 366 325 293 272 252 251 268 299
1170.0 338 370 387 387 376 385 433 467 471 433
1210.0 368 302 230 189 246 415 662 938 1125 1168
1250.0 1083 934 807 702 580 489 455 455 456 448
1290.0 442 440 467 517 599 710 844 973 1082 1171
1330.0 1246 1344 1474 1601 1675 1654 1568 1469 1413 1432
1370.0 1471 1457 1361 1177 969 777 575 440 365 328
1410.0 311 312 326 356 410 498 631 773 926 1031
1450.0 1122 1201 1285 1322 1274 1159 966 753 552 405
1490.0 311 253 220 197 190 174 163 154 141 130
1530.0 115 107 96 86 74 73 60 63 57 49
1570.0 47 45 47 39 37 39 41 41 44 46
1610.0 41 40 43 45 46 51 63 75 96 136
1650.0 183 227 260 251 221 168 121 79 53 39
1690.0 26 22 24 15 16 18 19 25 29 35
1730.0 48 57 53 47 41 24 14 7 6 6
1770.0 5 4 5 9 14 14 16 14 12 16
1810.0 16 15 20 21 19 20 20 21 20 18
1850.0 14 17 11 7 4 4 8 2 4 3
1890.0 2 5 2 2 6 4 8 5 5 8
1930.0 8 8 7 10 7 9 11 10 11 10
1970.0 12 12 13 12 14 12 11 15 17 14
2010.0 15 16 14 19 21 23 23 22 21 21
2050.0 21 21 20 18 14 16 16 12 12 9
2090.0 9 10 9 11 14 10 11 11 10 11
2130.0 11 10 13 15 18 18 16 15 17 18
2170.0 18 18 18 17 18 19 15 18 13 14
2210.0 12 11 13 14 14 15 19 20 22 22
2250.0 24 27 26 29 31 30 29 26 25 27
2290.0 29 31 30 31 34 34 35 38 38 40
2330.0 30 33 33 36 26 39 37 40 40 36
2370.0 32 34 27 30 29 28 24 24 26 27
2410.0 29 28 31 28 29 28 28 28 30 27
2450.0 27 27 26 28 26 29 28 29 28 29
2490.0 32 31 33 34 31 34 35 37 37 43
2530.0 43 52 55 54 60 61 65 72 73 79
2570.0 82 86 89 90 93 90 89 91 89 92
2610.0 92 95 96 103 102 110 111 116 120 119
2650.0 126 126 137 139 147 150 157 156 157 153
2690.0 149 145 142 139 136 136 130 136 139 141
2730.0 142 148 157 163 169 166 166 164 157 156
2770.0 158 161 166 176 189 207 225 248 262 287
2810.0 308 335 371 412 460 525 616 729 907 1164
2850.0 1562 2124 2815 3507 4035 4244 4115 3932 3690 3427
2890.0 3145 2883 2813 3008 3369 3876 4549 5381 6496 7763
2930.0 8997 9804 10000 9524 8619 7593 6785 6490 6622 7111
2970.0 7053 6136 4649 3085 2099 1611 1370 1238 1110 975
3010.0 825 707 643 587 542 500 464 427 404 383
3050.0 365 344 325 307 290 269 250 240 222 211
3090.0 197 183 174 167 166 155 149 143 138 137
3130.0 131 127 126 122 118 116 113 114 106 109
3170.0 107 104 107 104 102 99 98 98 93 89
3210.0 88 84 81 79 74 76 80 80 76 79
3250.0 83 82 81 82 81 89 95 108 115 121
3290.0 125 114 111 106 97 92 87 80 85 86
3330.0 79 78 82 82 84 86 83 81 80 86
3370.0 83 82 81 80 81 83 84 83 85 82
3410.0 84 78 79 71 72 83 80 75 66 69
3450.0 72 80 71 68 71 70 72 73 63 67
3490.0 71 66 60 51 48 65 68 73 65 35
3530.0 58 73 60 75 41 42 80 53 70 15
3570.0 30 88 76 82 47 37 74 72 125 133
3610.0 139 186 249 348 504 702 1180 1908 3005 4441
3650.0 5286 5058 4001 2301 1209 640 345 254 223 210
3690.0 133 156 159 121 118 87 40 80 56 28
3730.0 69 26 11 39 30 0 52 47 65 63
3770.0 55 87 71 83 74 87 87 64 43 59
3810.0 69 85 30 37 59 87 54 37 15 69
3850.0 73 7 47 72 33 52 52 87 38 51
3890.0 50 74 58 52 20 95 75 75 65 73
3930.0 84 67 88 83 67 66 100 88 97 105
##END=
