##TITLE=p-Propoxynitrobenzene
##JCAMP-DX=4.24
##DATA TYPE=INFRARED SPECTRUM
##ORIGIN=Sadtler Research Labs Under US-EPA Contract
##OWNER=NIST Standard Reference Data Program
##CAS REGISTRY NO=7244-77-1
##MOLFORM=C 9 H 11 N O 3
##XUNITS=1/CM
##YUNITS=ABSORBANCE
##XFACTOR=1.0
##YFACTOR=0.000142621
##DELTAX=4.0
##FIRSTX=450.0
##LASTX=3966.0
##FIRSTY=0.004992
##MAXX=3966
##MINX=450
##MAXY=1.42621
##MINY=0
##NPOINTS=880
##XYDATA=(X++(Y..Y))
450.0 35 53 52 71 59 81 74 103 108 155
490.0 122 202 242 228 207 213 188 184 142 113
530.0 77 57 45 33 25 23 19 32 30 13
570.0 34 60 45 10 84 8 26 44 95 115
610.0 208 293 359 365 349 398 350 428 515 756
650.0 973 1004 776 354 196 169 217 279 361 398
690.0 384 337 276 205 136 111 83 66 35 60
730.0 101 133 251 419 593 747 746 565 409 232
770.0 103 60 26 41 71 78 61 86 78 89
810.0 85 95 130 221 401 622 924 1235 1570 1900
850.0 1959 2249 2674 2616 1950 939 403 251 192 194
890.0 175 175 170 176 177 172 174 153 146 137
930.0 135 142 157 181 201 235 268 343 462 697
970.0 1052 1524 1895 1929 1609 1148 852 741 763 848
1010.0 976 1056 1056 920 723 589 592 729 876 981
1050.0 990 962 999 1101 1136 977 716 489 416 411
1090.0 476 582 795 1183 1769 2576 2718 2213 1305 729
1130.0 488 349 293 257 295 328 420 594 1147 2000
1170.0 2488 2270 1481 852 621 496 425 409 427 499
1210.0 633 846 1116 1479 2011 2750 3553 4257 4897 5709
1250.0 6986 8526 10000 9493 7245 4653 3126 2465 2106 1918
1290.0 2044 2381 2451 2108 1588 1338 1434 1760 2161 2439
1330.0 2646 3017 4045 5798 8248 9866 9042 6205 3658 2432
1370.0 1913 1638 1387 1146 1055 1030 1037 935 671 454
1410.0 401 324 440 391 405 403 484 543 541 579
1450.0 668 786 1056 1131 1332 1653 2028 2102 1897 1922
1490.0 2692 4419 5879 5591 3854 2281 1896 2291 3089 4107
1530.0 5334 6256 6665 6112 4868 3387 2313 1718 1227 1013
1570.0 1011 1108 1407 1956 3021 4700 6391 7400 6446 4896
1610.0 3607 3027 2439 1665 1091 634 494 401 299 298
1650.0 330 353 217 164 167 159 187 106 175 219
1690.0 125 105 217 210 145 81 134 209 108 69
1730.0 115 200 134 107 149 176 139 150 176 138
1770.0 161 159 68 79 60 83 93 79 97 50
1810.0 58 61 40 47 62 77 48 19 55 76
1850.0 42 22 34 42 69 104 64 54 65 81
1890.0 105 109 111 114 117 121 120 109 112 73
1930.0 55 47 42 62 59 46 47 56 50 63
1970.0 58 50 46 40 32 47 43 33 34 39
2010.0 45 60 68 58 49 49 45 49 49 40
2050.0 38 38 39 41 50 44 42 39 32 32
2090.0 31 28 26 29 30 33 34 36 34 31
2130.0 27 18 15 12 13 12 8 11 4 4
2170.0 2 0 3 4 4 5 7 10 13 17
2210.0 19 22 22 23 21 20 18 16 11 11
2250.0 10 13 15 15 16 18 20 23 25 25
2290.0 20 22 17 14 14 10 3 2 0 0
2330.0 0 0 0 0 3 6 0 0 0 0
2370.0 11 22 26 33 35 39 41 44 47 46
2410.0 45 46 41 38 42 45 44 49 59 68
2450.0 82 97 109 113 104 90 78 66 62 60
2490.0 59 60 66 75 82 80 68 64 58 50
2530.0 47 49 56 62 70 80 83 85 83 76
2570.0 76 79 80 83 83 83 72 67 67 66
2610.0 67 67 66 62 61 54 53 53 52 54
2650.0 52 44 38 34 35 34 35 40 38 33
2690.0 37 38 36 41 48 51 51 47 46 48
2730.0 53 57 59 65 80 85 90 92 92 91
2770.0 83 80 82 73 71 73 70 71 65 71
2810.0 74 81 91 100 116 130 145 168 197 223
2850.0 264 305 370 452 533 607 680 766 874 1001
2890.0 1112 1138 1089 1005 947 926 939 982 1035 1106
2930.0 1192 1293 1389 1471 1587 1657 1628 1537 1513 1615
2970.0 1826 2104 2244 2246 2017 1607 1113 688 460 337
3010.0 263 218 181 162 140 135 118 107 103 96
3050.0 96 102 110 118 123 129 147 166 199 272
3090.0 361 384 324 196 98 69 61 52 51 46
3130.0 34 28 27 25 26 24 21 20 23 23
3170.0 25 25 24 29 26 32 39 38 40 52
3210.0 45 56 54 50 49 44 34 34 30 43
3250.0 32 34 33 37 35 35 43 38 27 32
3290.0 39 24 33 34 35 21 26 26 40 34
3330.0 33 32 31 32 35 22 27 35 32 38
3370.0 45 38 44 35 38 31 36 35 33 32
3410.0 35 38 33 37 36 38 24 30 37 24
3450.0 38 36 39 34 23 33 40 24 38 38
3490.0 27 33 33 37 23 33 25 32 29 23
3530.0 24 27 22 32 22 35 30 29 16 12
3570.0 14 29 28 35 15 16 14 31 35 18
3610.0 22 20 17 15 7 24 20 19 18 24
3650.0 31 33 29 4 30 16 43 22 23 26
3690.0 46 22 20 21 18 39 26 12 20 18
3730.0 34 13 29 18 40 9 28 31 26 37
3770.0 12 8 17 28 10 0 6 44 13 35
3810.0 19 45 19 42 39 16 18 32 20 19
3850.0 18 18 23 20 13 37 24 20 16 17
3890.0 9 19 4 18 15 33 15 46 21 23
3930.0 29 50 27 27 33 4 19 10 28 40
##END=
