##TITLE=Butyl 4-nitrophenyl ether
##JCAMP-DX=4.24
##DATA TYPE=INFRARED SPECTRUM
##ORIGIN=Sadtler Research Labs Under US-EPA Contract
##OWNER=NIST Standard Reference Data Program
##CAS REGISTRY NO=7244-78-2
##MOLFORM=C 10 H 13 N O 3
##XUNITS=1/CM
##YUNITS=ABSORBANCE
##XFACTOR=1.0
##YFACTOR=0.000121741
##DELTAX=4.0
##FIRSTX=450.0
##LASTX=3966.0
##FIRSTY=0.010835
##MAXX=3966
##MINX=450
##MAXY=1.21741
##MINY=0
##NPOINTS=880
##XYDATA=(X++(Y..Y))
450.0 89 65 59 45 41 56 36 69 53 87
490.0 128 178 193 221 227 186 188 149 132 102
530.0 84 61 44 15 41 22 13 12 13 30
570.0 19 28 31 33 31 39 37 52 85 135
610.0 212 303 348 334 302 314 348 411 518 722
650.0 981 940 698 336 213 216 228 268 346 380
690.0 378 309 254 195 139 104 77 64 68 69
730.0 88 142 263 439 608 770 728 576 397 226
770.0 155 127 124 120 107 99 89 92 81 83
810.0 82 101 139 220 374 565 817 1164 1561 1949
850.0 2192 2420 2415 1978 1358 976 843 760 624 452
890.0 298 201 157 141 132 113 76 58 51 50
930.0 63 81 115 161 216 279 350 428 510 612
970.0 715 775 752 682 617 593 609 682 855 1066
1010.0 1244 1362 1470 1563 1583 1489 1292 1034 785 578
1050.0 471 491 612 773 898 923 830 682 555 506
1090.0 542 638 804 1112 1701 2415 2651 2110 1236 671
1130.0 427 297 254 247 274 296 372 585 1181 2103
1170.0 2636 2284 1446 900 673 544 485 472 533 657
1210.0 871 1172 1544 1973 2423 2856 3345 4055 5175 6718
1250.0 8446 9759 9993 8712 6436 4323 2897 2066 1635 1631
1290.0 2048 2522 2592 2156 1685 1498 1566 1876 2202 2372
1330.0 2486 2938 4246 6494 9032 10000 8244 5398 3453 2514
1370.0 1998 1680 1395 1194 1124 1031 901 708 498 382
1410.0 348 307 413 374 400 414 514 574 569 583
1450.0 646 758 960 1118 1480 1955 2335 2316 2082 2209
1490.0 2965 4395 5617 5376 3928 2595 2134 2398 3141 4144
1530.0 5365 6273 6488 5899 4534 3149 2141 1644 1252 1099
1570.0 1099 1230 1537 2224 3347 5099 6671 7282 6116 4526
1610.0 3536 2879 2246 1455 945 550 429 345 264 250
1650.0 287 262 177 134 124 117 139 61 134 142
1690.0 85 63 148 131 101 52 87 153 73 48
1730.0 83 157 95 99 134 166 143 153 165 129
1770.0 143 121 64 64 60 65 80 62 79 38
1810.0 37 35 13 22 29 40 18 7 31 54
1850.0 26 6 18 21 43 70 44 46 60 79
1890.0 100 103 102 103 104 107 99 92 89 56
1930.0 38 31 24 43 40 30 36 41 43 55
1970.0 54 51 48 47 43 60 58 52 51 58
2010.0 60 71 77 68 62 67 68 75 81 79
2050.0 78 74 64 59 54 40 35 32 30 29
2090.0 30 30 29 29 31 35 37 37 33 27
2130.0 23 19 16 12 7 7 6 3 1 1
2170.0 1 0 1 1 2 0 3 4 7 9
2210.0 10 14 18 19 19 19 14 13 10 7
2250.0 8 10 11 13 15 20 25 30 34 39
2290.0 41 47 49 48 53 59 43 38 39 28
2330.0 25 20 19 17 46 40 46 43 41 38
2370.0 53 55 68 72 68 57 53 49 48 46
2410.0 43 43 43 42 44 46 49 55 63 75
2450.0 88 103 116 117 111 97 89 81 76 73
2490.0 72 75 78 81 80 79 71 64 60 57
2530.0 55 59 67 74 84 91 97 98 96 94
2570.0 96 95 99 101 100 94 89 87 85 85
2610.0 87 86 84 76 71 66 65 62 64 63
2650.0 59 55 51 52 50 53 53 54 56 59
2690.0 61 63 67 74 78 79 78 75 75 76
2730.0 79 81 89 97 104 114 118 116 110 110
2770.0 102 100 99 98 103 105 109 111 117 121
2810.0 129 141 151 169 185 202 224 257 297 354
2850.0 421 496 567 642 748 899 1080 1271 1457 1578
2890.0 1561 1415 1268 1206 1207 1263 1373 1496 1604 1683
2930.0 1793 1980 2253 2557 2751 2738 2608 2528 2642 2919
2970.0 3173 3180 2761 2101 1477 1043 759 575 464 382
3010.0 330 284 250 225 206 189 173 159 148 142
3050.0 141 142 148 153 156 164 179 202 242 310
3090.0 389 404 315 188 110 91 82 76 62 56
3130.0 51 47 41 39 37 35 35 31 30 30
3170.0 30 30 30 35 35 39 39 45 47 50
3210.0 54 54 47 41 33 28 22 21 21 18
3250.0 15 14 13 14 12 14 9 11 9 11
3290.0 12 13 10 8 5 4 11 9 11 9
3330.0 10 14 14 8 12 13 7 11 12 8
3370.0 12 8 9 9 11 9 9 8 11 14
3410.0 11 11 10 10 10 8 8 9 10 11
3450.0 10 12 10 10 10 11 6 9 11 8
3490.0 8 8 12 8 9 11 8 6 8 5
3530.0 9 8 7 12 7 5 6 10 12 9
3570.0 18 13 10 12 14 7 11 11 8 8
3610.0 10 11 11 11 8 13 8 11 15 10
3650.0 24 17 14 19 16 23 12 23 12 21
3690.0 24 19 17 13 13 20 15 22 19 19
3730.0 21 19 24 26 34 18 26 18 13 11
3770.0 19 12 11 20 14 18 5 11 19 24
3810.0 16 16 13 20 19 6 15 17 9 17
3850.0 12 12 20 15 13 21 24 13 23 24
3890.0 21 20 14 17 21 25 17 17 12 11
3930.0 18 12 12 16 24 14 15 17 16 10
##END=
