##TITLE=Methane, bis(p-methoxyphenyl)-,
##JCAMP-DX=4.24
##DATA TYPE=INFRARED SPECTRUM
##ORIGIN=Sadtler Research Labs Under US-EPA Contract
##OWNER=NIST Standard Reference Data Program
##CAS REGISTRY NO=726-18-1
##MOLFORM=C 15 H 16 O 2
##XUNITS=1/CM
##YUNITS=ABSORBANCE
##XFACTOR=1.0
##YFACTOR=0.000092752
##DELTAX=4.0
##FIRSTX=450.0
##LASTX=3966.0
##FIRSTY=0.004359
##MAXX=3966
##MINX=450
##MAXY=0.92752
##MINY=0
##NPOINTS=880
##XYDATA=(X++(Y..Y))
450.0 47 73 101 40 66 35 72 27 89 73
490.0 101 176 190 236 291 321 389 457 467 448
530.0 359 269 210 154 151 159 190 229 292 368
570.0 509 578 577 511 390 254 169 107 79 47
610.0 44 42 35 17 28 31 58 64 44 21
650.0 24 19 8 40 33 43 18 6 27 13
690.0 42 42 36 71 56 56 53 52 57 67
730.0 76 103 166 277 445 511 446 347 297 277
770.0 258 230 216 230 284 370 523 761 1029 1256
810.0 1407 1523 1599 1586 1396 1134 883 729 667 634
850.0 570 474 371 280 211 177 171 147 141 137
890.0 128 129 137 140 159 156 155 147 143 134
930.0 134 131 132 126 126 130 131 132 136 151
970.0 164 183 195 213 233 247 274 301 343 434
1010.0 599 707 737 811 1047 1376 1785 2200 2476 2461
1050.0 2123 1580 1095 780 600 483 410 365 351 359
1090.0 384 433 491 560 615 628 604 543 482 423
1130.0 387 370 372 394 421 485 574 752 1098 1949
1170.0 3312 4078 3297 2151 1549 1167 917 850 845 877
1210.0 918 1006 1151 1396 1797 2452 3579 5421 7990 10000
1250.0 9844 7593 5334 3880 3061 2611 2362 2189 2034 1913
1290.0 1856 1860 1824 1599 1232 901 736 673 689 720
1330.0 722 671 537 455 410 356 320 281 242 232
1370.0 228 190 199 219 198 202 187 174 219 247
1410.0 257 321 273 370 416 524 612 810 1045 1139
1450.0 1050 918 866 1046 1254 1352 1144 927 853 821
1490.0 946 1391 2234 3994 6802 9391 9057 5740 3024 1682
1530.0 1032 695 497 336 317 329 292 211 274 342
1570.0 374 461 580 706 825 856 924 1079 1370 1671
1610.0 1894 1861 1514 1125 745 564 386 288 274 226
1650.0 142 127 175 167 154 139 93 139 66 41
1690.0 86 94 17 21 50 94 63 10 89 127
1730.0 103 49 111 121 94 81 125 124 112 119
1770.0 67 40 74 54 62 43 31 38 24 60
1810.0 55 52 69 62 51 39 57 78 54 43
1850.0 81 107 110 119 104 85 124 132 132 117
1890.0 98 92 88 84 70 59 51 50 36 55
1930.0 60 54 52 35 35 42 39 34 37 29
1970.0 38 43 52 59 72 66 75 90 87 83
2010.0 80 71 57 64 70 66 70 67 76 86
2050.0 98 103 112 114 112 121 124 123 122 119
2090.0 100 85 69 51 37 29 24 19 16 15
2130.0 12 6 8 9 5 1 3 2 2 3
2170.0 3 1 4 4 1 5 5 5 7 7
2210.0 11 11 12 10 10 8 9 7 10 12
2250.0 15 19 26 27 29 33 36 36 35 34
2290.0 33 26 18 18 15 6 5 4 5 1
2330.0 1 1 3 0 30 33 10 12 1 1
2370.0 11 22 32 27 22 18 20 20 22 24
2410.0 27 31 35 38 35 35 32 29 26 27
2450.0 29 33 35 35 37 40 42 45 51 53
2490.0 56 56 55 52 49 50 50 54 56 59
2530.0 57 61 66 70 72 65 56 48 41 34
2570.0 31 32 34 37 37 40 42 44 39 37
2610.0 34 37 30 28 32 30 29 32 30 35
2650.0 32 26 26 25 20 18 20 19 22 25
2690.0 25 25 26 28 27 28 35 37 40 42
2730.0 46 48 50 53 58 58 66 67 67 73
2770.0 71 76 77 83 89 98 105 114 127 143
2810.0 174 198 235 278 340 449 616 909 1250 1363
2850.0 1182 923 744 622 532 479 440 421 422 448
2890.0 491 550 637 768 956 1202 1446 1591 1594 1492
2930.0 1377 1324 1382 1485 1522 1478 1401 1313 1170 996
2970.0 832 717 638 613 640 722 874 1099 1456 1776
3010.0 1728 1312 948 820 843 967 1105 1113 941 714
3050.0 541 452 423 447 519 594 613 549 439 366
3090.0 334 325 325 316 295 258 217 188 166 146
3130.0 135 123 102 85 72 62 56 56 53 47
3170.0 42 43 42 36 39 35 30 31 28 25
3210.0 20 17 20 22 21 24 22 24 25 18
3250.0 19 15 25 18 17 14 18 15 18 13
3290.0 15 16 18 17 10 10 17 11 15 18
3330.0 17 13 17 15 17 17 15 19 16 14
3370.0 15 14 18 14 15 14 14 11 14 11
3410.0 16 19 12 10 17 13 9 15 16 15
3450.0 12 7 9 16 17 13 10 11 9 12
3490.0 13 10 11 9 11 8 13 1 11 16
3530.0 9 2 7 8 17 12 9 11 2 3
3570.0 7 13 17 14 15 6 17 1 11 9
3610.0 10 5 8 14 18 11 32 44 77 122
3650.0 202 255 216 130 60 33 15 15 18 19
3690.0 5 3 10 7 12 6 1 6 2 3
3730.0 9 2 10 1 6 1 1 7 1 1
3770.0 1 3 3 3 2 1 1 1 1 1
3810.0 1 4 1 1 1 1 1 1 1 1
3850.0 1 1 1 1 1 1 1 20 8 8
3890.0 2 4 6 8 1 1 1 1 1 2
3930.0 10 8 4 1 4 2 5 4 6 5
##END=
