##TITLE=2-Butenedioic acid (E)-, bis(2-methylpropyl) ester
##JCAMP-DX=4.24
##DATA TYPE=INFRARED SPECTRUM
##ORIGIN=Sadtler Research Labs Under US-EPA Contract
##OWNER=NIST Standard Reference Data Program
##CAS REGISTRY NO=7283-69-4
##MOLFORM=C 12 H 20 O 4
##XUNITS=1/CM
##YUNITS=ABSORBANCE
##XFACTOR=1.0
##YFACTOR=0.000189670
##DELTAX=4.0
##FIRSTX=450.0
##LASTX=3966.0
##FIRSTY=0.009294
##MAXX=3966
##MINX=450
##MAXY=1.8967
##MINY=0
##NPOINTS=880
##XYDATA=(X++(Y..Y))
450.0 49 78 72 68 71 74 55 69 47 38
490.0 42 67 73 81 50 99 69 64 48 58
530.0 66 52 75 82 93 78 89 57 74 63
570.0 62 69 59 62 53 5 36 49 50 71
610.0 69 67 86 69 70 59 63 65 104 105
650.0 158 238 325 434 517 485 382 218 141 88
690.0 58 54 39 48 32 42 37 38 36 32
730.0 35 31 47 48 68 81 113 141 179 227
770.0 266 289 268 240 209 165 133 128 118 116
810.0 117 122 139 144 142 142 137 139 135 139
850.0 141 147 149 147 149 147 149 149 156 166
890.0 180 193 209 233 257 281 296 315 340 377
930.0 395 401 407 427 452 478 496 521 579 673
970.0 829 1052 1259 1320 1188 1030 968 1099 1462 2102
1010.0 2991 3864 4312 4058 3618 3096 2312 1466 938 675
1050.0 532 459 425 405 378 362 351 344 337 344
1090.0 345 354 379 433 514 577 620 668 751 848
1130.0 972 1246 1771 2777 4444 6350 6540 5381 4574 4557
1170.0 4574 4028 3197 2367 1762 1360 1143 1066 1099 1249
1210.0 1532 2056 2881 3689 3606 2931 2634 3033 3841 5053
1250.0 6614 7978 8317 6617 4920 3828 3359 3484 4315 5869
1290.0 7636 8159 6347 5029 4412 3650 2479 1613 1126 878
1330.0 740 665 637 669 714 672 588 548 578 676
1370.0 926 1303 1680 1737 1332 923 746 734 660 510
1410.0 364 309 251 238 237 235 230 229 268 315
1450.0 382 468 584 727 876 959 906 805 638 464
1490.0 352 261 205 183 150 120 153 115 86 100
1530.0 95 105 55 67 64 95 59 48 15 75
1570.0 57 68 41 81 80 72 88 81 89 81
1610.0 106 89 94 118 133 168 200 298 448 509
1650.0 521 336 291 253 232 200 224 209 252 216
1690.0 313 374 411 514 610 713 731 920 1200 1776
1730.0 2795 4646 7356 9148 10000 7054 4421 2683 1730 1278
1770.0 995 767 683 560 511 400 365 294 252 206
1810.0 177 151 125 122 91 90 76 95 69 70
1850.0 75 81 83 82 82 68 75 68 66 59
1890.0 54 60 54 62 53 59 52 55 53 55
1930.0 53 52 54 49 49 48 48 46 45 42
1970.0 38 38 33 38 33 37 31 36 37 35
2010.0 37 37 42 38 43 41 43 40 40 40
2050.0 39 39 33 35 39 39 36 37 38 40
2090.0 42 41 44 44 49 50 53 54 55 58
2130.0 55 53 50 51 46 45 44 43 42 41
2170.0 43 41 41 39 37 33 36 32 31 31
2210.0 27 29 28 31 26 26 25 25 24 27
2250.0 27 26 29 26 29 25 28 28 28 31
2290.0 30 28 29 30 27 26 28 27 28 28
2330.0 27 27 30 20 37 25 20 14 0 7
2370.0 5 14 13 17 16 14 14 16 18 15
2410.0 15 17 14 16 19 17 17 15 15 16
2450.0 14 16 15 17 16 19 18 18 24 21
2490.0 22 24 25 23 21 22 22 21 16 17
2530.0 15 16 14 16 10 14 12 12 14 17
2570.0 20 18 22 19 21 18 18 18 16 19
2610.0 18 19 18 23 22 23 21 27 27 22
2650.0 20 16 17 12 6 10 8 5 3 0
2690.0 0 3 4 13 16 19 24 27 32 38
2730.0 52 62 74 76 75 75 72 75 71 68
2770.0 66 65 58 61 66 67 69 66 69 68
2810.0 74 82 89 98 107 120 127 139 150 164
2850.0 176 193 213 247 296 373 503 726 1058 1324
2890.0 1341 1269 1240 1201 1139 1084 1059 1071 1104 1133
2930.0 1172 1288 1479 1694 1879 2035 2228 2437 2760 3210
2970.0 3711 4240 4396 3842 2586 1466 857 590 425 331
3010.0 261 222 181 149 129 113 98 85 80 74
3050.0 67 57 63 55 60 69 62 64 65 65
3090.0 54 53 48 44 48 41 43 42 45 40
3130.0 42 38 37 35 38 38 39 45 48 54
3170.0 55 50 57 55 54 48 42 45 48 44
3210.0 38 35 30 35 30 31 26 32 29 29
3250.0 28 33 29 35 38 36 28 16 16 9
3290.0 4 0 4 9 13 4 13 12 14 10
3330.0 4 7 15 16 18 20 16 25 28 20
3370.0 22 23 27 26 20 27 24 36 25 26
3410.0 26 25 28 22 27 32 30 36 35 28
3450.0 32 38 58 66 86 105 112 95 88 63
3490.0 43 40 42 30 36 37 25 23 31 46
3530.0 24 21 27 20 39 28 15 36 23 48
3570.0 43 48 75 83 105 69 54 35 21 32
3610.0 35 30 21 27 24 23 32 23 37 25
3650.0 16 38 21 43 30 44 18 36 21 30
3690.0 16 28 29 33 36 29 32 35 22 41
3730.0 42 9 27 30 17 18 21 33 37 21
3770.0 22 18 16 3 22 43 38 23 29 9
3810.0 42 37 12 13 16 17 29 22 24 31
3850.0 46 13 12 22 28 28 30 27 48 17
3890.0 45 17 49 23 38 17 40 25 39 42
3930.0 15 27 25 31 26 13 16 17 28 35
##END=
