##TITLE=2-Thiophenecarboxaldehyde, 5-chloro-
##JCAMP-DX=4.24
##DATA TYPE=INFRARED SPECTRUM
##ORIGIN=Sadtler Research Labs Under US-EPA Contract
##OWNER=NIST Standard Reference Data Program
##CAS REGISTRY NO=7283-96-7
##MOLFORM=C 5 H 3 Cl O S
##XUNITS=1/CM
##YUNITS=ABSORBANCE
##XFACTOR=1.0
##YFACTOR=0.000108289
##DELTAX=4.0
##FIRSTX=450.0
##LASTX=3966.0
##FIRSTY=0.000000
##MAXX=3966
##MINX=450
##MAXY=1.08289
##MINY=0
##NPOINTS=880
##XYDATA=(X++(Y..Y))
450.0 0 84 171 229 232 340 413 482 555 586
490.0 440 366 268 196 175 154 191 266 370 369
530.0 378 299 206 110 120 96 67 97 94 105
570.0 78 108 79 95 90 88 100 88 115 93
610.0 108 92 142 125 116 131 150 161 154 233
650.0 250 454 664 981 1141 1213 999 756 361 208
690.0 125 142 116 126 126 139 143 172 174 152
730.0 187 199 230 282 405 431 422 451 268 167
770.0 186 268 413 628 877 958 1764 1438 1206 1384
810.0 1138 868 736 506 347 214 177 117 118 103
850.0 108 96 102 108 92 102 94 96 92 109
890.0 106 107 109 97 93 94 95 89 88 82
930.0 85 90 83 89 90 96 97 106 109 113
970.0 120 136 163 191 245 361 657 1171 2016 2521
1010.0 2373 2255 1331 333 183 158 175 193 205 216
1050.0 219 235 238 264 255 261 266 235 202 179
1090.0 169 172 174 175 192 177 172 172 177 178
1130.0 184 195 198 206 212 214 210 217 223 240
1170.0 264 319 415 585 863 1267 1723 1972 1871 1660
1210.0 1527 1326 1374 1317 1140 800 352 205 173 156
1250.0 148 133 134 133 148 155 180 185 193 176
1290.0 159 150 148 169 199 209 235 309 479 663
1330.0 668 677 510 242 172 155 162 164 176 193
1370.0 227 249 252 278 301 397 422 474 610 775
1410.0 1091 1918 3330 5466 7070 6533 6413 4049 1666 840
1450.0 426 271 201 169 150 131 104 98 119 93
1490.0 78 98 91 96 91 102 158 240 345 456
1530.0 481 465 371 211 140 125 106 73 100 111
1570.0 115 124 154 167 180 178 188 170 161 155
1610.0 139 144 132 137 118 121 109 95 112 108
1650.0 117 158 249 286 345 402 469 663 925 1670
1690.0 3525 7069 9428 9929 10000 7394 3886 1664 892 626
1730.0 422 323 293 300 306 340 387 358 347 298
1770.0 218 173 170 152 167 175 185 192 169 170
1810.0 145 128 117 108 101 105 142 180 177 191
1850.0 199 197 198 198 191 176 180 172 165 148
1890.0 129 109 96 91 85 80 77 75 70 76
1930.0 79 78 82 78 88 92 93 92 92 85
1970.0 84 85 80 80 78 72 72 77 78 81
2010.0 84 83 78 78 78 74 76 74 75 78
2050.0 82 82 84 87 82 87 86 85 82 82
2090.0 78 81 81 80 82 81 80 82 83 84
2130.0 85 84 81 80 73 73 71 71 68 69
2170.0 67 68 70 69 70 68 69 73 75 76
2210.0 77 75 76 73 74 75 71 72 73 70
2250.0 69 72 74 74 74 76 75 69 68 67
2290.0 68 69 69 70 70 76 71 75 73 74
2330.0 76 71 74 76 83 77 82 74 85 81
2370.0 88 79 84 79 76 74 72 73 74 78
2410.0 80 83 85 85 81 80 76 74 77 75
2450.0 77 77 77 78 79 81 82 80 82 86
2490.0 89 90 88 91 82 78 77 78 82 81
2530.0 86 87 85 82 81 81 82 81 81 81
2570.0 80 79 83 85 83 86 88 89 91 92
2610.0 96 101 110 114 113 111 109 110 119 124
2650.0 130 135 138 141 153 176 200 224 228 215
2690.0 194 167 152 150 160 179 208 247 305 383
2730.0 483 579 676 689 648 572 446 341 273 249
2770.0 263 327 463 675 888 985 1012 962 835 791
2810.0 905 1002 1052 1112 1001 805 659 518 417 346
2850.0 289 246 206 171 145 141 134 133 132 129
2890.0 130 130 135 137 138 137 138 136 133 128
2930.0 130 130 124 123 116 113 114 116 111 112
2970.0 111 109 107 109 103 103 104 107 105 106
3010.0 103 102 104 103 98 100 104 109 115 115
3050.0 113 108 98 96 99 111 127 137 154 156
3090.0 150 147 122 112 110 103 106 112 118 119
3130.0 120 115 104 91 87 83 80 84 84 82
3170.0 85 85 81 83 84 82 81 83 82 81
3210.0 84 82 83 81 85 87 86 84 85 83
3250.0 80 84 85 79 84 85 85 84 85 85
3290.0 88 90 88 87 87 84 81 82 84 89
3330.0 85 82 87 87 90 89 88 93 100 122
3370.0 146 176 203 208 211 197 158 120 97 80
3410.0 78 70 67 74 76 79 80 82 83 80
3450.0 80 83 83 88 86 85 85 85 86 87
3490.0 84 87 86 88 87 88 89 87 89 90
3530.0 97 91 88 92 92 91 95 88 89 93
3570.0 97 99 106 135 140 137 133 101 94 96
3610.0 97 96 92 92 87 98 88 89 89 87
3650.0 98 92 90 86 85 95 89 99 82 88
3690.0 86 93 86 92 94 93 96 90 95 95
3730.0 90 92 87 87 111 85 102 85 92 91
3770.0 91 87 87 96 82 102 97 102 96 103
3810.0 87 100 98 99 110 90 105 119 112 102
3850.0 105 109 95 88 98 93 97 94 94 104
3890.0 98 103 84 87 96 104 92 87 102 93
3930.0 100 88 94 101 96 96 95 93 86 90
##END=
