##TITLE=1-(2-Methylphenyl)ethanol
##JCAMP-DX=4.24
##DATA TYPE=INFRARED SPECTRUM
##ORIGIN=Sadtler Research Labs Under US-EPA Contract
##OWNER=NIST Standard Reference Data Program
##CAS REGISTRY NO=7287-82-3
##MOLFORM=C 9 H 12 O
##XUNITS=1/CM
##YUNITS=ABSORBANCE
##XFACTOR=1.0
##YFACTOR=0.000052734
##DELTAX=4.0
##FIRSTX=450.0
##LASTX=3966.0
##FIRSTY=0.059484
##MAXX=3966
##MINX=450
##MAXY=0.52734
##MINY=0
##NPOINTS=880
##XYDATA=(X++(Y..Y))
450.0 1128 970 1070 778 524 306 123 69 75 234
490.0 352 486 493 454 316 208 85 76 88 98
530.0 108 99 147 219 325 454 514 443 391 295
570.0 198 112 90 80 42 65 109 195 324 536
610.0 698 823 803 703 482 320 215 141 107 92
650.0 67 71 49 19 4 77 44 27 39 51
690.0 69 81 92 149 287 638 1264 2035 2876 4571
730.0 4982 4287 4074 4116 4535 5151 6498 7883 5586 4434
770.0 3088 1752 907 517 328 246 212 198 212 217
810.0 225 205 164 142 130 110 112 130 144 138
850.0 162 175 203 275 334 423 543 775 1125 1647
890.0 2277 2832 3130 2980 2543 1914 1323 879 642 544
930.0 538 585 649 711 641 563 503 484 478 518
970.0 603 739 968 1316 1832 2504 3228 3834 4190 4004
1010.0 3370 2656 2042 1652 1530 1672 2052 2608 3249 3846
1050.0 4249 4335 4433 4733 5457 6653 7949 8688 8458 7415
1090.0 5969 4489 3384 2668 2161 1840 1683 1681 1776 1842
1130.0 1817 1643 1413 1163 975 912 951 1027 1169 1330
1170.0 1510 1622 1660 1627 1522 1406 1321 1273 1298 1358
1210.0 1441 1534 1610 1654 1685 1749 1918 2244 2777 3465
1250.0 4054 4357 4316 3922 3319 2825 2621 2659 2767 2759
1290.0 2609 2317 1971 1645 1425 1336 1322 1360 1424 1508
1330.0 1619 1774 2012 2318 2676 3030 3296 3441 3507 3626
1370.0 3888 4266 4439 4209 3733 3113 2446 1900 1507 1242
1410.0 1111 1059 1073 1093 1134 1190 1315 1501 1767 2132
1450.0 2581 3023 3349 3469 3341 3091 2849 2700 2731 2873
1490.0 2894 2725 2351 1815 1270 864 625 504 430 358
1530.0 316 286 269 252 231 214 213 216 216 216
1570.0 234 255 295 331 377 422 479 563 648 697
1610.0 682 655 551 407 298 214 155 116 97 91
1650.0 91 95 109 120 129 139 147 150 166 192
1690.0 226 270 308 302 271 213 162 154 139 138
1730.0 127 113 87 68 69 77 84 93 90 88
1770.0 84 84 84 100 136 182 234 272 285 266
1810.0 221 168 128 119 138 170 186 184 162 124
1850.0 73 38 31 41 54 81 104 131 149 166
1890.0 181 197 232 287 354 406 419 389 321 239
1930.0 175 156 193 251 282 278 246 190 120 75
1970.0 54 52 43 38 33 30 28 24 22 17
2010.0 17 13 19 14 14 10 8 6 2 0
2050.0 4 4 3 2 7 5 6 10 12 12
2090.0 16 12 12 15 10 11 11 10 11 7
2130.0 6 7 2 2 2 4 9 9 7 9
2170.0 8 9 9 11 15 16 15 15 15 16
2210.0 10 13 4 6 7 6 6 7 12 14
2250.0 21 30 35 38 42 44 38 39 37 30
2290.0 30 28 23 28 18 20 27 44 53 68
2330.0 79 82 63 59 67 57 48 44 43 47
2370.0 41 40 38 36 37 43 46 49 53 57
2410.0 60 62 61 65 67 65 67 69 71 73
2450.0 70 72 67 58 53 49 45 48 41 39
2490.0 42 42 39 44 45 46 39 40 43 40
2530.0 38 37 39 38 40 44 46 56 61 66
2570.0 73 78 77 83 85 86 94 101 103 103
2610.0 101 100 103 102 104 101 100 96 92 90
2650.0 84 93 90 96 103 104 118 124 130 132
2690.0 138 136 140 142 142 150 154 160 174 185
2730.0 201 219 239 256 272 270 266 259 247 238
2770.0 235 232 233 238 242 247 256 270 289 314
2810.0 353 390 422 456 486 510 548 602 656 730
2850.0 818 935 1103 1334 1645 2037 2455 2842 3133 3319
2890.0 3426 3493 3572 3677 3812 3945 4091 4265 4513 4858
2930.0 5286 5685 5885 5777 5392 4855 4389 4192 4325 4805
2970.0 5729 7145 8905 10000 9911 8968 7020 4762 3157 2401
3010.0 2169 2298 2715 3325 3929 4275 4341 4110 3601 3111
3050.0 2835 2857 3111 3548 4078 4503 4684 4564 4100 3335
3090.0 2491 1781 1325 1118 1006 903 782 648 506 391
3130.0 309 262 238 227 231 234 224 219 220 220
3170.0 200 183 173 157 138 128 116 100 87 80
3210.0 73 68 61 62 59 53 47 49 37 30
3250.0 29 26 27 33 26 28 27 24 26 23
3290.0 28 21 19 11 18 11 18 19 20 16
3330.0 21 31 21 21 35 31 39 39 38 40
3370.0 35 52 51 43 49 54 52 52 50 42
3410.0 45 54 50 51 50 43 54 39 48 53
3450.0 44 49 49 53 40 47 50 51 41 38
3490.0 54 40 39 27 38 36 41 33 37 34
3530.0 34 49 44 35 28 21 39 30 38 12
3570.0 9 46 45 58 50 47 66 68 77 78
3610.0 84 106 157 215 356 592 1026 1532 2056 2757
3650.0 2882 2397 1998 1473 945 517 292 172 134 116
3690.0 79 87 82 69 63 46 46 54 41 39
3730.0 32 9 21 14 9 14 36 33 50 49
3770.0 34 49 30 43 29 40 44 19 10 44
3810.0 47 40 36 55 71 65 40 38 59 89
3850.0 89 69 83 97 83 87 100 130 113 124
3890.0 96 92 80 46 45 77 57 42 70 57
3930.0 58 72 79 70 78 56 77 87 59 53
##END=
