##TITLE=Carbamic acid, dimethyl-, m-nitrophenyl ester
##JCAMP-DX=4.24
##DATA TYPE=INFRARED SPECTRUM
##ORIGIN=Sadtler Research Labs Under US-EPA Contract
##OWNER=NIST Standard Reference Data Program
##CAS REGISTRY NO=7304-99-6
##MOLFORM=C 9 H 10 N 2 O 4
##XUNITS=1/CM
##YUNITS=ABSORBANCE
##XFACTOR=1.0
##YFACTOR=0.000114026
##DELTAX=4.0
##FIRSTX=450.0
##LASTX=3966.0
##FIRSTY=0.000000
##MAXX=3966
##MINX=450
##MAXY=1.14026
##MINY=0
##NPOINTS=880
##XYDATA=(X++(Y..Y))
450.0 0 19 70 32 47 77 78 50 84 64
490.0 79 92 87 120 98 104 97 107 149 136
530.0 142 146 152 146 139 148 131 136 119 144
570.0 109 136 146 144 148 151 165 189 238 271
610.0 267 211 175 163 177 172 211 206 191 194
650.0 195 225 241 341 406 571 584 534 527 496
690.0 428 336 267 227 212 220 238 289 387 561
730.0 803 1027 949 718 570 518 526 513 470 391
770.0 325 304 319 372 450 535 564 509 432 429
810.0 512 922 1536 1899 1773 1366 1116 873 525 296
850.0 221 192 175 169 156 165 171 195 235 328
890.0 437 559 615 539 421 346 341 367 365 315
930.0 231 180 155 147 145 144 145 147 152 151
970.0 161 177 194 229 292 392 563 732 804 825
1010.0 824 796 680 512 404 353 352 358 383 430
1050.0 476 525 560 588 605 627 652 674 679 677
1090.0 671 674 697 735 783 845 946 1080 1258 1482
1130.0 1778 2171 2663 3312 4106 5032 5923 6521 6563 5993
1170.0 5164 4292 3588 3036 2646 2374 2229 2247 2507 3154
1210.0 4274 5814 7225 7647 6398 4190 2375 1468 1070 865
1250.0 780 758 810 935 1235 1680 1955 1809 1324 936
1290.0 808 780 772 785 783 785 787 823 868 945
1330.0 1067 1264 1617 2120 2917 4006 4914 5060 4456 3749
1370.0 3533 3745 4029 4230 4069 3582 2939 2334 1867 1549
1410.0 1373 1260 1205 1031 875 782 836 971 1220 1528
1450.0 1853 2005 1996 1804 1636 1553 1573 1569 1488 1375
1490.0 1237 1123 1104 1103 1162 1241 1249 1360 1488 1723
1530.0 2080 2718 3621 4703 5771 5764 5086 3805 2596 1817
1570.0 1323 1059 941 898 899 899 859 743 609 495
1610.0 432 388 374 344 322 280 270 284 247 275
1650.0 290 326 300 296 328 323 336 297 330 337
1690.0 330 351 420 478 511 598 681 859 940 1121
1730.0 1322 1655 2030 2576 3672 5300 7952 9549 10000 7094
1770.0 4449 2661 1587 1010 715 539 469 374 316 224
1810.0 188 155 127 124 119 121 104 97 96 100
1850.0 78 63 58 49 63 70 69 70 76 65
1890.0 58 41 31 29 29 34 27 34 36 38
1930.0 42 55 61 67 59 41 35 29 29 31
1970.0 33 31 37 38 42 56 59 59 61 67
2010.0 65 69 68 60 55 56 55 50 54 46
2050.0 43 34 31 29 27 24 23 26 23 26
2090.0 27 27 26 25 25 25 30 27 29 32
2130.0 34 37 38 39 39 37 33 31 27 30
2170.0 27 26 23 24 23 17 18 19 19 17
2210.0 17 17 16 17 15 12 10 11 11 14
2250.0 14 15 15 16 20 21 25 27 33 35
2290.0 37 38 39 44 45 48 41 39 39 35
2330.0 33 36 24 42 40 36 42 35 44 38
2370.0 39 35 44 44 35 33 29 27 25 25
2410.0 23 26 26 30 33 39 41 41 40 36
2450.0 31 27 25 26 24 26 25 27 26 30
2490.0 31 35 35 38 36 33 33 34 32 32
2530.0 31 31 32 32 30 31 29 33 31 35
2570.0 37 43 43 43 41 40 42 41 40 36
2610.0 38 36 33 29 31 31 29 31 28 32
2650.0 34 33 35 37 38 40 42 43 45 45
2690.0 48 47 49 52 51 49 46 47 43 45
2730.0 46 45 46 46 50 55 56 59 64 64
2770.0 66 70 69 74 81 86 92 106 119 140
2810.0 173 210 231 236 224 221 225 232 242 257
2850.0 276 300 332 372 406 439 462 480 494 507
2890.0 527 546 570 591 612 635 658 691 739 804
2930.0 885 973 1059 1123 1139 1102 1016 903 778 664
2970.0 561 475 402 349 298 260 233 210 196 188
3010.0 185 184 193 201 210 224 237 248 258 261
3050.0 256 247 232 219 200 198 206 228 253 278
3090.0 286 274 246 214 184 154 132 115 101 97
3130.0 92 95 91 88 83 76 66 63 59 50
3170.0 48 46 45 42 43 45 44 46 46 49
3210.0 43 47 43 45 42 42 42 38 36 37
3250.0 36 37 35 41 37 39 38 41 37 35
3290.0 33 36 39 39 36 35 39 38 35 35
3330.0 40 35 40 41 38 35 32 39 36 43
3370.0 39 35 37 40 36 35 35 36 39 34
3410.0 36 33 33 32 30 29 27 31 26 28
3450.0 25 21 24 27 25 22 23 21 29 25
3490.0 34 34 39 36 33 24 27 18 17 12
3530.0 15 16 10 13 18 13 20 20 19 22
3570.0 23 24 16 20 28 26 27 14 22 20
3610.0 26 20 20 21 13 36 22 24 23 14
3650.0 28 22 30 20 17 18 16 30 11 27
3690.0 15 27 19 19 18 17 23 18 22 21
3730.0 19 26 25 22 26 22 27 24 26 21
3770.0 10 18 16 11 10 17 20 22 18 17
3810.0 19 13 17 28 19 22 20 28 20 23
3850.0 19 27 25 19 26 29 22 26 30 20
3890.0 38 31 24 21 39 29 37 32 33 24
3930.0 27 42 34 40 31 34 37 42 44 38
##END=
