##TITLE=Carbamic acid, dimethyl-, p-tolyl ester
##JCAMP-DX=4.24
##DATA TYPE=INFRARED SPECTRUM
##ORIGIN=Sadtler Research Labs Under US-EPA Contract
##OWNER=NIST Standard Reference Data Program
##CAS REGISTRY NO=7305-08-0
##MOLFORM=C 10 H 13 N O 2
##XUNITS=1/CM
##YUNITS=ABSORBANCE
##XFACTOR=1.0
##YFACTOR=0.000162454
##DELTAX=4.0
##FIRSTX=450.0
##LASTX=3966.0
##FIRSTY=0.000000
##MAXX=3966
##MINX=450
##MAXY=1.62454
##MINY=0
##NPOINTS=880
##XYDATA=(X++(Y..Y))
450.0 0 78 123 109 114 127 121 143 187 210
490.0 274 315 395 432 417 374 304 265 215 201
530.0 192 192 200 215 237 264 276 266 256 235
570.0 198 190 194 183 182 187 179 180 183 188
610.0 192 215 220 240 264 262 258 242 213 202
650.0 206 203 217 197 203 216 195 175 178 176
690.0 185 190 195 195 193 193 191 198 196 189
730.0 199 207 231 266 313 378 442 486 499 464
770.0 423 395 383 405 457 539 637 695 717 687
810.0 622 581 534 497 454 418 407 437 554 746
850.0 954 1055 972 805 628 465 359 298 259 235
890.0 223 211 202 195 188 184 186 188 188 198
930.0 204 206 200 195 193 195 192 194 202 202
970.0 213 222 234 249 277 310 361 421 475 536
1010.0 618 822 937 903 731 495 439 429 441 481
1050.0 510 540 549 548 524 505 484 478 480 501
1090.0 534 575 630 688 754 808 865 916 989 1100
1130.0 1265 1484 1760 2132 2626 3268 4014 4698 5393 6472
1170.0 7266 7269 6230 4634 3749 3340 3439 4002 5047 6624
1210.0 8457 10000 9311 7375 4633 3010 2112 1515 1198 1048
1250.0 967 930 910 896 888 875 863 846 815 762
1290.0 701 636 580 548 535 534 543 557 579 602
1330.0 630 666 698 756 856 994 1222 1539 2007 2677
1370.0 3484 4345 4929 5083 4576 3775 2901 2211 1785 1536
1410.0 1423 1344 1213 1081 948 907 931 1070 1338 1645
1450.0 1946 2044 1949 1750 1552 1404 1306 1271 1300 1302
1490.0 1351 1457 1607 1914 2437 2920 2868 2259 1386 872
1530.0 725 654 621 585 566 562 522 469 441 429
1570.0 398 380 376 365 391 382 403 394 408 399
1610.0 403 400 354 344 292 307 268 274 260 267
1650.0 235 260 270 264 278 263 260 281 274 279
1690.0 318 365 390 483 571 710 781 947 1149 1465
1730.0 1827 2514 3666 5250 7849 9215 9788 7627 4974 3061
1770.0 1875 1181 834 642 536 436 373 302 254 221
1810.0 199 178 167 155 143 130 127 132 117 114
1850.0 124 140 146 153 164 163 182 179 173 151
1890.0 135 121 113 106 102 102 95 100 95 106
1930.0 105 107 104 96 101 102 106 106 114 113
1970.0 121 124 123 120 119 119 123 134 138 146
2010.0 150 152 148 139 132 125 124 116 115 114
2050.0 120 120 125 125 121 123 119 117 104 100
2090.0 93 91 88 88 87 86 88 87 90 91
2130.0 92 90 91 92 92 93 92 95 96 101
2170.0 101 103 101 99 96 89 87 83 83 79
2210.0 81 80 81 85 87 89 89 93 93 96
2250.0 100 103 104 106 111 111 118 122 128 132
2290.0 134 136 141 149 154 162 152 144 142 134
2330.0 126 127 114 131 137 137 141 127 147 135
2370.0 134 132 143 143 122 105 93 89 87 92
2410.0 92 97 97 100 98 93 92 88 89 88
2450.0 88 88 89 91 89 91 89 88 88 89
2490.0 87 88 88 90 90 90 89 90 91 93
2530.0 94 94 98 100 100 101 99 99 95 98
2570.0 97 99 98 100 99 97 100 98 98 96
2610.0 97 96 94 93 93 92 90 89 89 91
2650.0 91 91 91 91 92 94 95 96 98 98
2690.0 98 99 102 105 108 111 112 114 116 120
2730.0 125 128 136 147 153 153 148 140 142 141
2770.0 139 142 145 152 158 167 178 197 223 260
2810.0 303 339 349 343 335 340 351 363 382 407
2850.0 442 487 550 620 691 765 829 877 892 890
2890.0 879 883 905 937 975 1024 1084 1170 1286 1443
2930.0 1629 1792 1853 1788 1625 1434 1258 1097 958 837
2970.0 737 656 590 550 525 513 518 523 533 538
3010.0 545 549 565 586 635 720 838 924 922 829
3050.0 687 583 521 476 443 415 389 358 322 286
3090.0 260 242 233 228 223 217 212 206 195 189
3130.0 180 170 156 144 134 125 119 116 113 111
3170.0 109 106 106 101 103 102 102 101 100 104
3210.0 97 101 99 96 96 97 99 95 97 97
3250.0 95 95 96 98 96 98 99 98 97 95
3290.0 94 93 96 99 96 93 94 93 93 96
3330.0 95 96 97 93 93 93 95 94 93 96
3370.0 95 93 96 96 96 95 92 92 92 90
3410.0 91 91 91 88 88 92 89 90 88 91
3450.0 91 93 95 95 97 98 103 107 113 114
3490.0 116 108 104 96 86 81 83 81 81 79
3530.0 81 84 82 81 86 82 83 81 84 87
3570.0 87 87 84 85 90 89 88 83 89 84
3610.0 91 87 87 88 79 96 89 92 92 84
3650.0 99 90 97 88 89 87 88 95 83 96
3690.0 83 88 88 89 83 88 88 84 80 82
3730.0 85 90 90 88 85 84 86 81 81 86
3770.0 79 83 81 82 79 80 86 81 86 86
3810.0 83 81 85 93 87 85 87 91 84 92
3850.0 83 90 90 87 91 93 91 86 95 95
3890.0 98 99 98 96 104 92 96 99 89 96
3930.0 89 98 95 99 98 97 98 96 97 98
##END=
