##TITLE=Carbamic acid, dimethyl-, p-methoxyphenyl ester
##JCAMP-DX=4.24
##DATA TYPE=INFRARED SPECTRUM
##ORIGIN=Sadtler Research Labs Under US-EPA Contract
##OWNER=NIST Standard Reference Data Program
##CAS REGISTRY NO=7305-10-4
##MOLFORM=C 10 H 13 N O 3
##XUNITS=1/CM
##YUNITS=ABSORBANCE
##XFACTOR=1.0
##YFACTOR=0.000193536
##DELTAX=4.0
##FIRSTX=450.0
##LASTX=3966.0
##FIRSTY=0.000000
##MAXX=3966
##MINX=450
##MAXY=1.93536
##MINY=0
##NPOINTS=880
##XYDATA=(X++(Y..Y))
450.0 0 13 29 13 42 52 75 72 103 115
490.0 129 143 161 203 215 237 247 255 236 230
530.0 214 213 203 189 210 218 239 274 323 368
570.0 373 329 269 206 179 154 126 123 122 120
610.0 112 116 120 127 135 138 143 131 123 117
650.0 119 120 119 108 108 112 103 95 91 92
690.0 92 97 101 106 119 123 129 134 141 145
730.0 153 158 173 215 285 423 627 777 749 579
770.0 401 314 274 264 269 286 319 353 405 477
810.0 551 599 590 555 511 473 431 416 431 516
850.0 671 829 911 846 687 489 353 268 217 180
890.0 154 135 126 110 104 99 101 106 107 108
930.0 103 104 104 107 107 110 115 121 132 138
970.0 150 165 182 206 239 279 332 406 494 651
1010.0 785 793 712 657 716 842 1006 1176 1296 1323
1050.0 1213 1028 827 680 574 496 443 419 419 445
1090.0 497 565 640 695 723 739 771 828 927 1069
1130.0 1269 1545 1909 2421 3107 3990 4804 5223 5577 6116
1170.0 6753 6660 5915 5109 4765 5174 6466 8316 9634 10000
1210.0 9208 7834 5999 3995 2623 1965 1668 1574 1610 1669
1250.0 1605 1373 1088 911 859 851 875 885 877 848
1290.0 817 764 687 600 542 507 487 468 477 490
1330.0 506 531 529 585 687 803 992 1259 1663 2276
1370.0 3037 3852 4473 4662 4187 3432 2625 1984 1601 1351
1410.0 1212 1160 993 908 800 828 892 1140 1554 1914
1450.0 2173 2165 1985 1839 1733 1631 1486 1401 1418 1423
1490.0 1567 1969 2688 4065 5518 5689 4518 2392 1281 838
1530.0 629 529 453 382 370 395 348 272 277 297
1570.0 273 265 275 273 325 325 378 386 414 393
1610.0 389 386 316 320 246 276 207 199 198 190
1650.0 124 139 177 182 190 174 154 198 162 158
1690.0 220 267 250 337 435 583 624 733 951 1251
1730.0 1567 2164 3226 4676 7087 8129 8271 5897 3749 2319
1770.0 1393 870 632 476 391 299 236 182 135 134
1810.0 117 100 100 86 71 57 66 82 59 50
1850.0 75 103 102 106 97 68 87 77 67 48
1890.0 34 29 30 30 28 29 24 28 15 29
1930.0 29 29 29 17 21 31 34 31 39 32
1970.0 40 47 53 56 64 64 77 100 115 124
2010.0 124 114 100 95 95 95 97 92 93 97
2050.0 105 104 103 96 85 85 77 73 63 60
2090.0 50 46 39 32 26 23 23 20 20 23
2130.0 23 22 22 22 21 22 23 25 24 27
2170.0 28 29 27 26 25 19 18 17 17 14
2210.0 14 15 13 14 14 14 13 16 17 20
2250.0 19 22 25 26 29 30 32 31 34 35
2290.0 35 34 35 37 37 38 34 32 29 29
2330.0 24 29 24 36 41 43 50 42 50 44
2370.0 43 36 38 34 26 22 18 17 16 19
2410.0 16 19 17 17 16 17 15 17 21 24
2450.0 25 26 28 28 28 28 27 25 26 29
2490.0 28 29 28 28 27 24 25 26 28 29
2530.0 31 32 37 38 40 39 36 35 32 32
2570.0 29 28 26 26 26 24 27 25 28 28
2610.0 29 27 24 21 22 22 22 23 23 25
2650.0 24 23 22 21 23 22 22 23 23 24
2690.0 26 25 25 28 29 31 32 35 35 38
2730.0 40 42 45 50 53 59 63 63 68 69
2770.0 70 74 79 84 93 103 117 137 166 205
2810.0 251 293 309 317 330 365 435 560 682 723
2850.0 668 579 545 546 554 563 566 575 588 611
2890.0 641 682 738 799 871 953 1036 1105 1167 1230
2930.0 1308 1400 1505 1582 1593 1521 1397 1243 1082 923
2970.0 778 661 566 500 457 440 463 530 665 785
3010.0 774 622 445 348 319 313 323 339 362 385
3050.0 407 416 406 374 329 295 270 251 231 209
3090.0 188 169 157 150 146 142 141 135 127 116
3130.0 103 92 79 70 61 53 50 48 43 42
3170.0 38 35 36 33 33 33 32 30 31 30
3210.0 26 27 26 26 26 26 25 23 23 24
3250.0 22 23 24 24 22 24 26 24 21 21
3290.0 23 24 26 26 23 21 24 24 24 24
3330.0 24 24 23 23 23 23 25 26 23 25
3370.0 27 24 24 25 24 24 24 23 23 23
3410.0 25 22 23 21 22 21 22 25 22 23
3450.0 21 23 25 27 32 33 36 36 43 44
3490.0 42 35 31 26 19 14 16 14 16 16
3530.0 18 18 13 15 17 18 20 16 20 20
3570.0 19 20 16 18 20 23 23 15 21 19
3610.0 20 19 19 23 17 27 21 22 23 19
3650.0 27 20 30 22 22 19 19 26 15 23
3690.0 17 23 17 21 17 19 21 18 16 19
3730.0 19 22 21 21 18 19 18 20 17 17
3770.0 13 13 13 14 13 16 18 17 17 13
3810.0 14 16 16 18 17 14 14 19 16 20
3850.0 13 19 15 16 18 23 19 14 20 16
3890.0 27 27 22 21 21 18 22 21 15 14
3930.0 15 21 24 26 20 19 24 24 24 22
##END=
