##TITLE=3.5-dimethoxybenzaldehyde
##JCAMP-DX=4.24
##DATA TYPE=INFRARED SPECTRUM
##ORIGIN=Sadtler Research Labs Under US-EPA Contract
##OWNER=NIST Standard Reference Data Program
##CAS REGISTRY NO=7311-34-4
##MOLFORM=C 9 H 10 O 3
##XUNITS=1/CM
##YUNITS=ABSORBANCE
##XFACTOR=1.0
##YFACTOR=0.000053369
##DELTAX=4.0
##FIRSTX=450.0
##LASTX=3966.0
##FIRSTY=0.002722
##MAXX=3966
##MINX=450
##MAXY=0.53369
##MINY=0
##NPOINTS=880
##XYDATA=(X++(Y..Y))
450.0 51 83 73 69 146 174 179 238 165 48
490.0 0 16 37 65 104 62 16 49 165 205
530.0 243 230 182 104 78 159 174 167 147 138
570.0 125 219 253 297 286 289 230 283 287 275
610.0 288 287 283 268 248 244 147 143 127 125
650.0 161 205 290 355 462 634 703 759 687 551
690.0 466 455 587 859 1162 1373 1414 1246 1050 828
730.0 663 541 432 363 260 237 198 226 199 197
770.0 196 160 140 175 239 199 202 193 211 279
810.0 333 448 429 446 449 514 592 765 1022 1179
850.0 1212 1126 952 780 733 725 610 474 344 296
890.0 236 212 213 203 208 286 424 562 662 745
930.0 749 681 623 632 671 670 655 615 574 512
970.0 463 404 351 296 302 310 377 413 366 360
1010.0 281 314 395 427 376 416 522 637 878 1307
1050.0 1682 2298 2866 3459 3224 2716 1968 1219 817 585
1090.0 494 494 523 505 514 495 383 516 614 760
1130.0 1016 1413 1989 2869 4426 6173 9472 8242 8131 5910
1170.0 3894 2481 1836 1691 1960 2641 3638 4554 5310 5567
1210.0 4557 3383 2287 1328 881 742 751 799 840 800
1250.0 727 621 541 509 479 484 584 850 1287 2025
1290.0 2975 3769 4119 4119 3800 3516 3510 3625 3615 3504
1330.0 3377 3227 3033 2809 2549 2144 1693 1269 913 777
1370.0 928 1468 2270 2606 2569 2103 1363 876 704 672
1410.0 718 799 947 1286 1827 2427 2849 2853 2570 2063
1450.0 1768 1928 2422 3258 3869 3985 3625 2969 2192 1526
1490.0 990 722 534 477 364 342 370 361 330 375
1530.0 394 359 394 322 384 423 433 416 515 712
1570.0 909 1275 1811 2676 3860 5315 6810 7429 7436 6586
1610.0 5280 4092 2969 2150 1514 1113 842 620 572 464
1650.0 422 311 400 403 438 450 525 589 630 589
1690.0 644 672 699 881 1448 2810 5469 8671 10000 8554
1730.0 5029 2226 938 519 402 343 352 341 298 260
1770.0 180 122 141 129 124 114 75 98 96 115
1810.0 116 114 113 106 91 81 86 80 73 35
1850.0 66 67 75 76 83 66 86 84 81 75
1890.0 60 57 46 54 64 55 65 55 47 45
1930.0 55 55 54 50 46 45 55 62 63 62
1970.0 63 63 53 63 63 51 53 44 39 42
2010.0 43 51 42 42 42 42 52 61 60 74
2050.0 83 86 97 101 98 98 86 78 78 86
2090.0 97 97 97 97 94 96 102 104 97 96
2130.0 76 57 57 48 38 38 35 28 28 34
2170.0 37 38 38 26 26 27 36 46 46 46
2210.0 46 50 53 65 62 54 45 36 35 34
2250.0 34 34 34 34 34 34 34 26 23 17
2290.0 4 14 14 22 23 24 3 3 4 9
2330.0 12 13 1 1 4 13 23 19 17 3
2370.0 1 6 26 29 31 19 12 10 20 11
2410.0 11 11 1 1 1 10 11 16 20 11
2450.0 11 21 22 21 21 14 14 14 18 23
2490.0 23 25 24 24 36 36 46 36 37 26
2530.0 27 38 44 37 43 40 40 40 49 49
2570.0 50 42 31 31 44 42 53 47 43 53
2610.0 62 81 91 101 102 102 113 112 109 115
2650.0 103 87 86 84 96 105 115 124 136 167
2690.0 217 278 377 523 714 928 1101 1187 1138 969
2730.0 775 573 421 318 256 221 191 173 170 176
2770.0 195 241 297 413 607 923 1278 1547 1648 1560
2810.0 1327 1130 972 859 782 731 735 860 1055 1275
2850.0 1378 1312 1106 825 613 511 471 477 497 524
2890.0 546 584 632 673 732 789 831 867 875 888
2930.0 897 976 1142 1398 1720 1923 1984 1916 1755 1564
2970.0 1312 1053 840 687 590 562 588 700 942 1293
3010.0 1591 1604 1414 1026 633 427 334 290 253 226
3050.0 213 203 203 215 214 224 224 239 248 268
3090.0 272 267 230 191 163 124 106 96 75 70
3130.0 64 64 70 69 75 62 53 53 53 63
3170.0 64 52 58 37 56 55 61 56 52 47
3210.0 38 40 49 49 40 31 20 31 38 44
3250.0 43 26 23 24 24 44 44 35 26 27
3290.0 27 31 43 36 31 29 28 28 48 50
3330.0 41 30 30 31 31 47 42 33 33 33
3370.0 35 43 53 53 35 37 47 57 74 85
3410.0 89 105 128 148 169 152 124 67 49 40
3450.0 40 52 51 47 43 43 42 44 43 43
3490.0 35 45 46 35 47 47 47 47 41 39
3530.0 45 48 48 48 29 42 41 52 60 47
3570.0 36 58 66 79 91 62 63 44 43 47
3610.0 37 45 44 30 38 4 43 57 57 59
3650.0 11 40 39 59 59 44 28 15 48 62
3690.0 50 69 71 61 63 62 54 83 69 60
3730.0 63 42 41 68 37 44 45 66 67 77
3770.0 85 97 94 80 87 88 96 88 72 70
3810.0 70 72 71 71 82 79 73 69 75 78
3850.0 87 60 73 75 76 75 86 86 76 77
3890.0 77 77 89 88 100 88 90 79 89 100
3930.0 100 99 92 81 82 106 20 27 27 27
##END=
