##TITLE=2-Butenoic acid, 3-amino-, ethyl ester
##JCAMP-DX=4.24
##DATA TYPE=INFRARED SPECTRUM
##ORIGIN=Sadtler Research Labs Under US-EPA Contract
##OWNER=NIST Standard Reference Data Program
##CAS REGISTRY NO=7318-00-5
##MOLFORM=C 6 H 11 N O 2
##XUNITS=1/CM
##YUNITS=ABSORBANCE
##XFACTOR=1.0
##YFACTOR=0.000192273
##DELTAX=4.0
##FIRSTX=450.0
##LASTX=3966.0
##FIRSTY=0.000000
##MAXX=3966
##MINX=450
##MAXY=1.92273
##MINY=0
##NPOINTS=880
##XYDATA=(X++(Y..Y))
450.0 0 26 32 23 87 22 60 73 23 108
490.0 112 115 120 101 129 101 141 154 149 190
530.0 196 225 300 363 442 444 470 467 356 314
570.0 232 179 138 122 112 134 163 167 221 303
610.0 329 408 458 484 538 506 539 553 537 557
650.0 533 525 504 455 459 409 429 438 422 458
690.0 460 507 513 517 518 502 500 531 526 536
730.0 534 578 605 543 556 517 528 435 409 402
770.0 389 450 531 630 734 855 1012 911 772 698
810.0 546 436 353 272 261 238 253 252 256 284
850.0 280 287 275 256 230 189 180 161 152 172
890.0 155 169 187 194 230 224 205 196 164 138
930.0 129 136 139 149 185 208 252 309 345 366
970.0 342 315 292 241 224 187 189 202 228 290
1010.0 348 394 407 414 455 528 704 955 1182 1384
1050.0 1425 1357 1153 886 687 561 479 455 451 482
1090.0 552 654 735 792 861 884 943 971 972 919
1130.0 844 815 923 1163 1639 2418 3828 5937 7748 10000
1170.0 9112 8041 5791 3793 2635 1891 1451 1192 1001 915
1210.0 881 890 937 989 1104 1207 1334 1480 1599 1779
1250.0 1914 2052 2206 2296 2400 2426 2448 2467 2475 2621
1290.0 2809 3149 3585 3801 4028 3784 3257 2621 1873 1372
1330.0 1015 791 654 537 470 429 447 510 580 695
1370.0 797 912 922 860 828 670 530 470 443 439
1410.0 436 445 435 471 475 508 515 580 642 723
1450.0 816 848 840 790 761 706 631 579 519 446
1490.0 385 369 325 305 278 276 283 299 320 389
1530.0 438 537 602 737 911 1119 1403 1721 2243 2627
1570.0 2899 3030 2865 2574 2137 1722 1390 1313 1177 1311
1610.0 1603 1955 2648 3346 4024 4725 5207 5655 5880 5385
1650.0 4990 4003 2858 2308 1796 1800 2079 2585 3313 3534
1690.0 3436 3576 3007 2260 1638 1175 929 716 753 687
1730.0 661 655 539 517 454 397 410 379 363 357
1770.0 315 297 264 241 202 168 156 130 110 114
1810.0 89 94 74 70 67 42 50 47 36 33
1850.0 29 44 26 39 29 19 52 35 49 57
1890.0 55 72 70 78 78 72 64 54 45 45
1930.0 38 43 33 32 34 33 41 34 36 40
1970.0 36 43 44 38 41 26 32 29 36 39
2010.0 37 44 40 49 55 47 49 41 37 39
2050.0 33 33 30 33 35 35 41 41 43 45
2090.0 39 45 41 38 44 45 50 55 59 61
2130.0 62 66 62 56 54 44 45 40 35 37
2170.0 31 29 27 25 26 25 27 27 27 25
2210.0 28 30 30 30 35 31 34 35 40 40
2250.0 39 45 45 45 47 45 45 46 45 45
2290.0 42 41 36 35 38 32 38 38 34 43
2330.0 35 33 25 28 34 39 30 34 21 28
2370.0 17 27 36 32 33 29 28 35 31 33
2410.0 33 37 40 40 40 37 36 34 30 31
2450.0 28 26 30 30 33 34 34 38 36 36
2490.0 34 33 31 31 31 29 27 29 28 32
2530.0 32 34 40 40 39 38 35 33 30 28
2570.0 26 22 20 18 20 18 18 20 18 20
2610.0 20 18 19 21 21 21 21 20 20 24
2650.0 22 21 23 21 24 25 23 27 23 24
2690.0 27 25 28 27 31 29 32 35 39 44
2730.0 49 53 59 58 59 57 55 55 54 54
2770.0 54 52 52 53 55 52 55 60 59 68
2810.0 72 78 87 92 95 103 105 112 123 130
2850.0 142 158 182 200 222 248 276 316 350 376
2890.0 390 398 405 428 459 491 514 550 623 735
2930.0 827 915 985 975 914 863 799 766 782 816
2970.0 870 969 1110 1206 1243 1238 1153 986 835 721
3010.0 610 499 397 318 255 209 177 150 135 126
3050.0 118 114 110 111 115 111 112 116 118 115
3090.0 104 99 93 84 72 67 64 58 50 44
3130.0 44 44 44 39 38 40 41 41 40 39
3170.0 42 39 40 42 45 45 43 45 45 45
3210.0 45 43 42 44 45 47 47 58 64 69
3250.0 77 88 89 96 99 108 105 107 112 117
3290.0 127 139 162 194 235 284 341 411 476 544
3330.0 601 634 638 610 557 490 408 340 285 234
3370.0 188 151 120 92 66 56 46 46 45 40
3410.0 47 49 52 56 47 48 45 42 42 45
3450.0 51 55 60 73 80 94 104 119 138 154
3490.0 177 206 250 303 394 486 619 741 832 885
3530.0 823 712 551 382 265 170 127 87 79 65
3570.0 69 49 46 40 51 44 42 42 41 30
3610.0 35 32 25 36 18 41 31 31 26 39
3650.0 26 51 18 37 23 35 40 26 38 18
3690.0 33 23 23 27 20 29 30 18 24 18
3730.0 25 21 21 34 17 39 18 24 18 23
3770.0 22 18 18 18 18 18 18 26 18 42
3810.0 18 27 18 38 17 18 22 21 22 25
3850.0 18 22 26 23 20 27 25 24 28 23
3890.0 25 18 28 29 38 22 18 18 18 21
3930.0 20 33 22 20 44 16 36 30 33 31
##END=
