##TITLE=Oxirane, tetradecyl-
##JCAMP-DX=4.24
##DATA TYPE=INFRARED SPECTRUM
##ORIGIN=Sadtler Research Labs Under US-EPA Contract
##OWNER=NIST Standard Reference Data Program
##CAS REGISTRY NO=7320-37-8
##MOLFORM=C 16 H 32 O
##XUNITS=1/CM
##YUNITS=ABSORBANCE
##XFACTOR=1.0
##YFACTOR=0.000113458
##DELTAX=4.0
##FIRSTX=450.0
##LASTX=3966.0
##FIRSTY=0.004198
##MAXX=3966
##MINX=450
##MAXY=1.13458
##MINY=0
##NPOINTS=880
##XYDATA=(X++(Y..Y))
450.0 37 87 72 26 52 1 34 28 41 42
490.0 69 68 29 40 53 52 31 40 57 47
530.0 35 20 19 42 35 32 28 31 27 32
570.0 8 34 32 44 26 26 36 24 22 34
610.0 26 31 35 28 22 28 32 23 12 26
650.0 20 34 24 32 24 0 35 24 40 30
690.0 43 45 63 77 98 119 150 173 180 169
730.0 161 154 153 150 150 152 135 135 145 142
770.0 146 146 139 152 154 161 162 164 163 179
810.0 194 208 231 270 301 343 390 427 416 381
850.0 332 284 246 219 191 175 164 164 162 157
890.0 155 163 172 190 205 224 245 255 256 248
930.0 226 212 193 173 160 147 135 128 118 113
970.0 107 108 106 99 95 96 91 90 93 83
1010.0 78 81 78 77 79 72 70 67 68 71
1050.0 69 69 70 67 70 67 73 73 73 70
1090.0 71 73 72 70 67 69 70 77 83 93
1130.0 107 104 91 84 80 78 72 68 66 64
1170.0 65 64 66 64 64 65 68 67 70 66
1210.0 72 71 73 78 85 85 89 96 102 114
1250.0 124 142 158 163 154 142 131 126 123 125
1290.0 130 137 145 157 164 166 160 152 143 143
1330.0 144 151 165 190 219 244 269 265 247 238
1370.0 230 210 196 198 194 176 160 167 197 243
1410.0 277 267 217 172 160 174 209 248 322 396
1450.0 487 567 667 741 726 644 502 368 288 251
1490.0 208 158 129 105 86 77 65 63 56 50
1530.0 46 44 43 40 37 31 36 34 32 31
1570.0 29 25 30 25 24 27 27 23 23 23
1610.0 24 20 27 25 26 21 27 27 26 28
1650.0 29 19 23 18 19 21 21 19 20 19
1690.0 18 21 19 20 20 21 24 32 27 29
1730.0 33 38 37 41 42 34 30 27 25 19
1770.0 23 20 19 15 14 10 14 13 10 10
1810.0 11 9 7 11 9 11 6 11 6 10
1850.0 8 8 6 8 7 7 5 5 6 5
1890.0 7 5 5 6 6 7 7 5 8 5
1930.0 6 5 7 5 8 7 6 7 9 10
1970.0 6 10 10 8 8 11 8 10 8 9
2010.0 10 12 12 15 14 17 15 17 15 15
2050.0 15 15 15 15 14 10 11 10 10 10
2090.0 8 9 10 8 6 6 8 8 8 6
2130.0 9 8 10 7 9 10 10 12 11 10
2170.0 12 10 11 10 11 10 12 12 11 13
2210.0 12 11 10 11 12 14 11 11 17 17
2250.0 19 19 19 15 15 15 13 13 11 12
2290.0 10 11 7 9 6 4 2 1 1 1
2330.0 1 1 1 1 1 1 1 1 1 1
2370.0 1 1 1 3 7 10 11 11 11 12
2410.0 9 8 10 8 9 11 8 10 9 6
2450.0 8 8 9 8 9 7 8 9 8 8
2490.0 7 10 11 13 12 12 14 19 16 18
2530.0 19 21 23 20 22 22 23 21 23 25
2570.0 25 26 28 29 32 31 35 37 40 40
2610.0 41 44 45 43 47 46 53 52 54 55
2650.0 59 59 66 67 73 79 80 83 84 84
2690.0 87 88 80 81 75 75 76 74 74 71
2730.0 77 79 83 87 89 89 88 90 91 93
2770.0 97 100 107 113 125 134 148 166 181 195
2810.0 210 231 261 288 323 373 429 511 635 831
2850.0 1178 1806 2770 3659 3836 3348 2661 2124 1831 1678
2890.0 1557 1529 1647 1917 2321 2819 3386 4124 5308 7110
2930.0 9169 10000 9425 7856 6074 4458 3319 2704 2516 2552
2970.0 2523 2222 1772 1447 1214 1031 895 802 725 645
3010.0 553 464 404 360 341 345 375 444 571 729
3050.0 682 471 305 216 170 139 117 108 103 96
3090.0 85 80 68 62 56 53 47 42 47 41
3130.0 40 38 34 34 36 36 35 36 36 31
3170.0 30 29 23 28 24 26 20 18 21 19
3210.0 18 19 19 14 11 13 14 10 9 7
3250.0 8 8 9 9 5 12 9 14 13 8
3290.0 10 5 9 12 9 9 6 5 8 12
3330.0 9 9 8 13 12 8 8 8 12 17
3370.0 16 14 8 8 11 11 14 12 11 12
3410.0 13 15 16 18 7 8 11 10 11 7
3450.0 5 11 7 11 7 7 5 11 8 3
3490.0 5 7 10 7 11 3 5 3 12 7
3530.0 5 11 3 6 1 4 10 9 4 11
3570.0 2 12 7 11 9 2 13 7 14 11
3610.0 11 7 13 17 17 23 21 23 21 18
3650.0 29 15 13 19 14 25 18 28 20 14
3690.0 14 22 15 16 10 29 30 19 18 13
3730.0 21 20 20 17 26 19 26 25 21 23
3770.0 14 16 25 18 14 14 10 16 35 38
3810.0 19 17 29 23 27 26 9 9 25 23
3850.0 34 16 10 26 18 19 17 16 23 17
3890.0 18 19 16 13 19 20 21 8 14 29
3930.0 22 18 8 7 13 17 21 16 16 11
##END=
