##TITLE=3-Cyclohexene-1,1-dimethanol, 6-methyl-,
##JCAMP-DX=4.24
##DATA TYPE=INFRARED SPECTRUM
##ORIGIN=Sadtler Research Labs Under US-EPA Contract
##OWNER=NIST Standard Reference Data Program
##CAS REGISTRY NO=7328-07-6
##MOLFORM=C 9 H 16 O 2
##XUNITS=1/CM
##YUNITS=ABSORBANCE
##XFACTOR=1.0
##YFACTOR=0.000042087
##DELTAX=4.0
##FIRSTX=450.0
##LASTX=3966.0
##FIRSTY=0.075925
##MAXX=3966
##MINX=450
##MAXY=0.42087
##MINY=0
##NPOINTS=880
##XYDATA=(X++(Y..Y))
450.0 1804 650 1524 611 395 1394 869 365 351 546
490.0 1309 687 716 647 506 1008 764 825 186 364
530.0 406 448 334 165 189 105 460 624 523 365
570.0 300 498 420 461 408 505 379 302 355 408
610.0 553 420 304 142 242 259 430 679 1138 1791
650.0 2520 3676 4491 4517 4262 3248 2229 1611 902 852
690.0 700 551 557 533 660 661 534 678 579 599
730.0 672 63 601 775 561 354 391 242 313 368
770.0 457 492 376 399 398 549 586 568 762 756
810.0 674 749 728 747 731 712 680 913 811 871
850.0 862 868 952 970 1054 1073 999 1118 1030 1003
890.0 1159 1066 974 992 1030 1158 1203 1305 1225 1348
930.0 1306 1347 1298 1231 1195 1191 1180 1222 1195 1339
970.0 1399 1616 2032 2591 3184 3701 4217 4568 4841 5216
1010.0 5604 6079 6391 7074 7846 8503 9099 9382 9368 8994
1050.0 8292 7407 6678 6087 5561 5180 4913 4613 4470 4216
1090.0 3972 3735 3463 3345 3228 3128 3051 2953 2778 2713
1130.0 2517 2396 2295 2234 2311 2232 2214 2308 2430 2388
1170.0 2286 2106 1982 2014 2215 2271 2294 2304 2203 2166
1210.0 2146 2153 2107 2060 1967 1967 1939 1878 1754 1773
1250.0 1844 2055 2288 2534 2606 2650 2410 2095 1914 1800
1290.0 1713 1639 1609 1500 1469 1414 1446 1469 1482 1502
1330.0 1559 1571 1637 1620 1507 1562 1482 1509 1538 1600
1370.0 1722 1920 2194 2299 2418 2288 2087 1964 1752 1731
1410.0 1733 1705 1729 1636 1647 1736 1901 2121 2171 2109
1450.0 2027 2067 2013 2148 2160 2288 2078 1862 1501 1360
1490.0 1040 697 584 441 471 476 404 304 212 218
1530.0 179 145 163 76 230 168 122 146 93 150
1570.0 178 164 190 147 240 214 266 266 328 377
1610.0 387 473 402 458 419 381 363 386 353 473
1650.0 572 633 680 545 466 314 250 159 243 154
1690.0 258 242 253 348 314 346 336 390 393 440
1730.0 625 658 778 725 651 541 385 352 299 278
1770.0 297 234 225 246 230 200 186 184 208 175
1810.0 153 168 150 129 119 106 75 85 51 114
1850.0 80 42 37 52 62 62 45 28 29 29
1890.0 29 40 26 32 29 52 37 81 68 72
1930.0 44 48 38 40 55 25 36 35 18 37
1970.0 23 19 26 31 34 44 65 45 49 50
2010.0 50 73 79 63 51 66 68 56 76 66
2050.0 79 73 77 71 82 87 69 68 63 50
2090.0 53 43 47 37 33 38 21 29 15 24
2130.0 27 18 15 24 7 18 17 7 21 0
2170.0 12 13 6 12 13 20 24 20 31 27
2210.0 23 29 20 15 16 14 6 9 12 13
2250.0 11 22 25 37 46 56 73 101 125 146
2290.0 180 210 260 280 300 344 291 267 247 222
2330.0 189 182 179 148 323 255 360 235 314 241
2370.0 226 221 218 255 187 89 57 46 50 56
2410.0 52 58 58 65 72 75 75 68 76 78
2450.0 71 63 57 71 66 57 55 58 65 64
2490.0 62 66 62 54 60 60 61 58 46 34
2530.0 52 55 57 65 68 75 80 89 95 84
2570.0 83 102 102 100 108 94 107 104 111 112
2610.0 114 120 126 152 146 160 167 167 189 190
2650.0 188 208 216 229 233 236 251 233 257 249
2690.0 266 276 278 290 309 317 341 338 366 383
2730.0 391 418 420 456 469 490 514 535 557 584
2770.0 604 629 646 674 684 692 722 739 799 832
2810.0 880 955 1053 1193 1398 1731 2228 2842 3548 4210
2850.0 4674 4828 4832 4714 4598 4789 5289 6056 7113 8240
2890.0 9120 9764 10000 9940 9783 9664 9527 9386 9204 8924
2930.0 8697 8504 8230 7968 7577 7209 7029 6973 7183 7447
2970.0 7417 7004 6294 5417 4342 3385 2560 1879 1461 1156
3010.0 1060 1198 1615 2802 4432 5604 6689 5659 4564 2756
3050.0 1288 702 606 564 607 594 544 488 368 308
3090.0 251 221 198 169 152 139 130 127 127 117
3130.0 107 123 105 108 106 101 80 88 64 59
3170.0 72 56 77 55 64 71 73 66 73 82
3210.0 64 43 60 45 41 39 34 19 21 5
3250.0 9 24 46 22 48 48 80 75 69 85
3290.0 97 106 79 99 75 42 39 4 14 35
3330.0 25 13 17 39 44 63 70 73 72 53
3370.0 62 71 60 27 40 56 54 28 33 47
3410.0 57 72 75 54 91 98 90 100 98 105
3450.0 103 90 106 111 135 125 127 107 127 99
3490.0 110 116 111 156 159 115 146 101 151 139
3530.0 138 126 145 116 155 195 269 217 334 293
3570.0 472 407 604 813 1096 1501 1809 2094 2170 2134
3610.0 1900 1603 1346 1186 1043 1038 968 1028 1017 1090
3650.0 1264 1437 1756 2086 2444 2508 2644 2162 1867 1338
3690.0 850 700 480 404 298 211 259 221 230 239
3730.0 222 167 148 241 81 137 76 147 96 116
3770.0 173 104 167 158 147 197 135 193 132 95
3810.0 203 80 148 81 137 67 112 20 95 203
3850.0 45 171 77 248 112 114 140 155 239 164
3890.0 99 49 112 124 155 137 124 207 89 180
3930.0 178 246 207 160 206 158 38 87 70 45
##END=
