##TITLE=Diazene, bis(2-chlorophenyl)-
##JCAMP-DX=4.24
##DATA TYPE=INFRARED SPECTRUM
##ORIGIN=Sadtler Research Labs Under US-EPA Contract
##OWNER=NIST Standard Reference Data Program
##CAS REGISTRY NO=7334-33-0
##MOLFORM=C 12 H 8 Cl 2 N 2
##XUNITS=1/CM
##YUNITS=ABSORBANCE
##XFACTOR=1.0
##YFACTOR=0.000044919
##DELTAX=4.0
##FIRSTX=450.0
##LASTX=3966.0
##FIRSTY=0.024885
##MAXX=3966
##MINX=450
##MAXY=0.44919
##MINY=0
##NPOINTS=880
##XYDATA=(X++(Y..Y))
450.0 554 443 1683 1525 689 1135 42 565 381 205
490.0 517 219 263 146 16 475 337 558 447 621
530.0 401 355 508 567 1522 2142 2255 1656 1561 1022
570.0 1193 1015 696 507 428 454 423 392 422 321
610.0 420 398 439 315 301 311 324 384 315 316
650.0 195 283 357 385 391 806 913 1673 2415 2806
690.0 2137 1452 826 665 626 575 1033 1454 2321 3389
730.0 3909 3108 3313 3068 3228 4338 6121 9588 10000 6926
770.0 3460 1471 675 386 376 307 208 283 347 438
810.0 351 352 414 466 592 652 576 547 438 421
850.0 420 344 280 220 266 273 331 300 249 199
890.0 144 154 213 209 181 253 201 253 276 199
930.0 254 298 363 458 512 544 426 291 221 191
970.0 201 222 215 206 238 239 200 249 308 357
1010.0 344 423 563 902 1393 1777 1913 1729 1404 1372
1050.0 1843 3211 5718 7263 6789 4444 2396 1238 665 398
1090.0 270 289 254 266 241 295 318 487 808 1217
1130.0 1672 1571 1126 670 463 660 1013 1105 766 393
1170.0 330 292 319 294 269 287 257 297 331 378
1210.0 463 450 402 299 236 265 256 293 373 641
1250.0 1225 1686 1764 1161 662 434 356 316 362 352
1290.0 363 322 205 195 184 159 127 128 151 124
1330.0 131 146 174 164 178 182 184 242 247 240
1370.0 252 242 215 178 251 266 268 287 311 391
1410.0 462 547 622 738 833 1133 1568 2086 2294 2278
1450.0 2135 2232 2695 3912 4592 4795 3670 2329 1499 1021
1490.0 782 626 538 529 531 628 431 500 420 370
1530.0 332 369 477 488 455 389 452 577 735 770
1570.0 1039 1324 1599 1877 1631 1245 889 512 519 465
1610.0 440 541 460 435 305 282 223 252 177 150
1650.0 282 258 266 81 202 186 246 182 235 329
1690.0 291 325 447 524 367 290 248 297 255 148
1730.0 232 198 241 145 115 159 153 149 171 134
1770.0 156 195 132 140 177 219 280 311 329 364
1810.0 321 275 215 212 257 290 282 287 216 230
1850.0 159 144 149 118 153 145 174 159 167 204
1890.0 251 247 239 234 225 286 366 450 456 395
1930.0 283 229 251 287 352 357 299 199 143 87
1970.0 74 76 70 66 58 50 56 49 59 55
2010.0 64 66 77 52 62 86 80 81 65 68
2050.0 62 57 54 59 49 68 60 58 58 57
2090.0 70 72 49 68 51 57 59 63 49 37
2130.0 39 51 44 50 29 24 19 35 26 19
2170.0 35 37 12 13 0 1 5 0 25 33
2210.0 44 44 55 37 45 46 48 56 58 71
2250.0 68 56 48 59 74 93 85 81 105 106
2290.0 100 97 104 106 130 157 182 198 173 156
2330.0 148 174 193 157 251 120 127 77 237 244
2370.0 223 243 184 153 97 66 63 67 66 81
2410.0 82 68 90 69 69 67 67 68 75 81
2450.0 70 83 79 82 78 72 85 111 104 95
2490.0 113 120 130 133 132 142 143 151 149 141
2530.0 149 170 183 200 176 139 129 122 105 102
2570.0 105 106 109 121 118 126 110 103 108 105
2610.0 137 128 126 130 130 130 154 147 142 149
2650.0 133 138 126 127 120 105 94 117 116 116
2690.0 134 120 121 138 138 137 158 158 162 152
2730.0 154 166 152 153 146 142 139 155 138 132
2770.0 119 124 114 122 111 99 119 113 113 118
2810.0 105 116 101 123 134 145 124 143 156 131
2850.0 136 143 152 143 164 133 126 99 116 99
2890.0 87 94 49 62 66 60 94 95 115 131
2930.0 128 154 136 113 143 115 143 120 99 94
2970.0 108 119 127 165 156 180 212 209 211 223
3010.0 225 264 260 298 312 319 339 352 364 390
3050.0 441 546 740 1003 1489 2161 3042 3667 3457 2459
3090.0 1423 797 491 299 215 163 142 144 162 170
3130.0 176 191 194 206 221 224 242 228 188 166
3170.0 122 90 107 103 115 86 83 91 98 93
3210.0 85 83 107 94 95 118 105 80 112 121
3250.0 142 168 132 111 104 92 80 87 76 98
3290.0 84 99 78 82 85 51 72 106 67 60
3330.0 78 78 81 74 77 60 73 71 91 76
3370.0 57 76 72 71 73 75 82 87 67 73
3410.0 63 45 64 74 70 69 36 70 47 33
3450.0 37 47 78 55 80 58 43 25 38 58
3490.0 104 60 58 60 64 66 69 76 56 65
3530.0 72 52 61 68 26 32 50 33 69 21
3570.0 65 64 77 102 66 74 72 84 69 88
3610.0 58 60 90 63 71 123 97 76 85 87
3650.0 127 111 126 63 87 39 114 41 81 59
3690.0 29 131 28 70 63 37 146 66 36 22
3730.0 75 91 77 95 68 127 105 77 65 59
3770.0 17 71 64 42 67 40 69 24 72 67
3810.0 152 25 35 79 118 81 40 16 67 94
3850.0 24 164 55 81 58 95 67 93 82 127
3890.0 184 51 83 223 193 184 105 40 97 72
3930.0 106 93 83 19 114 71 48 144 107 149
##END=
