##TITLE=4-Methyl itaconate
##JCAMP-DX=4.24
##DATA TYPE=INFRARED SPECTRUM
##ORIGIN=Sadtler Research Labs Under US-EPA Contract
##OWNER=NIST Standard Reference Data Program
##CAS REGISTRY NO=7338-27-4
##MOLFORM=C 6 H 8 O 4
##XUNITS=1/CM
##YUNITS=ABSORBANCE
##XFACTOR=1.0
##YFACTOR=0.000127994
##DELTAX=4.0
##FIRSTX=450.0
##LASTX=3966.0
##FIRSTY=0.003840
##MAXX=3966
##MINX=450
##MAXY=1.27994
##MINY=0
##NPOINTS=880
##XYDATA=(X++(Y..Y))
450.0 30 18 25 30 8 17 5 32 22 54
490.0 66 85 98 168 195 254 338 392 445 514
530.0 576 640 702 776 862 924 973 1027 1145 1177
570.0 1254 1197 1148 1064 998 921 814 721 644 560
610.0 456 408 344 297 269 254 249 226 225 218
650.0 223 204 201 167 158 126 83 70 45 45
690.0 27 41 26 22 19 12 14 21 51 62
730.0 88 135 149 183 189 175 165 145 128 137
770.0 154 169 187 198 198 200 209 255 327 433
810.0 563 651 687 619 530 426 341 294 256 224
850.0 205 186 185 183 188 259 299 272 383 462
890.0 515 517 509 480 405 284 177 155 168 214
930.0 281 393 526 679 801 906 913 819 703 578
970.0 499 438 405 378 372 378 397 447 517 636
1010.0 804 1045 1258 1397 1379 1293 1087 667 464 389
1050.0 377 387 401 415 428 445 462 510 593 754
1090.0 1032 1535 2390 3592 4810 5710 6106 5812 4972 4114
1130.0 3468 3015 2690 2497 2441 2502 2664 2877 3079 3222
1170.0 3271 3177 2989 2786 2621 2521 2475 2434 2378 2302
1210.0 2173 2059 2001 1985 1995 2009 2034 2073 2118 2187
1250.0 2270 2322 2322 2245 2090 1866 1611 1381 1186 1042
1290.0 943 886 880 916 998 1129 1332 1603 1928 2243
1330.0 2435 2426 2240 1920 1566 1289 1126 1025 939 865
1370.0 797 741 692 649 623 602 605 612 637 676
1410.0 741 805 890 949 996 1076 1194 1241 1155 1024
1450.0 721 494 402 338 291 268 241 212 177 157
1490.0 138 117 106 90 88 82 72 69 72 63
1530.0 62 58 61 63 57 59 58 66 62 50
1570.0 48 43 44 40 38 43 46 51 54 73
1610.0 89 116 156 196 259 331 426 483 505 467
1650.0 401 290 199 138 113 92 90 96 117 152
1690.0 176 225 275 334 399 483 590 727 889 1051
1730.0 1320 1673 2246 3043 4329 5792 7491 8929 9956 10000
1770.0 9048 7768 5957 4496 3552 3017 2606 2294 1951 1624
1810.0 1319 1068 862 709 575 443 331 256 237 240
1850.0 247 244 245 235 215 167 125 106 93 85
1890.0 77 74 71 71 66 58 47 36 26 14
1930.0 10 4 1 0 2 3 2 3 5 4
1970.0 5 4 1 3 2 5 5 7 8 10
2010.0 12 12 17 22 25 30 33 35 38 38
2050.0 35 31 27 25 27 26 26 26 22 23
2090.0 19 17 15 14 13 13 15 12 11 11
2130.0 11 8 10 9 8 9 9 8 8 11
2170.0 9 9 11 12 15 19 19 23 27 28
2210.0 31 34 36 36 38 36 34 31 28 28
2250.0 25 25 23 21 24 25 26 28 31 30
2290.0 32 33 36 40 40 41 42 35 39 37
2330.0 31 31 32 33 48 53 41 46 40 38
2370.0 47 52 61 62 52 47 45 45 45 43
2410.0 43 45 45 47 48 47 48 49 51 52
2450.0 53 50 53 54 52 52 54 54 52 50
2490.0 49 48 50 50 50 50 49 49 46 49
2530.0 48 48 48 45 42 43 43 41 41 40
2570.0 39 39 38 38 36 39 36 38 37 34
2610.0 35 35 32 31 29 29 29 26 25 24
2650.0 24 26 23 22 17 19 18 14 15 13
2690.0 10 12 13 13 12 10 10 8 5 6
2730.0 4 5 6 4 4 4 4 4 1 0
2770.0 0 2 1 2 1 2 5 9 10 13
2810.0 17 22 30 32 35 40 49 67 99 145
2850.0 164 173 174 150 122 99 89 87 91 93
2890.0 102 117 135 154 171 188 201 210 231 248
2930.0 267 299 339 378 433 522 697 895 971 949
2970.0 836 603 405 325 295 292 313 338 364 379
3010.0 376 361 338 310 291 278 257 231 198 172
3050.0 147 124 112 101 94 85 79 75 68 63
3090.0 59 57 56 56 61 66 70 63 54 40
3130.0 29 19 12 10 12 9 6 3 4 2
3170.0 4 3 3 3 3 1 2 3 5 4
3210.0 0 4 3 2 2 0 5 4 8 6
3250.0 5 5 4 8 4 9 5 9 4 7
3290.0 5 11 11 12 12 14 18 15 16 15
3330.0 15 18 19 14 13 15 14 16 13 11
3370.0 12 11 13 13 14 15 16 14 12 12
3410.0 10 8 11 14 7 9 8 6 10 8
3450.0 9 7 10 11 14 16 26 31 38 47
3490.0 54 61 72 78 74 74 75 68 56 43
3530.0 38 31 29 32 35 43 59 95 157 277
3570.0 512 912 1511 2072 2228 2104 1726 1073 525 270
3610.0 154 99 78 70 64 62 58 54 47 37
3650.0 25 25 29 24 23 16 25 23 31 16
3690.0 18 18 22 19 18 18 24 26 24 29
3730.0 21 17 24 17 17 12 7 4 8 10
3770.0 7 9 11 7 0 6 3 3 2 4
3810.0 4 4 6 0 3 11 8 8 11 12
3850.0 5 12 12 5 7 7 7 2 4 4
3890.0 13 10 11 10 10 15 17 11 11 8
3930.0 11 7 18 18 16 14 14 14 7 16
##END=
