##TITLE=1-Hexanethiol, 2-ethyl-
##JCAMP-DX=4.24
##DATA TYPE=INFRARED SPECTRUM
##ORIGIN=Sadtler Research Labs Under US-EPA Contract
##OWNER=NIST Standard Reference Data Program
##CAS REGISTRY NO=7341-17-5
##MOLFORM=C 8 H 18 S
##XUNITS=1/CM
##YUNITS=ABSORBANCE
##XFACTOR=1.0
##YFACTOR=0.000134741
##DELTAX=4.0
##FIRSTX=450.0
##LASTX=3966.0
##FIRSTY=0.000000
##MAXX=3966
##MINX=450
##MAXY=1.34741
##MINY=0
##NPOINTS=880
##XYDATA=(X++(Y..Y))
450.0 0 242 507 353 269 140 392 355 332 380
490.0 361 282 372 331 412 341 420 461 424 342
530.0 344 325 376 401 398 311 323 308 310 360
570.0 293 277 302 310 353 308 264 308 310 267
610.0 293 286 299 286 297 283 291 303 308 277
650.0 284 291 341 400 398 424 370 312 350 396
690.0 511 534 465 467 477 511 548 565 519 524
730.0 588 494 530 631 630 554 587 567 551 555
770.0 562 610 628 615 659 623 580 503 464 468
810.0 441 417 408 398 440 399 404 410 444 448
850.0 433 430 419 445 448 450 464 471 478 494
890.0 505 522 534 543 564 550 577 569 575 597
930.0 592 605 613 596 601 589 601 604 614 621
970.0 608 616 622 619 612 587 577 562 534 520
1010.0 496 486 473 470 463 453 450 453 451 447
1050.0 446 443 441 448 453 442 434 425 430 433
1090.0 431 433 441 443 457 450 438 439 436 450
1130.0 470 479 487 483 476 453 437 421 413 406
1170.0 424 442 452 474 486 487 480 474 475 478
1210.0 491 501 521 517 516 524 538 555 572 584
1250.0 600 618 650 663 669 665 672 692 714 746
1290.0 759 768 750 699 639 582 530 505 486 479
1330.0 482 504 522 563 600 612 604 586 561 563
1370.0 577 645 780 905 982 924 750 576 468 428
1410.0 420 436 448 520 605 745 900 1039 1077 1083
1450.0 1214 1372 1590 1779 1798 1703 1474 1135 835 649
1490.0 506 449 403 390 371 355 337 341 330 335
1530.0 319 322 318 323 315 300 311 297 323 296
1570.0 301 308 298 303 298 304 309 295 304 298
1610.0 299 290 304 290 284 295 286 287 281 265
1650.0 287 276 278 266 274 270 265 269 263 281
1690.0 268 275 284 283 270 268 266 268 270 260
1730.0 260 254 257 250 238 234 231 230 235 230
1770.0 223 226 221 220 216 216 206 210 200 212
1810.0 209 205 210 203 206 205 202 202 197 205
1850.0 201 205 199 196 195 197 201 200 198 197
1890.0 198 200 199 198 198 197 198 193 193 193
1930.0 194 196 198 193 195 196 193 196 197 194
1970.0 190 196 191 192 192 187 189 195 193 191
2010.0 193 190 189 193 196 198 196 197 197 195
2050.0 195 196 196 194 193 196 196 193 191 195
2090.0 197 196 196 193 196 196 195 195 198 199
2130.0 200 200 200 199 200 202 202 202 201 200
2170.0 200 201 205 205 202 200 202 201 200 200
2210.0 202 200 202 203 201 200 201 203 203 202
2250.0 200 200 198 199 201 199 199 197 194 188
2290.0 180 175 171 173 165 158 164 163 162 168
2330.0 173 186 190 186 183 181 163 177 185 195
2370.0 212 202 209 202 202 210 212 211 214 210
2410.0 211 210 211 212 209 206 205 205 201 200
2450.0 200 202 200 200 200 197 195 198 200 200
2490.0 199 199 200 200 202 204 207 209 211 213
2530.0 216 212 214 219 221 224 227 230 232 234
2570.0 245 253 264 284 312 348 366 371 354 321
2610.0 296 284 279 273 270 270 273 274 276 279
2650.0 277 279 286 292 295 300 305 312 311 311
2690.0 313 314 314 315 314 314 311 314 316 321
2730.0 328 338 351 363 370 370 360 349 341 344
2770.0 342 343 350 361 375 393 410 427 443 465
2810.0 486 511 538 565 595 643 704 794 922 1124
2850.0 1437 1899 2499 3166 3735 4059 4178 4273 4372 4282
2890.0 3975 3503 3066 2905 3035 3419 4031 4862 5967 7266
2930.0 8516 9400 9519 9037 7878 6578 5842 5941 7087 8977
2970.0 10000 9334 7309 4752 2838 1824 1355 1101 953 845
3010.0 760 699 633 596 568 538 515 488 464 441
3050.0 427 413 392 380 370 361 355 345 338 330
3090.0 319 318 319 314 299 291 293 292 286 283
3130.0 276 273 267 265 267 257 257 254 256 249
3170.0 246 245 241 237 234 237 232 221 220 218
3210.0 209 212 213 202 194 194 189 190 190 190
3250.0 191 186 186 185 181 176 183 186 185 178
3290.0 175 180 173 172 176 179 183 177 177 177
3330.0 175 177 181 182 179 176 177 174 178 177
3370.0 176 178 181 175 175 170 175 178 176 176
3410.0 174 171 173 175 176 177 181 165 166 179
3450.0 167 168 175 178 172 173 173 168 170 173
3490.0 175 173 171 169 168 169 174 182 170 170
3530.0 175 175 174 164 166 174 176 169 172 159
3570.0 169 170 184 176 175 164 188 169 177 170
3610.0 171 177 181 184 169 189 179 179 173 178
3650.0 175 199 176 187 179 171 187 172 193 169
3690.0 191 173 177 175 175 178 184 164 169 157
3730.0 169 176 158 183 156 193 164 180 170 175
3770.0 180 174 177 168 166 160 164 184 175 192
3810.0 165 165 168 186 193 184 182 179 174 173
3850.0 161 197 187 178 186 189 174 171 197 183
3890.0 189 184 167 161 175 186 179 172 177 191
3930.0 186 183 187 179 179 179 205 183 168 187
##END=
