##TITLE=Benzo[b]thiophene, 3-bromo-,
##JCAMP-DX=4.24
##DATA TYPE=INFRARED SPECTRUM
##ORIGIN=Sadtler Research Labs Under US-EPA Contract
##OWNER=NIST Standard Reference Data Program
##CAS REGISTRY NO=7342-82-7
##MOLFORM=C 8 H 5 Br S
##XUNITS=1/CM
##YUNITS=ABSORBANCE
##XFACTOR=1.0
##YFACTOR=0.000061887
##DELTAX=4.0
##FIRSTX=450.0
##LASTX=3966.0
##FIRSTY=0.000000
##MAXX=3966
##MINX=450
##MAXY=0.61887
##MINY=0
##NPOINTS=880
##XYDATA=(X++(Y..Y))
450.0 0 51 118 83 200 175 268 272 107 155
490.0 184 309 320 351 241 89 48 87 110 125
530.0 151 152 120 95 108 122 90 67 83 67
570.0 98 67 80 77 113 109 103 105 114 117
610.0 110 119 83 93 81 94 142 125 138 137
650.0 110 104 99 66 38 183 147 209 249 329
690.0 570 1698 2836 2910 2882 1402 1269 2326 3813 7375
730.0 6296 5079 4817 4950 6106 10000 9601 7274 6070 4888
770.0 2335 1543 734 308 192 171 166 188 277 491
810.0 1055 2167 3492 3899 3707 2585 1120 523 327 285
850.0 302 232 170 180 163 175 147 129 134 137
890.0 125 126 132 144 165 240 369 668 1625 3729
930.0 5231 5272 4171 1388 484 458 464 449 371 282
970.0 202 118 104 127 162 215 277 300 304 410
1010.0 661 1101 1131 1105 730 316 170 144 159 254
1050.0 469 941 1656 1811 1795 1354 670 413 308 212
1090.0 146 116 107 138 157 171 186 246 350 520
1130.0 591 581 592 805 961 966 792 386 222 222
1170.0 232 228 197 136 115 106 153 200 214 219
1210.0 187 170 206 282 311 309 277 297 496 1169
1250.0 2376 2840 3057 2355 1229 622 269 137 118 151
1290.0 202 283 446 734 1327 2313 3372 3697 3444 2701
1330.0 1760 1295 713 317 201 138 127 127 112 103
1370.0 83 68 67 70 75 71 96 145 231 413
1410.0 726 1209 1704 1991 2126 1721 1306 824 497 403
1450.0 481 589 583 553 436 368 357 401 552 890
1490.0 1323 1625 1568 1363 928 711 833 1105 1468 1191
1530.0 1151 637 259 134 142 197 254 306 364 355
1570.0 333 271 219 202 194 226 285 367 360 304
1610.0 215 122 84 68 64 70 70 66 66 51
1650.0 60 80 130 157 156 147 142 186 253 290
1690.0 311 297 221 174 136 106 93 85 91 95
1730.0 105 101 105 106 97 99 100 110 123 172
1770.0 224 307 415 476 438 351 224 146 130 162
1810.0 219 288 319 288 220 125 77 65 56 48
1850.0 52 65 83 115 164 202 217 197 154 114
1890.0 109 157 254 357 384 337 236 119 91 115
1930.0 177 273 346 338 294 199 105 79 74 72
1970.0 74 70 59 50 47 48 46 47 49 42
2010.0 45 45 38 39 46 48 49 49 47 47
2050.0 46 48 49 52 51 58 59 60 57 49
2090.0 43 43 43 48 49 49 47 49 51 52
2130.0 58 58 51 50 45 43 39 40 39 42
2170.0 45 47 54 64 74 70 66 60 58 58
2210.0 56 55 58 62 62 56 56 54 56 57
2250.0 58 61 67 68 83 89 89 90 84 85
2290.0 84 95 99 106 112 129 142 147 141 126
2330.0 105 72 61 67 65 64 64 62 38 38
2370.0 45 45 51 60 64 58 60 57 59 70
2410.0 76 83 86 87 80 77 75 64 67 67
2450.0 70 70 71 70 72 66 65 69 65 61
2490.0 60 55 47 48 47 47 51 51 58 58
2530.0 59 57 57 59 68 68 74 78 83 84
2570.0 76 74 72 68 64 75 70 78 84 88
2610.0 98 112 108 116 117 106 100 90 84 83
2650.0 84 81 72 70 64 61 60 58 55 47
2690.0 38 48 43 41 51 52 54 54 60 59
2730.0 59 52 54 56 64 57 55 50 59 60
2770.0 68 62 58 59 57 56 52 51 54 59
2810.0 57 58 51 58 60 62 59 62 69 72
2850.0 79 80 88 90 99 100 107 108 112 116
2890.0 129 142 148 143 138 138 141 144 139 141
2930.0 143 148 148 162 148 141 135 124 130 130
2970.0 129 129 130 136 128 142 166 195 226 249
3010.0 254 249 252 294 355 442 490 487 466 438
3050.0 498 650 974 1575 2443 3198 3560 3824 3055 2145
3090.0 1282 628 446 434 449 521 684 880 817 848
3130.0 590 332 193 124 99 93 85 83 80 74
3170.0 72 72 72 86 81 79 79 70 62 57
3210.0 54 57 60 57 58 62 51 51 55 52
3250.0 57 51 49 52 56 59 51 49 43 48
3290.0 50 48 52 47 51 49 52 49 39 46
3330.0 42 48 48 49 51 49 49 57 41 46
3370.0 56 52 47 49 51 48 55 48 50 46
3410.0 52 64 59 67 47 51 51 60 45 57
3450.0 48 50 54 59 48 56 46 61 57 38
3490.0 43 49 48 54 49 49 60 55 64 52
3530.0 60 61 59 52 51 52 69 62 49 55
3570.0 74 74 65 62 62 74 68 67 71 59
3610.0 51 67 61 71 69 61 39 49 45 66
3650.0 60 71 78 61 59 54 52 49 61 59
3690.0 66 67 64 52 61 50 47 40 60 62
3730.0 65 66 70 69 54 56 59 64 70 66
3770.0 77 90 81 89 100 101 99 93 88 89
3810.0 97 86 78 69 77 87 74 60 87 60
3850.0 91 71 69 52 54 57 65 51 80 68
3890.0 77 47 42 51 57 56 62 47 46 50
3930.0 43 54 86 65 71 49 54 75 59 59
##END=
