##TITLE=3-Hexanone, 2-methyl-
##JCAMP-DX=4.24
##DATA TYPE=INFRARED SPECTRUM
##ORIGIN=Sadtler Research Labs Under US-EPA Contract
##OWNER=NIST Standard Reference Data Program
##CAS REGISTRY NO=7379-12-6
##MOLFORM=C 7 H 14 O
##XUNITS=1/CM
##YUNITS=ABSORBANCE
##XFACTOR=1.0
##YFACTOR=0.000069189
##DELTAX=4.0
##FIRSTX=450.0
##LASTX=3966.0
##FIRSTY=0.004912
##MAXX=3966
##MINX=450
##MAXY=0.69189
##MINY=0
##NPOINTS=880
##XYDATA=(X++(Y..Y))
450.0 71 88 87 82 50 45 31 43 35 35
490.0 18 52 26 21 36 82 62 40 62 82
530.0 44 217 175 79 95 95 79 71 83 132
570.0 75 16 104 104 35 105 107 119 126 130
610.0 113 127 121 116 99 105 85 82 96 74
650.0 75 62 46 72 15 75 26 40 35 27
690.0 39 44 58 69 54 85 90 98 100 130
730.0 151 108 119 131 122 123 132 131 117 108
770.0 121 129 121 111 172 185 190 205 212 234
810.0 241 253 262 241 236 199 163 135 134 132
850.0 124 127 144 167 166 192 204 226 249 286
890.0 336 388 432 435 423 376 306 231 188 168
930.0 160 149 142 135 149 150 158 180 208 240
970.0 279 338 437 519 600 676 734 778 827 942
1010.0 1171 1448 1720 1931 2006 1924 1663 1363 1100 921
1050.0 824 768 738 710 684 675 668 690 741 812
1090.0 934 1074 1214 1326 1406 1486 1505 1523 1512 1462
1130.0 1382 1273 1132 1009 925 859 778 711 645 628
1170.0 662 718 766 800 794 744 668 571 531 478
1210.0 448 434 417 404 399 396 374 334 318 312
1250.0 324 364 431 475 527 549 579 584 578 598
1290.0 586 569 547 499 452 416 407 407 436 487
1330.0 551 656 789 952 1146 1359 1539 1712 1826 1839
1370.0 1804 1746 1754 1780 1728 1639 1486 1236 927 775
1410.0 723 704 716 707 698 705 747 820 905 1030
1450.0 1232 1450 1697 1921 2114 2155 2030 1771 1442 1069
1490.0 758 538 411 313 273 229 187 182 162 137
1530.0 117 102 111 99 90 79 85 83 70 71
1570.0 68 78 73 70 61 77 76 70 77 96
1610.0 88 92 108 102 107 96 121 115 119 141
1650.0 139 151 144 176 206 238 298 343 439 527
1690.0 657 849 1184 1668 2323 3265 4344 5484 6386 6852
1730.0 6747 5970 4724 3472 2420 1633 1135 872 760 682
1770.0 647 612 567 534 505 465 419 350 293 224
1810.0 180 143 121 102 91 76 72 60 60 52
1850.0 39 44 44 45 38 39 37 36 35 44
1890.0 41 43 41 43 43 37 37 36 31 31
1930.0 26 22 13 21 16 17 14 8 14 14
1970.0 7 6 14 2 0 4 0 0 0 0
2010.0 0 0 6 7 14 6 13 22 15 20
2050.0 19 20 18 36 14 26 34 26 34 41
2090.0 35 38 31 31 23 24 22 29 26 24
2130.0 26 26 26 27 27 18 16 24 33 33
2170.0 25 26 18 26 19 19 12 17 24 20
2210.0 24 21 13 18 17 24 17 18 25 24
2250.0 23 26 18 16 17 11 15 15 15 15
2290.0 15 20 18 26 31 33 43 39 41 42
2330.0 39 34 28 33 27 29 34 32 29 11
2370.0 2 1 9 15 32 32 35 43 37 42
2410.0 43 38 35 24 28 37 37 31 32 30
2450.0 29 37 31 32 37 38 33 44 39 39
2490.0 36 37 39 39 33 33 33 34 27 32
2530.0 29 31 30 29 35 34 37 42 27 27
2570.0 28 27 35 36 35 41 43 45 43 49
2610.0 49 44 50 60 67 52 59 59 67 68
2650.0 71 79 96 109 102 102 104 103 112 109
2690.0 105 115 116 111 109 107 103 106 117 126
2730.0 127 141 163 172 163 178 166 164 164 156
2770.0 164 158 157 156 164 180 187 210 223 256
2810.0 286 312 330 348 369 385 408 436 481 547
2850.0 599 680 816 982 1245 1631 2144 2767 3272 3590
2890.0 3756 3758 3622 3488 3417 3407 3408 3405 3487 3646
2930.0 3898 4246 4664 4997 5191 5287 5373 5678 6412 7745
2970.0 9201 9987 10000 9153 7509 5447 3776 2632 1869 1371
3010.0 1041 819 671 549 469 410 365 322 289 267
3050.0 245 230 222 201 208 193 200 188 175 184
3090.0 173 173 168 165 160 167 158 169 152 161
3130.0 172 164 152 162 158 168 146 147 147 155
3170.0 140 140 134 145 141 126 134 109 111 114
3210.0 99 94 78 63 64 64 61 50 45 43
3250.0 38 29 38 52 49 60 51 81 80 86
3290.0 83 65 66 67 65 62 48 45 67 52
3330.0 59 44 59 63 70 71 67 52 43 32
3370.0 48 61 39 39 45 73 73 59 69 90
3410.0 80 83 105 121 137 156 162 148 111 96
3450.0 95 92 38 42 63 71 54 50 38 34
3490.0 36 22 16 33 23 12 24 38 21 22
3530.0 30 34 36 25 42 55 47 65 44 90
3570.0 126 123 128 126 130 108 82 50 69 88
3610.0 56 38 34 37 35 15 39 32 46 43
3650.0 62 36 40 37 43 33 53 36 34 55
3690.0 42 31 46 39 69 44 35 51 50 72
3730.0 51 73 79 77 81 95 77 66 79 78
3770.0 54 70 60 81 85 83 88 77 71 71
3810.0 82 82 80 92 98 89 101 105 99 86
3850.0 67 64 86 84 85 72 45 50 55 70
3890.0 61 68 85 88 84 80 75 65 80 82
3930.0 74 60 64 62 68 58 64 65 81 106
##END=
