##TITLE=Methane, bromo-
##JCAMP-DX=4.24
##DATA TYPE=INFRARED SPECTRUM
##ORIGIN=Sadtler Research Labs Under US-EPA Contract
##OWNER=NIST Standard Reference Data Program
##CAS REGISTRY NO=74-83-9
##MOLFORM=C H 3 Br
##XUNITS=1/CM
##YUNITS=ABSORBANCE
##XFACTOR=1.0
##YFACTOR=0.000034918
##DELTAX=4.0
##FIRSTX=450.0
##LASTX=3966.0
##FIRSTY=0.000000
##MAXX=3966
##MINX=450
##MAXY=0.34918
##MINY=0
##NPOINTS=880
##XYDATA=(X++(Y..Y))
450.0 0 339 686 446 491 344 540 542 430 519
490.0 391 559 404 543 364 508 414 579 564 389
530.0 508 418 488 380 657 580 768 870 1208 1580
570.0 1968 2771 3172 4109 4560 5407 5001 4962 4476 3396
610.0 4624 3883 5063 7124 6751 5562 3644 1948 1004 483
650.0 433 425 466 448 515 494 409 467 422 477
690.0 436 486 471 454 487 429 483 454 482 463
730.0 486 461 499 487 480 531 478 513 457 465
770.0 450 490 428 497 463 447 464 452 494 435
810.0 507 439 461 428 467 483 466 547 503 558
850.0 551 616 596 615 673 722 777 709 925 852
890.0 1019 1068 1019 1276 1149 1486 1664 1342 1655 1518
930.0 1757 2329 1617 1959 1829 1660 2499 2194 2072 2073
970.0 1746 2008 2405 1800 1922 1657 1549 1762 1706 1500
1010.0 1386 1261 1139 1302 1082 1051 928 914 783 847
1050.0 762 667 657 625 613 542 590 514 506 489
1090.0 499 478 432 485 430 465 422 479 424 442
1130.0 436 415 432 416 467 407 466 422 474 417
1170.0 448 455 427 463 435 484 416 480 441 477
1210.0 444 473 480 447 523 471 557 463 630 636
1250.0 791 952 1299 1766 2232 3259 4081 5418 6319 7642
1290.0 7685 7526 6017 4296 4446 5792 6701 10000 9733 8514
1330.0 6014 3428 2336 1604 1036 994 1418 840 1366 1452
1370.0 1198 1268 2498 1152 1237 1987 1336 1464 2166 1574
1410.0 1392 3276 1663 1477 2244 1989 1259 2950 1624 1737
1450.0 2339 1910 1122 2740 1624 1702 2198 1973 1326 2919
1490.0 1659 1522 2157 1454 1630 1747 1379 1199 2158 952
1530.0 1498 1235 1209 1212 1101 891 1154 924 846 1010
1570.0 733 851 742 709 721 640 542 699 561 534
1610.0 587 502 616 459 525 454 511 474 476 455
1650.0 460 538 447 433 414 436 425 394 439 471
1690.0 407 393 483 398 421 379 414 405 417 391
1730.0 380 449 400 391 366 413 400 417 410 422
1770.0 406 408 396 389 412 394 421 383 405 403
1810.0 398 402 389 410 394 402 392 405 391 392
1850.0 399 393 400 395 421 399 433 429 441 434
1890.0 457 445 442 450 434 437 433 459 456 471
1930.0 455 429 398 387 393 385 396 386 404 387
1970.0 399 396 399 396 388 395 383 402 395 408
2010.0 392 389 385 384 386 387 391 387 399 394
2050.0 403 392 394 388 387 402 393 394 385 394
2090.0 380 393 385 387 382 385 395 384 387 375
2130.0 392 389 390 395 391 390 396 404 392 403
2170.0 408 417 412 437 439 439 458 452 456 465
2210.0 486 498 490 476 499 487 540 527 495 516
2250.0 492 526 537 494 503 495 493 506 511 482
2290.0 490 479 496 500 508 497 500 493 498 532
2330.0 467 541 485 542 505 531 547 515 555 585
2370.0 495 544 521 513 514 470 531 495 449 498
2410.0 439 483 415 480 464 422 463 424 446 416
2450.0 432 436 418 416 415 402 418 406 393 407
2490.0 403 396 387 398 387 384 373 388 390 373
2530.0 382 377 388 376 399 388 411 419 436 442
2570.0 455 484 489 505 492 487 442 475 472 545
2610.0 581 556 547 398 368 344 362 348 365 364
2650.0 344 366 355 374 351 380 360 371 355 361
2690.0 378 363 368 366 381 350 391 373 370 365
2730.0 379 375 361 395 370 386 362 394 379 392
2770.0 379 386 391 372 418 379 405 405 434 431
2810.0 466 492 513 587 641 826 1020 1333 1596 1745
2850.0 1686 1316 1166 1069 1178 1415 1582 1478 1454 1188
2890.0 1051 864 753 608 552 576 502 605 654 934
2930.0 1211 1903 2793 4080 5522 7103 8257 8165 7751 6184
2970.0 5531 5022 6211 8521 9390 9160 7706 6357 4358 3727
3010.0 2287 1776 1455 1235 1376 939 1848 1113 1275 1179
3050.0 1272 1275 1091 2052 1245 1392 1204 1385 1159 1267
3090.0 1765 1009 1349 1163 1228 1002 1408 1190 817 1106
3130.0 871 897 789 1022 621 745 735 628 613 620
3170.0 630 453 606 480 534 453 477 466 423 455
3210.0 425 481 381 468 383 411 378 430 404 377
3250.0 425 363 422 357 456 369 395 402 396 403
3290.0 361 445 364 412 360 436 381 402 402 381
3330.0 406 383 420 361 423 385 413 372 403 385
3370.0 377 401 386 406 356 425 373 395 371 408
3410.0 400 376 403 373 416 381 433 364 407 378
3450.0 383 409 390 430 373 410 369 426 342 393
3490.0 389 401 389 366 379 373 421 366 407 339
3530.0 409 394 382 411 380 425 390 475 446 425
3570.0 414 451 459 441 458 451 491 459 486 397
3610.0 425 397 377 399 408 409 385 395 365 422
3650.0 353 382 407 400 400 355 433 391 447 369
3690.0 455 394 434 408 377 395 382 400 380 377
3730.0 372 391 375 405 416 385 399 346 374 339
3770.0 420 378 379 355 388 365 379 389 397 406
3810.0 423 419 383 398 357 391 381 399 368 369
3850.0 436 418 417 385 464 405 381 423 416 452
3890.0 483 457 344 409 372 430 405 413 367 391
3930.0 409 375 451 332 397 382 448 400 466 461
##END=
