##TITLE=Methylamine
##JCAMP-DX=4.24
##DATA TYPE=INFRARED SPECTRUM
##ORIGIN=Sadtler Research Labs Under US-EPA Contract
##OWNER=NIST Standard Reference Data Program
##CAS REGISTRY NO=74-89-5
##MOLFORM=C H 5 N
##XUNITS=1/CM
##YUNITS=ABSORBANCE
##XFACTOR=1.0
##YFACTOR=0.000043100
##DELTAX=4.0
##FIRSTX=450.0
##LASTX=3966.0
##FIRSTY=0.000000
##MAXX=3966
##MINX=450
##MAXY=0.431
##MINY=0
##NPOINTS=880
##XYDATA=(X++(Y..Y))
450.0 0 313 312 321 281 305 316 361 370 368
490.0 370 399 366 377 354 374 423 429 437 463
530.0 391 437 518 478 552 480 479 534 545 601
570.0 575 650 628 699 651 693 763 830 799 789
610.0 892 861 982 1004 1019 1051 1097 1160 1129 1206
650.0 1337 1320 1324 1487 1496 1665 1708 1855 2022 2087
690.0 2415 2491 2627 2792 3196 3429 3665 4148 4510 4912
730.0 5042 5736 6096 7140 6825 7313 7819 8544 8010 7114
770.0 7063 6840 9746 10000 7978 6168 7197 7612 7753 7648
810.0 7200 6664 6105 5434 4902 4066 3872 3191 2847 2516
850.0 2317 2166 1962 1879 1673 1567 1426 1339 1155 1186
890.0 1085 1011 906 876 825 771 754 722 712 708
930.0 791 703 647 595 598 607 608 625 672 831
970.0 705 630 712 726 812 871 972 1035 1141 1233
1010.0 1343 1448 1454 1502 1509 1463 1445 1434 1769 1997
1050.0 1122 1552 1690 1731 1928 1979 1963 1755 1533 1306
1090.0 1069 901 752 706 662 607 592 586 640 665
1130.0 712 513 511 574 570 551 553 569 541 493
1170.0 487 458 450 411 403 371 378 368 355 347
1210.0 353 331 317 324 306 315 305 288 292 303
1250.0 287 273 275 266 289 272 282 272 278 283
1290.0 278 281 277 294 293 296 292 305 314 335
1330.0 353 349 350 359 385 401 437 456 492 501
1370.0 531 553 594 632 651 690 703 724 744 763
1410.0 772 770 725 721 701 805 1001 1058 1102 1078
1450.0 1131 1103 1055 1046 1051 1158 1202 1102 962 945
1490.0 932 982 921 936 910 817 862 809 836 801
1530.0 795 815 794 804 765 811 792 847 852 869
1570.0 895 968 1041 1102 1192 1268 1313 1414 1433 1362
1610.0 1317 1360 1382 1671 1628 1335 1372 1359 1371 1405
1650.0 1371 1338 1241 1212 1178 1076 991 899 873 775
1690.0 709 688 674 600 553 535 518 486 495 478
1730.0 460 458 455 433 405 420 421 426 424 431
1770.0 419 428 416 421 429 435 438 434 434 448
1810.0 436 429 455 440 456 441 435 443 438 414
1850.0 418 422 413 395 385 350 348 327 318 311
1890.0 305 298 297 297 296 290 294 301 290 291
1930.0 306 299 291 291 286 294 295 291 291 289
1970.0 290 295 297 293 294 290 291 301 299 292
2010.0 302 300 295 304 311 322 317 322 313 323
2050.0 311 320 322 318 318 323 344 323 303 326
2090.0 326 338 333 329 313 296 292 286 285 283
2130.0 282 275 282 273 275 275 284 277 270 273
2170.0 274 272 274 279 275 274 277 280 278 276
2210.0 278 279 281 274 278 281 286 279 279 272
2250.0 278 272 278 278 276 281 282 282 279 285
2290.0 290 296 301 299 304 304 296 305 302 285
2330.0 290 286 286 290 300 310 278 286 309 281
2370.0 303 310 299 306 294 283 281 274 282 280
2410.0 287 290 292 291 293 296 286 288 282 293
2450.0 293 300 303 289 298 305 303 298 305 307
2490.0 307 306 307 304 311 307 312 323 318 323
2530.0 326 328 330 333 340 347 358 354 354 363
2570.0 358 365 366 369 361 359 359 366 356 361
2610.0 362 366 364 363 361 364 366 363 367 369
2650.0 380 367 365 371 376 379 375 387 387 401
2690.0 399 407 416 437 442 459 470 481 519 546
2730.0 588 600 672 711 787 854 923 1009 1096 1211
2770.0 1331 1477 1642 1859 2046 2305 2508 2745 2949 3015
2810.0 2998 2909 3387 3879 3371 3446 3757 4205 4562 4694
2850.0 4703 4563 4468 4485 4522 4741 4688 4782 4732 5097
2890.0 5535 6380 7088 6463 6159 6527 7052 7208 6739 6876
2930.0 6866 6817 6793 6629 6407 6091 6067 6188 7497 5528
2970.0 5351 5637 5816 5816 5221 5395 5089 4774 4281 4089
3010.0 3535 3291 3092 2719 2605 2293 2179 1982 1859 1630
3050.0 1532 1398 1281 1171 1053 974 887 818 728 681
3090.0 618 595 551 497 484 452 434 413 406 386
3130.0 382 372 368 359 360 353 339 359 336 350
3170.0 330 336 344 343 335 342 356 351 339 328
3210.0 333 337 340 334 334 344 329 333 323 334
3250.0 326 335 322 330 332 329 338 330 341 336
3290.0 330 350 349 347 360 352 351 357 366 379
3330.0 369 399 408 395 404 401 410 457 485 461
3370.0 423 431 458 447 466 468 444 453 442 449
3410.0 452 468 439 421 419 426 416 425 411 401
3450.0 391 389 395 376 370 369 364 336 330 329
3490.0 334 339 334 323 304 339 337 322 320 299
3530.0 316 330 327 301 296 298 300 306 311 287
3570.0 308 320 287 308 305 288 286 291 286 300
3610.0 298 276 282 299 301 308 307 284 296 302
3650.0 296 287 307 311 299 307 298 292 286 306
3690.0 300 292 300 266 288 287 290 304 282 287
3730.0 266 303 294 306 311 278 290 285 292 304
3770.0 303 335 308 317 309 305 300 296 324 317
3810.0 329 348 368 319 333 342 330 332 303 311
3850.0 356 386 382 349 381 355 354 348 342 356
3890.0 361 349 363 350 342 341 395 349 369 371
3930.0 363 355 368 367 358 370 420 384 361 365
##END=
