##TITLE=Methane, iodo-
##JCAMP-DX=4.24
##DATA TYPE=INFRARED SPECTRUM
##ORIGIN=Sadtler Research Labs Under US-EPA Contract
##OWNER=NIST Standard Reference Data Program
##CAS REGISTRY NO=74-88-4
##MOLFORM=C H 3 I
##XUNITS=1/CM
##YUNITS=ABSORBANCE
##XFACTOR=1.0
##YFACTOR=0.000058807
##DELTAX=4.0
##FIRSTX=450.0
##LASTX=3966.0
##FIRSTY=0.007880
##MAXX=3966
##MINX=450
##MAXY=0.58807
##MINY=0
##NPOINTS=880
##XYDATA=(X++(Y..Y))
450.0 134 116 242 127 190 217 285 60 167 239
490.0 237 413 437 537 653 770 783 825 781 617
530.0 784 619 800 864 912 681 650 177 113 146
570.0 155 96 32 182 143 77 57 113 70 82
610.0 122 75 97 107 106 47 115 84 122 89
650.0 69 71 62 101 81 78 64 174 37 74
690.0 119 84 126 74 114 81 124 87 145 93
730.0 99 136 99 164 124 148 95 151 100 99
770.0 127 140 152 98 190 237 296 299 332 356
810.0 443 467 652 604 593 883 617 1097 1010 1001
850.0 1208 1012 1360 1550 1215 1438 1362 1265 1780 1505
890.0 1559 1445 1327 1415 1560 1359 1414 1135 1123 1106
930.0 1160 984 1021 764 780 714 699 584 561 456
970.0 426 378 329 350 300 245 232 214 195 174
1010.0 173 144 142 142 153 143 153 140 132 148
1050.0 137 141 133 143 101 136 133 122 66 59
1090.0 65 59 78 61 81 56 81 75 67 69
1130.0 64 83 52 77 52 78 55 76 75 62
1170.0 87 74 72 58 102 76 125 191 344 589
1210.0 969 1619 2391 3590 4816 6352 7285 7939 7225 5459
1250.0 3740 5692 6603 9942 10000 8138 5088 2529 869 406
1290.0 262 211 174 330 187 322 374 353 327 549
1330.0 233 426 519 349 649 422 587 728 563 653
1370.0 597 722 1102 590 888 990 638 1166 847 904
1410.0 1345 1213 530 1541 774 996 1099 1184 530 2061
1450.0 634 1080 1019 1127 684 1430 802 881 1412 869
1490.0 849 1073 859 684 1207 547 886 815 846 634
1530.0 779 413 787 606 439 605 410 520 580 333
1570.0 287 371 262 275 181 160 203 140 142 159
1610.0 121 144 218 130 159 103 160 206 73 206
1650.0 173 362 118 98 115 136 168 113 145 254
1690.0 124 87 256 221 122 27 76 162 36 0
1730.0 41 164 94 48 92 131 100 97 128 101
1770.0 182 224 159 174 138 196 186 160 109 80
1810.0 80 88 69 87 106 109 99 60 114 108
1850.0 90 52 62 58 88 111 67 62 65 82
1890.0 78 77 62 59 67 64 77 76 96 64
1930.0 69 62 75 80 85 69 59 67 58 78
1970.0 64 69 65 64 59 64 68 44 41 38
2010.0 43 33 43 34 27 36 43 66 58 73
2050.0 65 70 76 93 115 136 155 154 198 199
2090.0 225 198 180 205 178 220 217 179 205 206
2130.0 194 246 192 173 205 166 175 202 163 144
2170.0 161 144 124 139 119 108 115 115 111 111
2210.0 100 98 95 97 98 94 102 90 95 94
2250.0 104 125 98 125 128 100 126 101 120 119
2290.0 103 145 85 69 104 59 117 79 96 132
2330.0 91 91 101 79 47 81 83 102 42 61
2370.0 4 11 28 24 51 54 87 92 75 76
2410.0 73 67 70 72 68 89 97 110 133 153
2450.0 179 208 261 306 362 396 397 387 309 291
2490.0 359 436 559 575 443 201 37 33 27 30
2530.0 20 18 27 25 35 26 44 27 30 29
2570.0 26 16 16 36 29 33 20 28 16 15
2610.0 27 22 40 34 55 57 73 69 73 65
2650.0 64 77 81 101 109 127 119 119 100 82
2690.0 79 69 61 36 49 36 47 45 40 53
2730.0 42 57 49 54 47 58 46 55 54 49
2770.0 62 47 86 65 81 80 100 132 151 174
2810.0 201 275 334 418 467 502 480 470 566 489
2850.0 575 573 487 373 355 349 355 335 283 240
2890.0 138 121 80 80 55 81 82 65 112 160
2930.0 316 528 1013 1652 2544 3486 4240 4427 3871 3104
2970.0 2489 2191 4019 5089 4788 4050 2905 1893 1118 696
3010.0 620 329 321 366 369 360 269 419 238 308
3050.0 283 280 309 309 494 304 370 314 326 319
3090.0 334 435 283 350 281 301 306 283 301 241
3130.0 280 195 224 214 184 182 162 150 98 163
3170.0 99 129 96 107 70 81 102 49 73 59
3210.0 90 46 89 62 60 56 60 67 51 73
3250.0 51 54 72 64 65 56 64 53 80 53
3290.0 91 70 77 67 71 56 60 71 56 55
3330.0 46 73 54 79 78 61 75 55 73 81
3370.0 96 59 57 45 72 79 57 83 53 68
3410.0 59 76 73 48 84 66 79 52 62 48
3450.0 66 78 68 67 46 83 74 85 89 87
3490.0 98 94 86 77 81 61 99 113 88 37
3530.0 67 67 68 51 17 47 73 55 50 26
3570.0 59 57 45 96 90 80 71 34 85 41
3610.0 71 51 69 72 58 104 62 72 55 59
3650.0 90 56 89 39 78 88 133 101 89 79
3690.0 146 98 71 86 65 129 110 133 124 50
3730.0 80 44 49 52 198 101 118 75 84 59
3770.0 70 89 30 55 60 83 62 128 84 181
3810.0 27 118 79 95 93 58 103 107 98 83
3850.0 110 120 84 38 58 127 95 59 32 121
3890.0 102 93 77 138 76 141 232 251 221 234
3930.0 222 164 174 194 268 178 138 119 148 139
##END=
