##TITLE=Ethane
##JCAMP-DX=4.24
##DATA TYPE=INFRARED SPECTRUM
##ORIGIN=Sadtler Research Labs Under US-EPA Contract
##OWNER=NIST Standard Reference Data Program
##CAS REGISTRY NO=74-84-0
##MOLFORM=C 2 H 6
##XUNITS=1/CM
##YUNITS=ABSORBANCE
##XFACTOR=1.0
##YFACTOR=0.000038718
##DELTAX=4.0
##FIRSTX=450.0
##LASTX=3966.0
##FIRSTY=0.013164
##MAXX=3966
##MINX=450
##MAXY=0.38718
##MINY=0
##NPOINTS=880
##XYDATA=(X++(Y..Y))
450.0 340 312 140 246 236 116 152 87 111 177
490.0 138 123 127 159 127 125 143 134 74 60
530.0 132 134 111 111 135 68 170 103 99 130
570.0 147 103 153 130 105 113 75 143 104 94
610.0 122 124 113 115 151 120 140 106 115 126
650.0 123 100 103 119 160 128 146 128 131 109
690.0 134 113 28 53 103 94 124 113 102 84
730.0 124 117 123 131 151 150 160 184 198 224
770.0 252 276 278 307 337 368 393 431 466 507
810.0 536 584 569 611 669 645 671 656 585 607
850.0 572 570 507 500 471 442 400 371 336 298
890.0 275 252 219 201 183 167 160 133 136 117
930.0 111 119 106 109 99 109 96 94 95 100
970.0 88 82 98 88 94 93 89 86 83 96
1010.0 78 89 84 98 78 83 87 93 93 89
1050.0 73 79 82 83 82 78 94 76 81 73
1090.0 79 81 69 87 82 83 73 85 84 79
1130.0 83 78 77 87 86 72 83 78 82 82
1170.0 85 80 76 77 78 77 78 82 83 78
1210.0 78 81 82 76 84 80 92 80 88 78
1250.0 74 87 84 92 77 87 80 86 76 91
1290.0 80 89 95 88 92 100 109 95 117 113
1330.0 115 127 143 152 158 197 213 267 267 356
1370.0 368 456 550 433 346 486 546 652 718 768
1410.0 793 726 751 719 779 715 786 819 865 972
1450.0 909 1030 1019 1094 949 1207 1065 1051 815 890
1490.0 852 976 779 853 814 894 811 731 744 723
1530.0 668 571 615 573 519 454 430 417 338 341
1570.0 292 286 239 239 197 197 170 172 146 122
1610.0 124 101 105 94 91 95 84 81 81 74
1650.0 67 76 61 83 63 63 53 63 64 63
1690.0 58 61 60 45 61 66 68 62 59 64
1730.0 61 61 60 68 60 67 58 65 64 65
1770.0 64 55 65 57 56 54 59 56 58 47
1810.0 55 58 54 55 48 53 52 52 46 54
1850.0 47 46 45 46 43 37 36 42 36 33
1890.0 36 31 33 36 36 38 27 40 32 31
1930.0 32 35 34 37 35 31 27 31 35 27
1970.0 34 26 29 29 32 33 31 29 34 38
2010.0 32 37 28 31 38 36 36 37 36 33
2050.0 31 27 37 35 27 35 31 26 26 28
2090.0 23 23 28 23 25 27 28 25 27 20
2130.0 23 20 22 25 23 20 28 29 24 26
2170.0 23 28 27 35 28 33 29 29 39 39
2210.0 43 34 42 39 41 38 45 44 42 35
2250.0 31 34 31 32 28 27 26 28 35 22
2290.0 27 33 27 24 33 15 20 34 23 39
2330.0 41 61 36 62 28 57 38 53 47 64
2370.0 54 18 33 51 66 76 77 55 29 4
2410.0 6 6 7 11 2 3 14 11 7 5
2450.0 9 14 12 9 9 4 13 3 11 11
2490.0 11 15 17 9 14 11 8 18 17 14
2530.0 11 15 17 9 19 9 20 18 21 19
2570.0 20 32 26 32 36 33 34 40 42 52
2610.0 58 56 59 56 68 63 77 62 67 64
2650.0 71 67 77 75 80 87 81 81 76 82
2690.0 82 87 92 92 89 100 103 118 130 134
2730.0 150 170 173 173 175 210 319 225 173 243
2770.0 282 351 380 358 312 263 258 236 266 267
2810.0 318 335 379 410 463 527 597 729 834 1024
2850.0 1214 1511 1849 2317 2860 3465 4013 4345 4425 4198
2890.0 4987 6039 4776 3682 4521 5506 6741 7644 8550 9109
2930.0 9265 9418 8745 8348 8014 8917 10000 9632 7890 9318
2970.0 9557 9908 9258 8898 8753 8200 8095 7546 8204 8173
3010.0 8114 7026 7127 6426 6198 5661 5242 4779 4312 3947
3050.0 3551 3009 2670 2317 2015 1706 1400 1200 978 842
3090.0 681 575 474 402 356 288 258 224 202 171
3130.0 172 152 142 131 109 127 100 124 105 109
3170.0 101 100 99 107 115 97 101 100 106 114
3210.0 121 92 105 119 99 108 84 102 88 105
3250.0 93 93 96 93 88 75 83 74 66 64
3290.0 57 41 59 57 48 24 34 41 28 31
3330.0 16 25 28 35 21 32 22 18 36 24
3370.0 23 24 18 31 26 29 31 34 32 24
3410.0 20 49 31 34 25 42 55 26 27 28
3450.0 28 24 32 21 22 25 34 22 19 29
3490.0 24 24 23 28 16 17 26 24 27 21
3530.0 24 22 19 22 9 5 29 26 41 20
3570.0 13 0 8 24 23 27 25 25 25 18
3610.0 2 16 18 21 22 25 40 38 45 40
3650.0 25 14 39 26 48 28 39 25 68 47
3690.0 58 45 52 23 64 38 57 75 66 80
3730.0 48 57 69 78 62 72 53 87 72 93
3770.0 87 78 59 57 84 62 55 21 96 76
3810.0 73 36 69 48 42 51 40 19 29 46
3850.0 5 5 9 35 32 16 23 58 37 28
3890.0 53 48 37 13 32 42 56 8 36 49
3930.0 33 28 32 58 61 59 53 60 38 53
##END=
