##TITLE=Acetylene
##JCAMP-DX=4.24
##DATA TYPE=INFRARED SPECTRUM
##ORIGIN=Sadtler Research Labs Under US-EPA Contract
##OWNER=NIST Standard Reference Data Program
##CAS REGISTRY NO=74-86-2
##MOLFORM=C 2 H 2
##XUNITS=1/CM
##YUNITS=ABSORBANCE
##XFACTOR=1.0
##YFACTOR=0.000093170
##DELTAX=4.0
##FIRSTX=450.0
##LASTX=3966.0
##FIRSTY=0.007174
##MAXX=3966
##MINX=450
##MAXY=0.9317
##MINY=0
##NPOINTS=880
##XYDATA=(X++(Y..Y))
450.0 77 56 108 109 0 56 72 59 94 50
490.0 70 58 101 78 47 28 50 88 50 88
530.0 28 47 63 81 64 68 70 40 44 38
570.0 85 42 60 53 69 27 46 91 18 54
610.0 59 81 56 85 47 86 85 123 147 176
650.0 245 310 406 545 756 989 1112 1225 1481 1646
690.0 1892 2029 1999 2111 2163 2275 2102 2456 3067 1796
730.0 7972 10000 2090 2407 2357 2512 2555 2819 2794 2553
770.0 2295 1896 1721 1438 1338 992 797 621 500 366
810.0 274 238 137 122 64 95 46 61 55 40
850.0 33 40 55 27 47 37 49 32 53 38
890.0 36 50 38 45 35 46 29 37 33 47
930.0 33 38 40 36 41 36 44 35 42 35
970.0 35 31 33 40 36 45 36 37 31 40
1010.0 38 40 29 37 33 28 35 36 40 31
1050.0 40 35 38 35 35 35 40 40 37 37
1090.0 37 40 38 35 33 33 36 37 35 36
1130.0 37 35 38 37 37 40 35 37 35 42
1170.0 38 41 46 47 51 60 61 67 74 69
1210.0 78 81 83 74 76 86 85 85 99 100
1250.0 106 138 177 229 287 354 442 519 620 675
1290.0 746 788 830 816 769 683 579 530 382 268
1330.0 338 419 602 702 767 808 828 826 799 752
1370.0 666 593 541 489 402 309 242 190 169 129
1410.0 106 79 61 58 54 50 40 50 45 46
1450.0 40 40 38 42 40 44 38 32 35 35
1490.0 28 33 38 33 35 24 23 28 31 31
1530.0 28 27 36 27 26 33 35 38 44 33
1570.0 36 28 42 33 35 36 32 35 29 33
1610.0 31 32 38 31 36 26 40 28 35 27
1650.0 33 36 41 27 33 35 33 27 32 41
1690.0 33 41 50 54 55 60 64 76 79 81
1730.0 87 94 96 92 82 83 83 70 69 63
1770.0 53 51 45 41 44 37 36 31 32 32
1810.0 32 27 32 28 32 28 26 32 26 27
1850.0 29 29 29 27 28 27 29 28 28 27
1890.0 32 26 27 28 33 27 32 27 27 24
1930.0 26 32 31 37 33 29 29 27 31 26
1970.0 32 29 32 28 31 23 26 26 27 29
2010.0 29 31 28 28 29 31 24 24 24 27
2050.0 26 24 23 22 27 26 29 27 28 26
2090.0 26 26 27 27 26 27 24 27 26 29
2130.0 31 27 24 27 27 24 24 27 32 24
2170.0 33 36 31 28 23 28 24 27 24 26
2210.0 22 23 26 27 22 20 27 22 24 19
2250.0 20 26 22 24 20 19 20 24 24 23
2290.0 26 23 27 27 27 29 28 18 23 17
2330.0 18 12 17 13 23 35 19 27 22 22
2370.0 19 33 32 33 32 23 23 23 26 23
2410.0 24 24 23 19 20 18 20 20 19 19
2450.0 17 23 17 17 18 22 15 19 18 15
2490.0 19 19 22 15 19 15 20 19 20 20
2530.0 17 13 14 17 13 18 19 17 18 20
2570.0 23 19 24 20 20 24 24 20 24 28
2610.0 26 27 26 44 46 46 41 51 78 50
2650.0 37 41 31 37 53 68 41 35 70 45
2690.0 23 31 23 68 29 24 19 20 22 20
2730.0 20 20 24 17 18 19 15 17 18 15
2770.0 15 15 15 17 14 8 10 13 13 17
2810.0 14 17 18 18 19 14 18 15 13 14
2850.0 18 15 14 17 18 15 14 19 18 22
2890.0 15 18 20 20 20 24 23 26 19 22
2930.0 28 24 27 20 24 26 18 24 26 24
2970.0 37 29 26 19 20 29 28 23 20 26
3010.0 29 32 44 19 22 31 18 20 19 27
3050.0 22 23 22 20 14 18 20 20 15 23
3090.0 26 18 22 20 24 18 20 17 19 18
3130.0 14 27 18 28 17 27 20 31 33 37
3170.0 35 46 67 74 99 126 159 199 264 348
3210.0 415 502 647 802 920 1022 1165 1230 1375 1553
3250.0 1705 1768 1848 1755 1745 1586 1418 1197 922 1071
3290.0 1188 1175 1468 1696 1930 2104 2142 2037 1801 1604
3330.0 1373 1168 943 855 700 555 406 297 206 143
3370.0 106 63 59 32 37 20 31 15 19 26
3410.0 26 26 22 18 19 18 17 20 22 22
3450.0 28 26 28 20 28 14 28 22 22 15
3490.0 31 26 22 23 18 18 22 18 12 13
3530.0 20 19 28 24 17 10 19 19 22 17
3570.0 14 24 22 10 20 12 13 12 15 19
3610.0 24 12 19 26 26 22 23 22 26 15
3650.0 15 8 29 33 18 33 22 24 26 27
3690.0 15 13 14 19 28 20 24 8 23 17
3730.0 19 31 22 23 41 9 31 17 13 24
3770.0 14 28 14 22 27 24 17 19 26 33
3810.0 12 19 26 36 37 35 38 46 38 33
3850.0 53 47 41 29 36 47 47 79 135 55
3890.0 50 105 114 76 15 77 41 33 28 29
3930.0 24 35 45 27 29 27 41 10 20 8
##END=
