##TITLE=Methane, dibromo-
##JCAMP-DX=4.24
##DATA TYPE=INFRARED SPECTRUM
##ORIGIN=Sadtler Research Labs Under US-EPA Contract
##OWNER=NIST Standard Reference Data Program
##CAS REGISTRY NO=74-95-3
##MOLFORM=C H 2 Br 2
##XUNITS=1/CM
##YUNITS=ABSORBANCE
##XFACTOR=1.0
##YFACTOR=0.000123102
##DELTAX=4.0
##FIRSTX=450.0
##LASTX=3966.0
##FIRSTY=0.000000
##MAXX=3966
##MINX=450
##MAXY=1.23102
##MINY=0
##NPOINTS=880
##XYDATA=(X++(Y..Y))
450.0 0 216 286 240 242 367 295 299 268 283
490.0 256 237 262 227 226 213 238 209 236 234
530.0 245 266 301 297 303 329 339 359 368 387
570.0 430 419 409 411 456 497 454 396 430 443
610.0 469 528 647 929 1405 2358 3742 5922 8358 9740
650.0 10000 7752 9653 4409 1596 160 165 188 238 225
690.0 227 233 226 232 223 236 213 229 229 237
730.0 238 260 263 260 259 262 259 242 245 244
770.0 248 234 287 296 321 345 352 373 390 381
810.0 448 478 386 389 407 395 376 355 341 314
850.0 298 278 265 259 240 240 226 223 221 219
890.0 216 213 212 215 217 213 216 216 214 212
930.0 219 212 208 211 212 217 212 214 211 216
970.0 213 213 212 213 209 205 211 208 209 207
1010.0 206 206 209 209 215 209 208 212 212 213
1050.0 214 212 212 208 209 209 208 208 211 209
1090.0 211 207 211 212 207 207 211 209 207 205
1130.0 208 206 208 208 214 209 213 217 218 243
1170.0 314 551 1157 2571 5130 8027 7275 5965 7808 4792
1210.0 1650 586 419 447 450 478 420 396 371 219
1250.0 212 202 203 203 201 201 202 206 199 204
1290.0 199 206 201 204 202 199 199 197 202 198
1330.0 204 199 201 197 204 208 218 234 234 226
1370.0 229 222 202 203 201 201 198 198 202 197
1410.0 199 196 198 198 197 196 195 194 196 194
1450.0 193 193 191 194 194 195 193 193 195 192
1490.0 195 194 192 192 194 187 190 190 193 194
1530.0 192 194 191 195 191 191 190 192 193 193
1570.0 191 191 194 191 193 191 192 192 192 191
1610.0 190 188 191 191 186 190 190 190 191 190
1650.0 191 186 192 186 187 186 188 185 188 188
1690.0 188 187 185 186 187 188 184 187 184 187
1730.0 190 191 187 184 183 184 186 187 188 188
1770.0 186 191 193 193 192 186 183 186 183 186
1810.0 190 188 186 187 185 183 183 184 183 182
1850.0 182 185 183 184 181 181 183 183 184 184
1890.0 184 183 187 192 198 203 201 198 197 190
1930.0 178 180 178 178 177 180 177 180 178 176
1970.0 181 182 182 184 184 183 186 183 184 183
2010.0 182 182 182 182 180 181 180 182 181 181
2050.0 183 184 180 182 183 177 177 177 176 176
2090.0 176 176 176 177 174 174 176 177 175 176
2130.0 177 181 178 181 181 181 184 186 193 193
2170.0 202 204 206 211 217 219 222 226 229 237
2210.0 226 213 219 214 208 203 201 196 190 187
2250.0 185 183 183 180 180 183 182 182 182 185
2290.0 182 177 177 176 173 172 174 170 168 168
2330.0 166 167 163 173 172 173 164 172 168 177
2370.0 185 184 192 186 183 185 186 183 180 175
2410.0 177 177 175 174 171 171 168 166 164 166
2450.0 165 163 164 165 167 162 166 164 165 165
2490.0 165 165 163 163 163 163 160 162 160 160
2530.0 160 160 161 160 162 161 164 162 165 165
2570.0 167 173 181 193 207 232 237 219 224 216
2610.0 180 165 164 164 163 162 161 161 165 161
2650.0 168 164 166 163 165 164 162 163 163 163
2690.0 163 165 163 165 163 166 167 164 167 166
2730.0 168 168 170 170 167 171 168 168 167 173
2770.0 171 170 167 165 165 164 164 164 166 167
2810.0 168 167 171 170 168 168 167 167 165 166
2850.0 162 164 163 165 164 167 165 166 165 164
2890.0 167 162 164 164 164 162 162 164 163 165
2930.0 165 166 167 170 171 171 175 180 188 191
2970.0 199 211 223 231 242 255 265 282 283 299
3010.0 290 268 291 305 284 269 258 249 242 232
3050.0 231 226 227 219 223 219 213 246 235 209
3090.0 223 215 214 205 199 195 187 185 180 175
3130.0 174 173 168 165 163 162 164 162 164 166
3170.0 164 168 167 164 164 164 163 162 163 165
3210.0 164 163 166 164 164 162 167 167 167 163
3250.0 161 164 165 164 163 165 163 161 167 165
3290.0 163 166 165 164 161 164 166 165 164 165
3330.0 167 170 166 162 162 161 170 165 164 165
3370.0 167 171 168 163 163 164 165 165 166 167
3410.0 163 168 167 167 163 166 168 162 164 160
3450.0 164 165 168 172 165 162 163 165 167 167
3490.0 163 166 166 164 164 168 167 162 164 165
3530.0 168 167 166 162 166 170 165 174 172 180
3570.0 172 168 171 172 173 172 173 172 181 172
3610.0 170 167 167 171 172 178 178 170 174 172
3650.0 176 183 186 183 174 176 170 175 173 174
3690.0 166 172 168 166 172 167 171 167 168 171
3730.0 175 180 170 170 175 182 180 173 168 164
3770.0 172 171 168 166 171 166 165 168 168 176
3810.0 165 165 176 182 167 164 168 175 167 167
3850.0 170 170 183 178 174 176 184 180 180 170
3890.0 182 191 173 176 182 178 173 178 175 173
3930.0 174 162 164 172 160 167 170 176 174 166
##END=
