##TITLE=Propane
##JCAMP-DX=4.24
##DATA TYPE=INFRARED SPECTRUM
##ORIGIN=Sadtler Research Labs Under US-EPA Contract
##OWNER=NIST Standard Reference Data Program
##CAS REGISTRY NO=74-98-6
##MOLFORM=C 3 H 8
##XUNITS=1/CM
##YUNITS=ABSORBANCE
##XFACTOR=1.0
##YFACTOR=0.000052805
##DELTAX=4.0
##FIRSTX=450.0
##LASTX=3966.0
##FIRSTY=0.017161
##MAXX=3966
##MINX=450
##MAXY=0.52805
##MINY=0
##NPOINTS=880
##XYDATA=(X++(Y..Y))
450.0 325 173 2 116 46 12 21 57 41 17
490.0 38 31 49 46 33 44 67 20 43 12
530.0 19 88 59 57 47 48 67 43 74 58
570.0 48 26 41 63 59 35 23 62 45 45
610.0 39 38 49 48 68 59 47 27 31 49
650.0 43 44 38 54 62 39 59 55 68 48
690.0 54 49 14 60 65 76 101 111 108 110
730.0 122 127 122 116 199 196 136 151 137 127
770.0 120 118 102 99 86 90 77 82 67 76
810.0 57 49 58 49 50 57 53 58 50 49
850.0 54 81 84 64 64 58 65 76 61 77
890.0 69 67 76 98 99 101 96 83 99 106
930.0 99 101 111 106 88 68 66 53 44 50
970.0 44 41 39 36 35 33 28 26 36 42
1010.0 41 45 48 50 65 63 69 82 88 78
1050.0 80 91 74 76 96 105 96 76 56 48
1090.0 45 36 37 43 43 41 43 53 52 56
1130.0 64 72 78 87 84 85 79 83 94 110
1170.0 102 88 77 71 70 62 59 51 45 39
1210.0 37 36 34 37 36 37 37 41 43 37
1250.0 41 48 41 44 47 39 46 44 46 46
1290.0 51 61 60 73 83 123 135 166 166 169
1330.0 135 185 228 159 193 277 327 348 339 340
1370.0 303 417 478 285 382 446 502 519 440 361
1410.0 310 313 312 336 375 402 457 488 549 587
1450.0 646 675 634 669 725 1032 854 463 607 574
1490.0 568 540 490 459 395 374 317 288 227 213
1530.0 170 155 126 109 93 76 66 51 48 46
1570.0 46 46 39 38 34 41 35 39 34 42
1610.0 34 36 32 42 34 44 33 41 41 41
1650.0 41 36 32 46 37 39 30 46 36 45
1690.0 35 45 42 36 37 43 42 41 37 31
1730.0 35 19 30 26 28 29 21 25 20 26
1770.0 17 24 19 22 12 26 14 20 20 14
1810.0 20 19 17 11 13 15 18 19 23 17
1850.0 14 18 13 18 16 16 9 19 10 13
1890.0 8 7 17 15 13 17 15 13 14 17
1930.0 19 18 15 20 15 15 7 18 10 9
1970.0 12 5 8 6 11 7 8 6 8 9
2010.0 13 12 8 8 10 10 12 19 14 12
2050.0 11 9 16 13 9 5 10 4 10 5
2090.0 8 8 8 7 4 7 4 8 8 8
2130.0 4 11 7 7 6 2 10 1 9 5
2170.0 6 7 9 7 5 9 6 11 13 13
2210.0 11 17 14 17 19 16 22 18 20 13
2250.0 13 14 22 17 11 5 4 6 7 13
2290.0 10 18 17 17 18 17 11 15 10 2
2330.0 5 2 2 2 2 14 3 16 2 15
2370.0 5 9 12 24 24 17 23 15 18 10
2410.0 16 14 20 14 16 16 16 19 21 17
2450.0 12 20 18 24 18 19 17 14 21 18
2490.0 20 14 24 17 23 22 22 16 20 16
2530.0 14 16 17 21 14 14 14 15 19 18
2570.0 19 25 27 34 35 28 41 41 46 47
2610.0 46 54 52 59 52 57 56 61 61 62
2650.0 68 58 61 54 62 59 64 51 56 53
2690.0 46 50 47 58 48 60 61 78 82 94
2730.0 99 109 118 128 163 134 143 158 182 176
2770.0 171 166 172 177 171 186 174 183 194 217
2810.0 219 250 284 311 367 411 457 461 539 599
2850.0 773 978 1295 1697 2116 2579 2769 2625 2161 2771
2890.0 2939 3086 3546 3926 3907 3759 3738 3896 4316 4488
2930.0 4791 5010 5313 5607 6315 6868 7397 8567 8325 9196
2970.0 10000 7147 7165 7236 7007 6473 5549 4681 3765 3118
3010.0 2435 1968 1523 1198 906 689 536 398 320 238
3050.0 233 176 181 152 147 140 142 143 128 141
3090.0 120 136 131 151 133 120 126 130 134 115
3130.0 132 109 124 117 133 124 126 141 135 131
3170.0 134 138 131 134 130 124 115 119 114 102
3210.0 103 82 98 75 78 66 58 57 53 49
3250.0 38 38 32 34 23 31 22 29 23 15
3290.0 23 20 30 22 28 14 39 35 48 50
3330.0 39 43 33 46 45 52 38 49 36 45
3370.0 29 24 21 30 20 21 25 16 23 12
3410.0 20 19 18 17 19 24 20 24 11 30
3450.0 22 22 16 14 17 26 26 22 21 13
3490.0 24 22 26 18 17 23 14 22 11 28
3530.0 19 16 17 21 14 10 19 9 43 12
3570.0 19 22 18 10 17 25 9 33 18 22
3610.0 6 21 24 35 20 4 32 28 41 49
3650.0 33 23 34 24 50 25 49 25 60 36
3690.0 54 41 25 32 29 29 33 39 44 41
3730.0 27 20 37 38 0 39 16 34 39 34
3770.0 29 30 43 22 43 59 33 22 62 51
3810.0 67 37 52 50 63 55 49 41 47 62
3850.0 46 15 34 28 24 18 30 45 56 16
3890.0 37 17 22 5 51 28 30 17 19 50
3930.0 36 27 46 39 3 46 37 42 25 43
##END=
