##TITLE=Ethane, bromo-
##JCAMP-DX=4.24
##DATA TYPE=INFRARED SPECTRUM
##ORIGIN=Sadtler Research Labs Under US-EPA Contract
##OWNER=NIST Standard Reference Data Program
##CAS REGISTRY NO=74-96-4
##MOLFORM=C 2 H 5 Br
##XUNITS=1/CM
##YUNITS=ABSORBANCE
##XFACTOR=1.0
##YFACTOR=0.000071631
##DELTAX=4.0
##FIRSTX=450.0
##LASTX=3966.0
##FIRSTY=0.015042
##MAXX=3966
##MINX=450
##MAXY=0.71631
##MINY=0
##NPOINTS=880
##XYDATA=(X++(Y..Y))
450.0 210 209 155 117 77 59 56 112 131 110
490.0 108 55 90 120 78 73 40 80 86 100
530.0 162 348 631 980 1227 1878 2509 2931 3229 3118
570.0 3067 3480 3487 3800 2811 1193 249 38 109 177
610.0 218 143 156 83 73 17 18 69 57 82
650.0 102 85 44 74 70 102 52 5 129 151
690.0 151 71 59 92 155 118 107 91 71 135
730.0 204 243 270 286 269 319 367 389 437 514
770.0 663 444 448 416 444 406 386 347 337 272
810.0 271 229 149 147 154 77 110 93 90 63
850.0 72 59 40 67 27 27 34 48 49 62
890.0 27 57 68 80 55 55 90 103 144 226
930.0 371 624 1069 1654 2266 2743 2804 2662 2703 2709
970.0 3226 3178 2391 1515 941 568 542 502 437 415
1010.0 326 323 352 283 177 152 138 143 80 87
1050.0 100 94 79 71 75 76 84 85 68 51
1090.0 23 17 38 45 44 76 45 13 29 39
1130.0 35 46 63 27 39 57 57 57 59 46
1170.0 42 54 73 108 137 151 180 218 263 384
1210.0 518 772 1316 2061 3226 4536 5853 7018 7759 9241
1250.0 9911 10000 9569 8036 7376 6633 5190 3684 2401 1451
1290.0 836 477 304 231 170 149 139 111 76 96
1330.0 104 103 100 99 159 190 204 281 350 466
1370.0 636 703 761 740 692 1028 1320 1297 1206 1134
1410.0 1133 1189 1199 1314 1381 1437 1455 1447 1460 1561
1450.0 2397 1825 1303 1172 1133 1159 1106 1025 906 784
1490.0 636 581 483 413 364 259 232 210 190 173
1530.0 163 157 170 132 101 103 106 104 82 82
1570.0 66 69 67 51 45 44 51 52 50 52
1610.0 59 66 73 61 63 56 65 57 72 65
1650.0 72 70 66 69 67 71 66 67 69 84
1690.0 71 78 71 44 57 57 51 54 46 53
1730.0 41 23 23 26 9 16 23 15 27 29
1770.0 14 27 27 19 18 25 14 21 15 28
1810.0 28 22 15 26 19 20 18 26 14 6
1850.0 14 15 21 21 14 12 16 15 20 20
1890.0 23 39 40 53 66 68 81 75 81 86
1930.0 77 79 64 47 33 38 27 25 33 40
1970.0 26 25 40 38 43 41 48 56 57 55
2010.0 60 66 59 53 45 39 39 44 29 27
2050.0 30 30 28 25 19 30 18 10 24 18
2090.0 23 24 17 24 24 28 30 29 25 31
2130.0 31 37 31 23 17 22 37 45 40 48
2170.0 56 62 69 90 98 105 112 128 140 147
2210.0 162 179 144 127 120 113 119 98 90 76
2250.0 62 62 51 44 51 44 34 37 32 29
2290.0 34 42 35 47 58 66 90 94 107 141
2330.0 142 182 152 157 159 132 158 178 208 186
2370.0 147 108 95 63 49 48 59 67 67 74
2410.0 74 82 83 111 126 129 138 130 123 125
2450.0 170 157 144 107 80 73 77 88 82 80
2490.0 70 59 60 52 46 53 38 32 31 24
2530.0 24 26 22 18 18 9 12 11 11 10
2570.0 17 18 17 26 17 18 22 22 17 22
2610.0 18 25 17 18 24 32 23 40 42 42
2650.0 41 44 47 55 64 66 79 87 109 114
2690.0 132 139 153 153 145 131 121 115 115 121
2730.0 130 136 156 150 148 135 176 189 157 123
2770.0 90 74 66 66 73 81 83 95 113 120
2810.0 137 151 173 211 234 273 287 293 300 301
2850.0 371 465 564 830 1199 1675 1912 1712 1512 1803
2890.0 2121 2100 1805 1492 1257 1260 1630 2432 3376 4039
2930.0 3865 3228 3944 3827 4760 4649 3896 3305 3215 3563
2970.0 4083 4455 4700 4895 5145 5779 5705 5303 5188 4812
3010.0 4346 3884 3500 3484 3791 2473 2165 1912 1690 1488
3050.0 1268 1061 883 713 578 460 362 282 224 191
3090.0 169 129 118 104 83 90 89 83 81 86
3130.0 79 76 70 85 84 89 85 89 103 90
3170.0 119 118 108 103 113 126 129 132 140 141
3210.0 160 180 181 160 160 178 173 162 146 134
3250.0 150 148 133 106 97 91 104 83 82 54
3290.0 38 29 41 32 16 9 11 16 29 10
3330.0 16 21 25 20 8 13 15 20 8 17
3370.0 22 22 23 10 9 31 15 22 26 19
3410.0 24 15 20 8 8 10 23 23 31 35
3450.0 33 33 18 25 8 34 27 24 22 11
3490.0 16 17 9 9 12 15 21 13 13 4
3530.0 20 30 24 17 10 24 32 43 28 31
3570.0 15 43 33 21 12 10 25 17 11 23
3610.0 5 11 12 14 27 15 15 28 31 26
3650.0 11 18 12 24 41 24 20 30 31 38
3690.0 36 23 45 25 38 39 25 39 40 46
3730.0 47 41 43 52 41 65 61 52 74 66
3770.0 67 57 58 51 49 50 38 41 54 40
3810.0 39 39 67 45 61 58 51 72 56 57
3850.0 66 80 72 76 60 67 74 69 59 64
3890.0 62 66 85 80 86 81 82 75 60 47
3930.0 54 62 75 75 59 52 0 4 4 4
##END=
