##TITLE=Methane, bromochloro-
##JCAMP-DX=4.24
##DATA TYPE=INFRARED SPECTRUM
##ORIGIN=Sadtler Research Labs Under US-EPA Contract
##OWNER=NIST Standard Reference Data Program
##CAS REGISTRY NO=74-97-5
##MOLFORM=C H 2 Br Cl
##XUNITS=1/CM
##YUNITS=ABSORBANCE
##XFACTOR=1.0
##YFACTOR=0.000125330
##DELTAX=4.0
##FIRSTX=450.0
##LASTX=3966.0
##FIRSTY=0.022685
##MAXX=3966
##MINX=450
##MAXY=1.2533
##MINY=0
##NPOINTS=880
##XYDATA=(X++(Y..Y))
450.0 181 185 130 183 179 179 156 170 176 171
490.0 197 206 186 197 180 169 197 165 212 204
530.0 159 109 180 128 156 161 149 220 193 238
570.0 229 262 323 436 656 955 1462 2124 2796 3176
610.0 2985 3184 3685 3793 1510 289 190 285 296 303
650.0 254 271 227 156 88 131 122 118 111 113
690.0 150 160 200 260 432 727 1291 2202 3640 5790
730.0 7876 9802 10000 9596 9246 9507 7719 3241 740 126
770.0 123 83 104 62 58 12 36 57 38 35
810.0 29 50 51 80 90 119 115 133 149 159
850.0 249 180 141 148 157 151 143 123 107 94
890.0 84 77 58 53 45 37 28 29 17 14
930.0 17 19 23 19 12 14 19 16 11 14
970.0 7 14 11 9 7 5 7 10 12 5
1010.0 8 8 6 10 8 11 6 7 7 10
1050.0 11 16 14 15 13 17 24 23 23 14
1090.0 15 15 15 15 15 14 16 21 15 15
1130.0 13 16 13 13 14 17 23 23 24 19
1170.0 29 34 55 92 136 191 162 160 248 419
1210.0 905 2071 3958 5900 5986 4738 4417 6856 4877 2072
1250.0 562 93 17 8 15 10 23 19 25 17
1290.0 17 13 10 13 12 15 17 17 21 24
1330.0 24 31 34 42 53 62 78 84 87 92
1370.0 93 92 114 98 90 110 121 116 86 79
1410.0 75 74 62 53 52 51 58 67 78 86
1450.0 99 98 106 116 126 130 121 115 110 96
1490.0 94 69 46 41 48 47 54 56 64 66
1530.0 67 82 94 118 134 165 202 240 270 298
1570.0 318 308 296 258 252 313 307 276 254 206
1610.0 154 108 70 50 29 24 17 15 12 14
1650.0 10 14 6 6 10 5 10 9 10 11
1690.0 8 11 12 12 10 11 10 11 7 7
1730.0 7 11 9 9 7 6 6 8 10 10
1770.0 10 11 9 9 8 7 5 7 7 6
1810.0 5 7 6 7 7 10 9 8 8 7
1850.0 6 6 3 5 5 3 3 3 2 4
1890.0 3 4 2 4 4 5 6 6 5 6
1930.0 7 6 5 6 5 9 8 10 8 12
1970.0 16 21 29 25 22 19 26 19 11 8
2010.0 12 12 10 13 11 15 12 18 13 12
2050.0 8 12 12 14 13 10 13 12 11 9
2090.0 10 8 10 12 10 8 5 11 10 8
2130.0 10 10 13 10 14 15 15 15 14 19
2170.0 16 17 12 12 12 16 12 15 16 18
2210.0 22 22 27 29 36 39 41 45 49 51
2250.0 51 54 67 71 52 47 51 48 45 41
2290.0 40 39 39 35 33 31 28 34 27 25
2330.0 25 32 27 40 25 30 37 27 27 28
2370.0 15 19 24 26 17 13 17 13 14 10
2410.0 11 16 12 14 17 21 26 27 30 36
2450.0 33 25 34 33 26 21 21 16 15 9
2490.0 12 8 9 5 10 4 4 4 9 8
2530.0 10 9 9 7 9 5 6 9 6 9
2570.0 9 9 12 6 3 6 10 14 15 13
2610.0 16 16 12 22 30 37 46 53 66 63
2650.0 55 64 60 43 21 19 10 14 14 24
2690.0 18 18 11 12 23 19 17 15 21 10
2730.0 18 15 14 19 21 17 22 22 17 25
2770.0 17 18 22 18 22 18 24 28 24 23
2810.0 30 26 24 25 23 25 24 28 17 28
2850.0 27 19 15 24 18 16 17 15 21 25
2890.0 26 25 29 22 18 14 22 21 30 34
2930.0 34 43 42 49 58 56 72 91 108 119
2970.0 147 165 178 216 239 274 313 317 225 232
3010.0 330 327 299 257 214 195 172 149 129 113
3050.0 92 68 59 51 54 49 33 41 42 37
3090.0 35 31 24 28 30 15 24 14 19 31
3130.0 24 24 8 11 22 10 23 11 21 15
3170.0 9 30 24 17 8 21 22 9 15 29
3210.0 10 12 23 10 27 29 18 6 30 23
3250.0 16 1 11 23 22 14 28 11 0 23
3290.0 24 30 1 15 22 29 25 29 17 12
3330.0 25 12 19 13 18 7 27 21 26 15
3370.0 31 19 19 10 16 24 29 28 35 25
3410.0 21 27 35 22 19 21 29 29 26 17
3450.0 25 27 29 25 24 17 14 23 23 22
3490.0 23 22 26 16 19 26 19 25 7 11
3530.0 32 12 21 13 21 17 14 17 30 17
3570.0 18 7 21 32 10 28 13 8 8 26
3610.0 25 33 35 19 38 18 14 30 21 8
3650.0 13 16 11 40 12 12 32 18 16 16
3690.0 24 8 24 31 33 26 5 25 16 7
3730.0 26 22 38 14 30 1 25 23 10 14
3770.0 15 11 31 24 10 12 17 27 11 22
3810.0 41 21 13 21 14 21 24 19 27 27
3850.0 26 37 38 19 0 23 31 19 55 58
3890.0 50 46 36 25 27 9 47 34 28 64
3930.0 31 17 25 60 47 40 17 12 49 40
##END=
