##TITLE=Acetic acid, cyanocycloheptylidene-, ethyl ester
##JCAMP-DX=4.24
##DATA TYPE=INFRARED SPECTRUM
##ORIGIN=Sadtler Research Labs Under US-EPA Contract
##OWNER=NIST Standard Reference Data Program
##CAS REGISTRY NO=7402-61-1
##MOLFORM=C 12 H 17 N O 2
##XUNITS=1/CM
##YUNITS=ABSORBANCE
##XFACTOR=1.0
##YFACTOR=0.000073215
##DELTAX=4.0
##FIRSTX=450.0
##LASTX=3966.0
##FIRSTY=0.015741
##MAXX=3966
##MINX=450
##MAXY=0.73215
##MINY=0
##NPOINTS=880
##XYDATA=(X++(Y..Y))
450.0 215 186 224 109 87 226 80 155 156 119
490.0 111 71 43 85 61 88 46 45 74 49
530.0 72 12 36 4 45 34 37 62 59 17
570.0 14 0 49 50 54 18 10 18 19 22
610.0 21 18 13 24 43 28 40 24 31 52
650.0 22 46 65 30 42 49 53 46 62 73
690.0 76 74 54 53 57 55 51 52 68 81
730.0 126 147 193 199 192 203 207 249 270 319
770.0 361 433 469 482 452 387 353 311 290 266
810.0 255 253 238 218 200 204 207 239 281 330
850.0 378 430 467 445 376 293 235 182 158 148
890.0 149 152 159 169 214 242 263 250 221 193
930.0 181 166 173 176 200 258 310 345 327 281
970.0 257 243 259 286 344 406 448 462 478 514
1010.0 597 754 990 1317 1722 2080 2248 2187 1935 1578
1050.0 1217 932 779 717 713 747 819 983 1304 1879
1090.0 2767 3855 4689 4872 4354 3468 2607 1928 1433 1097
1130.0 889 770 726 743 825 976 1199 1439 1675 1925
1170.0 2304 2748 3089 3130 2928 2696 2567 2493 2422 2422
1210.0 2614 3092 3859 4990 6442 8019 9364 10000 9649 8298
1250.0 6658 5296 4555 4251 4220 4329 4414 4326 3992 3581
1290.0 3207 2887 2552 2231 1900 1601 1333 1109 942 820
1330.0 730 668 671 689 771 913 970 898 836 946
1370.0 1094 1056 813 568 477 441 437 432 430 438
1410.0 447 470 503 531 531 540 563 646 839 1111
1450.0 1389 1539 1533 1436 1345 1239 1094 900 699 516
1490.0 383 291 228 186 160 146 135 121 118 119
1530.0 114 121 132 135 152 170 186 204 250 287
1570.0 352 431 546 722 995 1437 1944 2399 2492 2265
1610.0 1785 1286 887 608 452 348 284 238 211 180
1650.0 175 163 167 164 172 188 204 233 266 314
1690.0 358 419 464 549 642 783 988 1280 1732 2425
1730.0 3698 5511 7265 7673 6796 4778 3281 2549 2173 1831
1770.0 1482 1158 892 674 510 386 290 227 179 153
1810.0 128 110 92 84 70 57 50 43 44 39
1850.0 36 29 29 27 33 29 31 33 33 37
1890.0 35 33 32 30 26 24 23 23 21 23
1930.0 23 22 22 20 29 30 30 31 31 25
1970.0 21 19 21 16 18 19 13 11 14 16
2010.0 17 15 14 16 20 20 22 24 21 21
2050.0 21 22 19 21 22 25 32 34 40 37
2090.0 38 46 41 43 42 38 34 32 31 32
2130.0 33 26 26 26 21 20 16 15 22 17
2170.0 13 25 26 22 27 25 25 32 41 52
2210.0 76 117 183 251 294 284 221 139 80 46
2250.0 35 33 36 33 32 29 30 29 28 27
2290.0 26 24 27 31 32 37 42 41 47 55
2330.0 50 57 58 63 56 58 40 39 38 45
2370.0 38 47 50 43 30 27 21 24 22 16
2410.0 18 19 22 18 18 18 11 13 10 14
2450.0 15 12 10 12 13 11 8 14 6 7
2490.0 10 5 3 11 9 5 8 9 6 5
2530.0 7 9 12 7 10 10 8 9 8 4
2570.0 0 5 5 6 11 13 15 12 19 16
2610.0 16 19 22 28 26 31 32 36 36 38
2650.0 39 38 35 42 50 56 62 78 81 94
2690.0 92 88 82 75 68 57 54 48 46 41
2730.0 44 40 38 37 38 38 43 50 54 56
2770.0 64 73 81 85 92 104 105 122 145 157
2810.0 171 180 183 191 203 216 230 255 296 369
2850.0 506 749 1203 1761 2170 2259 2099 1860 1619 1410
2890.0 1274 1204 1211 1309 1485 1743 2107 2546 3064 3798
2930.0 4965 6482 8048 8673 7939 6131 4274 3041 2350 2027
2970.0 1830 1708 1647 1782 2017 2090 1895 1511 1213 1010
3010.0 850 703 575 452 355 289 240 205 170 156
3050.0 141 125 110 104 93 86 78 77 74 70
3090.0 65 62 59 61 66 66 55 55 53 44
3130.0 44 44 44 35 34 37 34 30 32 38
3170.0 25 22 22 27 27 28 23 22 24 24
3210.0 19 21 21 24 23 17 19 21 19 19
3250.0 20 22 16 18 23 26 21 18 20 16
3290.0 16 17 21 15 16 15 20 22 17 18
3330.0 21 31 25 26 23 24 19 22 24 13
3370.0 14 18 20 26 15 29 25 24 26 27
3410.0 26 32 31 30 26 34 33 34 35 39
3450.0 43 55 72 71 61 57 46 30 23 26
3490.0 18 17 11 14 16 15 13 17 8 9
3530.0 14 20 18 0 7 9 13 14 9 5
3570.0 14 7 10 22 20 17 13 8 11 9
3610.0 10 22 19 10 9 16 16 14 2 20
3650.0 12 15 15 16 13 19 10 17 6 23
3690.0 20 15 21 10 21 31 24 11 19 32
3730.0 27 33 25 15 13 30 15 13 20 26
3770.0 2 19 19 18 36 7 21 20 39 23
3810.0 23 32 26 27 13 16 17 17 23 45
3850.0 29 39 26 23 22 10 6 34 26 48
3890.0 18 19 12 19 13 31 16 22 22 21
3930.0 24 34 21 12 3 26 32 16 8 30
##END=
