##TITLE=Acetamide, 2-chloro-N,N-diisopropyl-,
##JCAMP-DX=4.24
##DATA TYPE=INFRARED SPECTRUM
##ORIGIN=Sadtler Research Labs Under US-EPA Contract
##OWNER=NIST Standard Reference Data Program
##CAS REGISTRY NO=7403-66-9
##MOLFORM=C 8 H 16 Cl N O
##XUNITS=1/CM
##YUNITS=ABSORBANCE
##XFACTOR=1.0
##YFACTOR=0.000187051
##DELTAX=4.0
##FIRSTX=450.0
##LASTX=3966.0
##FIRSTY=0.049195
##MAXX=3966
##MINX=450
##MAXY=1.87051
##MINY=0
##NPOINTS=880
##XYDATA=(X++(Y..Y))
450.0 263 124 0 82 294 289 354 261 222 257
490.0 199 236 283 262 349 337 354 310 270 228
530.0 123 189 146 82 176 136 142 224 234 225
570.0 274 351 492 532 756 734 597 546 421 393
610.0 375 496 541 558 572 460 308 280 180 154
650.0 163 126 159 116 179 139 199 234 282 373
690.0 551 683 845 997 863 786 559 490 387 314
730.0 215 211 145 160 157 117 136 123 173 176
770.0 184 266 332 389 419 432 383 335 259 198
810.0 151 119 116 98 69 85 83 100 101 76
850.0 93 105 107 101 88 78 99 111 109 98
890.0 83 69 91 101 114 128 161 180 178 191
930.0 162 146 130 122 105 130 145 153 149 150
970.0 138 124 100 99 74 86 97 97 119 98
1010.0 97 101 117 157 198 296 405 596 759 756
1050.0 656 508 357 237 205 212 171 218 242 295
1090.0 335 453 534 685 926 1231 1456 1650 1670 1680
1130.0 1559 1455 1394 1316 1204 1090 997 978 929 918
1170.0 846 765 723 658 653 695 821 1050 1348 1638
1210.0 1833 1826 1645 1318 995 738 582 538 565 679
1250.0 843 1005 1084 1001 847 623 473 417 392 419
1290.0 459 513 626 804 1040 1400 1879 2509 3233 4044
1330.0 4599 4550 4039 3078 2118 1416 1086 1051 1204 1540
1370.0 1940 2321 2429 2144 1928 1496 1078 797 573 525
1410.0 585 664 890 1153 1481 1901 2244 2546 2782 2935
1450.0 2964 2691 2314 1781 1600 1373 1322 1185 1002 788
1490.0 543 403 294 259 305 248 221 242 239 209
1530.0 199 187 204 216 210 180 185 229 182 186
1570.0 159 173 175 141 152 159 146 188 161 208
1610.0 232 259 343 360 461 481 581 702 745 1023
1650.0 1313 1842 3038 4259 7307 9096 9513 10000 7804 5014
1690.0 3006 1925 1342 1042 723 520 416 321 286 222
1730.0 224 243 173 182 173 169 162 144 151 131
1770.0 148 146 115 119 104 105 107 88 96 81
1810.0 78 88 74 81 84 84 76 64 78 76
1850.0 60 45 43 49 48 51 43 36 42 39
1890.0 43 41 34 35 32 29 28 24 32 21
1930.0 18 19 17 28 22 17 24 22 21 23
1970.0 20 16 14 17 15 20 22 17 17 15
2010.0 17 21 20 21 20 21 21 21 23 20
2050.0 18 20 18 21 22 21 20 21 20 18
2090.0 16 16 12 10 11 8 10 9 11 7
2130.0 9 12 11 11 14 10 12 11 11 10
2170.0 11 10 14 14 14 14 11 7 10 12
2210.0 12 12 16 18 20 21 23 22 24 25
2250.0 24 22 23 22 21 19 20 19 22 25
2290.0 26 29 31 34 34 32 34 27 26 26
2330.0 24 25 20 26 28 31 29 29 36 25
2370.0 32 28 26 27 24 19 19 15 18 16
2410.0 17 18 16 17 17 18 15 15 11 15
2450.0 16 15 15 15 15 15 14 16 20 22
2490.0 24 29 26 27 31 28 27 25 22 20
2530.0 19 20 21 24 23 22 24 22 21 23
2570.0 20 22 22 24 27 27 29 34 33 37
2610.0 39 42 43 43 44 38 37 35 33 36
2650.0 35 36 37 35 36 36 37 39 38 43
2690.0 45 48 46 49 49 46 49 55 58 70
2730.0 75 79 83 83 83 82 82 82 86 89
2770.0 86 87 87 89 87 89 89 99 104 108
2810.0 118 128 140 150 164 167 173 186 194 206
2850.0 228 251 296 341 420 526 652 793 910 978
2890.0 989 961 927 895 890 910 954 1017 1118 1280
2930.0 1533 1839 2123 2271 2235 2042 1870 1874 2156 2817
2970.0 3647 4309 4395 3921 3129 2385 1894 1615 1516 1507
3010.0 1482 1378 1158 873 621 448 350 296 263 236
3050.0 210 193 182 170 164 161 151 139 141 138
3090.0 132 133 132 136 138 137 135 130 122 116
3130.0 106 106 100 93 93 85 85 86 88 82
3170.0 82 80 81 79 80 76 75 75 69 61
3210.0 58 59 50 43 43 43 36 34 36 34
3250.0 30 26 28 26 29 25 27 30 32 35
3290.0 31 35 42 44 49 57 66 74 86 97
3330.0 102 105 91 78 63 48 35 29 22 26
3370.0 27 23 25 20 21 19 15 21 19 17
3410.0 16 16 17 20 20 16 14 18 20 24
3450.0 22 21 17 16 17 22 21 21 25 27
3490.0 22 19 19 18 18 17 17 22 21 12
3530.0 16 18 14 15 11 18 18 24 20 21
3570.0 11 12 20 21 16 19 18 14 19 18
3610.0 23 11 15 17 12 15 18 12 11 14
3650.0 11 14 14 18 15 17 14 24 15 15
3690.0 7 16 16 7 12 17 14 17 7 8
3730.0 9 22 27 19 29 19 18 27 11 22
3770.0 15 21 15 12 16 10 17 12 20 21
3810.0 22 20 21 33 22 28 27 21 28 11
3850.0 36 21 14 17 22 22 24 16 18 31
3890.0 24 21 6 21 28 25 29 29 28 7
3930.0 18 15 7 9 18 42 25 21 7 8
##END=
