##TITLE=Propionic acid, 3-dodecyloxy-,
##JCAMP-DX=4.24
##DATA TYPE=INFRARED SPECTRUM
##ORIGIN=Sadtler Research Labs Under US-EPA Contract
##OWNER=NIST Standard Reference Data Program
##CAS REGISTRY NO=7420-11-3
##MOLFORM=C 16 H 32 O 3
##XUNITS=1/CM
##YUNITS=ABSORBANCE
##XFACTOR=1.0
##YFACTOR=0.000077359
##DELTAX=4.0
##FIRSTX=450.0
##LASTX=3966.0
##FIRSTY=0.034347
##MAXX=3966
##MINX=450
##MAXY=0.77359
##MINY=0
##NPOINTS=880
##XYDATA=(X++(Y..Y))
450.0 444 490 335 508 44 252 270 348 329 0
490.0 72 228 324 401 235 189 215 175 270 264
530.0 275 310 212 278 97 198 304 101 234 155
570.0 210 260 179 215 155 128 276 235 209 232
610.0 206 243 145 145 108 215 203 182 213 223
650.0 198 238 222 197 213 274 137 169 203 186
690.0 297 195 247 314 311 355 319 364 274 407
730.0 439 232 433 415 328 26 342 188 207 233
770.0 207 278 204 223 239 174 220 188 252 279
810.0 274 279 259 307 353 333 366 380 411 407
850.0 351 349 315 303 279 278 285 263 250 248
890.0 226 246 221 221 221 214 238 232 223 230
930.0 224 245 248 267 271 267 293 282 313 349
970.0 366 389 391 406 429 442 504 545 585 613
1010.0 640 697 727 766 769 742 731 710 741 777
1050.0 805 916 1022 1121 1273 1381 1476 1508 1513 1529
1090.0 1580 1745 2003 2437 2977 3561 4053 4271 4183 3822
1130.0 3282 2706 2197 1827 1608 1514 1531 1620 1814 2073
1170.0 2378 2712 2936 3018 2968 2856 2774 2640 2425 2156
1210.0 1902 1727 1621 1566 1558 1583 1622 1637 1643 1666
1250.0 1685 1728 1730 1683 1582 1421 1281 1142 1059 1006
1290.0 971 960 940 936 927 922 930 927 931 926
1330.0 904 898 909 960 1038 1160 1310 1404 1448 1464
1370.0 1445 1395 1256 1053 839 661 546 486 469 464
1410.0 470 499 540 565 603 699 916 1204 1325 1232
1450.0 1079 1058 1091 1139 1116 1041 905 726 581 495
1490.0 406 323 283 255 241 228 196 197 188 172
1530.0 166 157 173 165 159 143 153 171 155 141
1570.0 140 141 138 123 130 118 124 118 112 121
1610.0 105 122 110 108 105 99 111 110 96 110
1650.0 112 132 114 97 121 111 124 116 135 150
1690.0 144 147 189 212 229 262 324 422 487 608
1730.0 769 969 1225 1485 1883 2379 3006 3768 4249 4120
1770.0 3422 2554 1865 1377 1037 777 579 419 318 245
1810.0 189 161 129 114 101 97 86 78 73 83
1850.0 71 80 85 69 65 71 64 61 63 63
1890.0 59 66 63 65 61 64 64 69 65 64
1930.0 61 64 66 65 68 62 70 70 70 68
1970.0 69 65 72 71 68 74 69 71 68 72
2010.0 76 75 81 82 86 84 78 80 83 88
2050.0 80 76 82 75 73 67 71 73 69 69
2090.0 65 59 58 54 49 49 43 48 46 45
2130.0 43 44 44 40 41 42 41 39 36 33
2170.0 36 35 39 37 30 33 28 29 30 27
2210.0 29 25 24 19 21 18 18 19 15 18
2250.0 18 19 21 22 24 23 26 27 30 33
2290.0 37 38 44 44 47 57 54 51 46 41
2330.0 39 48 38 46 42 47 46 59 60 45
2370.0 40 42 40 38 32 26 30 31 26 32
2410.0 30 27 32 33 34 32 30 32 32 26
2450.0 32 31 30 25 21 22 26 26 26 24
2490.0 26 27 27 19 29 30 31 25 32 33
2530.0 34 32 36 41 38 40 38 38 38 41
2570.0 37 41 49 52 50 54 54 60 68 66
2610.0 65 69 64 73 72 77 77 79 80 83
2650.0 87 89 95 97 103 104 111 117 119 128
2690.0 128 129 129 134 133 141 145 151 153 159
2730.0 165 176 180 187 182 184 186 187 191 192
2770.0 197 210 223 246 273 293 327 356 381 392
2810.0 415 431 455 503 553 623 718 858 1078 1397
2850.0 1898 2663 3706 4678 5036 4808 4308 3771 3320 2945
2890.0 2630 2458 2498 2736 3105 3579 4109 4806 5887 7447
2930.0 9149 10000 9541 8317 6885 5610 4646 4144 3985 3818
2970.0 3417 2755 2028 1521 1234 1052 918 821 748 664
3010.0 587 526 487 451 430 404 377 325 288 253
3050.0 237 208 187 174 162 154 144 131 126 128
3090.0 128 121 111 113 106 102 105 94 87 90
3130.0 84 83 72 71 67 68 67 75 68 61
3170.0 63 56 54 55 51 51 58 55 53 43
3210.0 45 50 36 31 33 36 33 23 22 25
3250.0 24 24 24 26 27 30 21 22 18 26
3290.0 24 31 25 20 19 28 23 14 21 23
3330.0 21 36 23 21 16 21 26 19 17 20
3370.0 25 14 27 18 21 20 28 29 21 20
3410.0 34 24 29 23 33 29 22 29 21 28
3450.0 32 29 24 32 35 36 36 32 40 43
3490.0 39 51 56 47 61 55 51 45 44 55
3530.0 28 35 34 34 25 39 20 44 35 46
3570.0 40 48 37 38 46 51 26 21 35 35
3610.0 39 36 36 36 63 33 56 19 41 45
3650.0 53 30 36 22 38 57 32 39 38 56
3690.0 32 41 22 38 34 31 21 34 32 45
3730.0 36 49 31 11 78 29 40 14 16 36
3770.0 31 32 15 42 44 39 37 27 33 21
3810.0 26 22 38 16 41 41 14 46 59 48
3850.0 62 32 19 19 38 35 55 65 28 24
3890.0 40 39 29 42 38 23 42 38 46 24
3930.0 34 14 22 77 63 42 71 25 37 81
##END=
