##TITLE=Cyclohexane,1,2-dibromo-,trans-
##JCAMP-DX=4.24
##DATA TYPE=INFRARED SPECTRUM
##ORIGIN=Sadtler Research Labs Under US-EPA Contract
##OWNER=NIST Standard Reference Data Program
##CAS REGISTRY NO=7429-37-0
##MOLFORM=C 6 H 10 Br 2
##XUNITS=1/CM
##YUNITS=ABSORBANCE
##XFACTOR=1.0
##YFACTOR=0.000122107
##DELTAX=4.0
##FIRSTX=450.0
##LASTX=3966.0
##FIRSTY=0.000000
##MAXX=3966
##MINX=450
##MAXY=1.22107
##MINY=0
##NPOINTS=880
##XYDATA=(X++(Y..Y))
450.0 0 71 74 149 120 157 191 184 235 225
490.0 271 181 186 128 53 118 155 210 186 262
530.0 410 928 1865 2966 3481 3302 2027 1034 613 237
570.0 70 128 90 115 120 104 100 113 110 129
610.0 119 114 112 94 130 113 168 175 225 281
650.0 368 623 1097 1438 1391 916 508 234 391 635
690.0 859 1032 1159 993 788 633 315 212 166 143
730.0 142 116 102 106 102 108 106 114 118 128
770.0 157 147 158 160 152 176 193 283 383 537
810.0 686 750 696 589 450 334 293 335 302 323
850.0 352 457 649 665 602 361 225 156 123 144
890.0 171 297 530 926 1044 939 607 244 158 161
930.0 173 196 190 193 183 183 200 204 264 379
970.0 546 651 642 573 526 748 1406 1912 1995 1563
1010.0 816 323 192 134 146 141 142 126 140 120
1050.0 120 91 106 86 83 81 58 103 88 113
1090.0 106 118 122 114 148 165 217 235 260 276
1130.0 278 242 185 122 105 142 322 663 924 1160
1170.0 1168 1892 3045 3744 3655 2289 1119 922 849 739
1210.0 604 482 342 312 304 328 351 346 379 423
1250.0 546 682 792 846 836 787 690 587 473 374
1290.0 269 210 184 169 167 172 192 283 355 408
1330.0 451 447 498 566 546 468 422 431 425 391
1370.0 271 139 115 107 128 120 134 131 140 145
1410.0 155 172 197 242 405 779 1217 1809 2177 1967
1450.0 2051 1961 1673 1385 1098 903 676 405 285 201
1490.0 173 143 127 122 110 109 97 101 101 94
1530.0 94 96 100 103 88 97 81 88 79 72
1570.0 72 68 69 54 57 55 57 75 65 82
1610.0 83 93 95 95 97 98 101 113 101 114
1650.0 99 120 108 101 106 95 101 103 97 107
1690.0 90 100 92 99 89 89 97 97 104 101
1730.0 103 106 105 105 102 106 112 100 108 101
1770.0 110 101 103 106 97 104 100 101 100 108
1810.0 106 102 107 101 99 101 95 100 99 105
1850.0 106 100 108 100 103 100 100 104 100 109
1890.0 107 111 109 105 105 98 110 108 109 113
1930.0 109 110 103 103 107 99 103 102 106 101
1970.0 101 104 99 108 100 101 103 99 101 97
2010.0 98 97 101 105 101 112 111 111 113 106
2050.0 114 106 108 115 119 126 121 120 106 105
2090.0 98 88 91 87 94 95 100 107 107 113
2130.0 108 104 105 101 108 108 117 127 132 141
2170.0 129 128 118 121 122 110 114 105 112 105
2210.0 105 109 103 104 97 100 101 101 102 97
2250.0 103 103 98 101 89 93 83 80 82 73
2290.0 79 72 75 70 63 61 53 61 53 56
2330.0 60 65 92 70 59 53 53 53 52 79
2370.0 95 107 121 116 119 112 116 110 103 103
2410.0 91 97 95 96 100 90 95 90 96 96
2450.0 93 99 90 99 103 109 116 117 127 118
2490.0 121 116 107 109 100 108 100 100 100 104
2530.0 108 109 113 107 103 106 102 104 105 112
2570.0 116 112 119 104 108 110 108 112 105 102
2610.0 102 92 103 97 104 98 105 111 118 118
2650.0 106 109 110 120 137 150 165 157 149 139
2690.0 128 127 123 132 131 122 131 127 132 117
2730.0 111 105 101 108 102 107 95 95 105 101
2770.0 114 119 138 145 146 170 157 160 159 160
2810.0 174 167 173 173 171 170 163 194 231 337
2850.0 493 701 923 1129 1514 2106 2447 2252 1825 1249
2890.0 875 756 726 759 826 904 1055 1206 1282 1446
2930.0 1685 2323 3348 5050 7310 9447 10000 9328 7341 4994
2970.0 3204 1554 794 546 362 393 492 540 461 351
3010.0 260 149 132 124 127 127 127 134 126 123
3050.0 123 111 111 99 99 96 81 113 93 98
3090.0 109 96 96 80 87 78 85 81 96 110
3130.0 85 79 75 67 91 81 84 76 71 71
3170.0 79 96 93 91 86 77 98 78 89 83
3210.0 70 82 73 85 73 81 82 89 86 79
3250.0 96 88 87 93 89 101 106 101 100 91
3290.0 99 72 91 76 89 86 85 98 76 77
3330.0 73 61 80 57 66 73 70 67 53 71
3370.0 71 69 67 69 95 66 72 80 80 93
3410.0 70 93 86 83 82 75 84 67 95 84
3450.0 91 77 76 73 67 65 71 72 66 56
3490.0 69 73 82 88 65 90 81 86 77 70
3530.0 80 67 71 69 82 95 85 83 83 91
3570.0 80 66 72 67 78 76 76 87 86 78
3610.0 82 79 81 84 95 78 88 80 81 90
3650.0 70 99 80 110 89 85 81 86 85 78
3690.0 57 83 58 89 89 81 75 74 88 60
3730.0 82 68 79 93 81 82 88 108 84 93
3770.0 94 66 83 82 70 82 79 89 76 78
3810.0 97 69 86 57 95 75 66 83 57 101
3850.0 56 72 66 53 76 60 62 77 63 101
3890.0 64 53 52 77 82 74 72 52 105 67
3930.0 61 90 69 98 108 90 89 72 98 95
##END=
