##TITLE=Propionic acid, 3-decyloxy-2-ethoxy-, methyl ester
##JCAMP-DX=4.24
##DATA TYPE=INFRARED SPECTRUM
##ORIGIN=Sadtler Research Labs Under US-EPA Contract
##OWNER=NIST Standard Reference Data Program
##CAS REGISTRY NO=7439-02-3
##MOLFORM=C 16 H 32 O 4
##XUNITS=1/CM
##YUNITS=ABSORBANCE
##XFACTOR=1.0
##YFACTOR=0.000072766
##DELTAX=4.0
##FIRSTX=450.0
##LASTX=3966.0
##FIRSTY=0.035146
##MAXX=3966
##MINX=450
##MAXY=0.72766
##MINY=0
##NPOINTS=880
##XYDATA=(X++(Y..Y))
450.0 483 294 78 303 174 268 268 369 322 0
490.0 67 194 338 305 223 241 276 220 249 265
530.0 334 385 252 354 202 255 267 197 336 311
570.0 321 267 234 304 189 222 321 347 327 340
610.0 330 362 187 197 242 285 293 290 222 260
650.0 259 212 212 247 219 242 125 194 199 247
690.0 275 220 199 293 309 306 321 370 286 354
730.0 383 273 241 371 524 200 313 208 258 221
770.0 233 246 209 201 253 229 239 256 325 329
810.0 310 331 382 375 433 411 430 454 514 482
850.0 459 449 436 425 414 393 376 347 364 351
890.0 354 371 348 356 374 366 365 381 374 396
930.0 374 386 403 419 420 437 465 461 481 518
970.0 533 593 637 678 730 771 852 905 960 976
1010.0 1009 1058 1080 1146 1160 1190 1204 1206 1239 1303
1050.0 1363 1474 1607 1706 1858 1983 2094 2163 2224 2326
1090.0 2514 2833 3285 3859 4543 5180 5831 6328 6562 6439
1130.0 6115 5660 5153 4611 4071 3612 3237 2995 2908 2953
1170.0 3115 3315 3460 3494 3407 3280 3163 3008 2743 2429
1210.0 2157 1975 1883 1839 1869 1914 1967 1982 2024 2052
1250.0 2076 2099 2097 2046 1922 1757 1614 1482 1407 1364
1290.0 1349 1339 1316 1287 1237 1209 1189 1187 1200 1221
1330.0 1220 1208 1226 1296 1429 1660 1912 1999 1884 1677
1370.0 1504 1387 1287 1185 1067 966 876 808 744 694
1410.0 667 658 688 706 747 851 1082 1372 1477 1416
1450.0 1293 1302 1345 1363 1301 1198 1079 903 738 606
1490.0 517 378 312 278 254 245 215 206 197 169
1530.0 178 163 161 154 158 159 149 156 142 145
1570.0 144 136 144 126 135 121 128 128 115 119
1610.0 114 124 104 113 110 100 112 111 102 110
1650.0 103 127 110 114 128 124 133 137 163 167
1690.0 180 195 236 281 321 381 464 590 697 858
1730.0 1054 1317 1664 2063 2579 3141 3724 4361 4726 4589
1770.0 3987 3205 2584 2091 1695 1348 1064 825 642 494
1810.0 380 308 241 208 165 148 129 107 100 103
1850.0 95 90 88 87 88 83 77 77 77 76
1890.0 77 76 78 76 74 81 84 92 85 85
1930.0 91 86 89 91 98 93 102 100 103 99
1970.0 102 100 105 99 95 103 102 103 98 97
2010.0 101 98 106 104 113 109 102 103 106 105
2050.0 103 98 98 89 91 88 91 91 86 86
2090.0 86 84 81 76 72 74 66 68 70 66
2130.0 63 62 64 61 65 61 58 58 59 55
2170.0 56 51 58 56 50 48 42 46 47 43
2210.0 43 41 41 37 38 29 29 32 33 29
2250.0 31 35 34 37 36 34 38 38 38 40
2290.0 44 46 47 51 55 67 65 56 56 62
2330.0 62 64 38 69 67 62 63 71 68 60
2370.0 43 53 36 39 35 17 21 19 11 22
2410.0 18 16 20 20 21 17 13 13 16 16
2450.0 16 17 15 14 13 12 16 12 17 16
2490.0 18 14 16 13 21 20 22 19 21 26
2530.0 27 28 30 33 31 31 34 34 36 33
2570.0 36 38 45 44 51 53 57 64 65 66
2610.0 60 69 66 75 73 77 79 81 85 87
2650.0 90 94 99 102 111 117 125 132 138 153
2690.0 159 167 182 186 189 196 207 213 216 226
2730.0 238 253 258 271 268 269 274 278 285 290
2770.0 301 317 340 367 393 426 461 495 531 563
2810.0 590 623 670 736 809 921 1069 1271 1579 2024
2850.0 2670 3550 4608 5530 5930 5794 5382 4877 4413 4054
2890.0 3729 3542 3558 3736 4085 4529 5061 5751 6707 8012
2930.0 9343 10000 9658 8716 7499 6321 5415 4944 4773 4580
2970.0 4082 3286 2425 1802 1427 1187 1027 905 808 713
3010.0 635 560 517 462 436 415 383 331 284 252
3050.0 233 209 184 173 151 143 140 130 124 122
3090.0 120 111 101 97 98 97 91 85 80 84
3130.0 73 71 61 64 65 62 60 61 56 55
3170.0 51 49 50 50 44 49 44 43 50 38
3210.0 37 34 35 31 23 29 30 31 25 21
3250.0 18 18 25 18 19 21 22 24 24 26
3290.0 25 27 21 11 20 23 16 18 17 19
3330.0 25 34 28 16 17 30 31 18 14 27
3370.0 22 16 27 23 36 35 21 33 32 32
3410.0 43 32 27 26 33 30 29 37 20 11
3450.0 31 25 27 26 32 16 22 31 19 37
3490.0 46 47 41 49 64 54 37 42 45 42
3530.0 29 34 38 39 32 62 42 72 78 130
3570.0 182 261 268 219 151 113 58 49 57 36
3610.0 33 46 25 20 58 42 70 24 32 29
3650.0 44 41 38 20 35 56 32 42 24 48
3690.0 24 24 21 48 31 20 31 30 25 59
3730.0 52 32 53 11 50 12 26 11 12 28
3770.0 18 27 11 22 31 22 32 29 14 11
3810.0 30 25 26 36 20 21 12 41 52 10
3850.0 57 11 11 10 30 33 23 28 17 20
3890.0 9 39 23 23 29 38 35 10 44 11
3930.0 41 11 22 27 46 54 36 32 35 39
##END=
