##TITLE=Cyclohexanol, 2-methyl-, trans-
##JCAMP-DX=4.24
##DATA TYPE=INFRARED SPECTRUM
##ORIGIN=Sadtler Research Labs Under US-EPA Contract
##OWNER=NIST Standard Reference Data Program
##CAS REGISTRY NO=7443-52-9
##MOLFORM=C 7 H 14 O
##XUNITS=1/CM
##YUNITS=ABSORBANCE
##XFACTOR=1.0
##YFACTOR=0.000095566
##DELTAX=4.0
##FIRSTX=450.0
##LASTX=3966.0
##FIRSTY=0.057435
##MAXX=3966
##MINX=450
##MAXY=0.95566
##MINY=0
##NPOINTS=880
##XYDATA=(X++(Y..Y))
450.0 601 374 323 358 350 424 342 379 287 377
490.0 334 378 359 399 410 400 404 410 415 331
530.0 0 558 406 407 380 440 453 461 462 437
570.0 432 403 393 347 294 321 323 321 314 316
610.0 317 301 309 285 349 379 298 318 312 323
650.0 307 323 316 311 317 328 296 302 306 291
690.0 296 300 304 298 288 294 292 311 317 287
730.0 281 295 288 291 294 295 308 303 314 288
770.0 320 359 353 309 316 292 297 304 306 297
810.0 286 317 324 336 368 436 472 525 515 505
850.0 489 459 424 389 373 364 371 337 324 330
890.0 358 364 372 388 409 446 498 577 607 651
930.0 668 599 544 471 406 386 387 414 473 520
970.0 590 674 780 810 768 736 698 631 578 589
1010.0 664 801 990 1230 1522 1861 2209 2550 2858 2933
1050.0 2869 2704 2526 2196 1740 1399 1244 1147 993 915
1090.0 902 878 820 740 631 552 507 497 510 534
1130.0 557 574 572 554 529 509 480 459 455 461
1170.0 475 494 511 546 594 619 640 643 642 646
1210.0 637 645 674 713 747 743 741 727 707 692
1250.0 681 681 692 689 679 656 629 587 542 509
1290.0 488 478 472 466 476 487 484 476 478 488
1330.0 509 536 553 561 595 611 661 705 759 808
1370.0 862 895 909 874 818 750 669 592 511 450
1410.0 415 390 366 367 349 388 469 626 782 941
1450.0 1124 1441 1476 1234 1209 1070 821 642 485 369
1490.0 307 267 241 221 230 203 183 198 192 196
1530.0 167 187 180 201 176 183 182 201 217 176
1570.0 186 186 194 164 171 169 170 173 161 171
1610.0 156 180 162 175 154 170 152 171 155 177
1650.0 149 202 163 147 166 159 150 158 145 170
1690.0 139 150 157 173 137 146 147 159 147 150
1730.0 159 151 164 137 139 130 143 122 139 131
1770.0 138 131 127 125 129 121 131 122 120 123
1810.0 117 121 127 124 121 124 119 122 109 118
1850.0 113 116 112 110 113 114 112 113 115 110
1890.0 108 108 106 110 110 104 100 103 104 99
1930.0 96 97 104 99 103 101 102 103 101 100
1970.0 104 106 98 97 98 98 96 101 97 98
2010.0 98 100 98 100 104 97 96 96 93 92
2050.0 94 90 91 91 92 94 92 96 98 101
2090.0 98 99 99 93 92 90 93 93 91 87
2130.0 89 91 85 85 87 88 86 85 84 89
2170.0 86 84 81 82 84 82 79 79 81 79
2210.0 80 80 75 83 76 70 72 73 73 71
2250.0 68 71 69 65 61 72 68 69 73 77
2290.0 83 83 85 91 96 99 105 101 111 117
2330.0 95 87 97 107 87 106 104 106 85 74
2370.0 60 69 74 78 86 88 92 95 94 93
2410.0 98 98 91 94 95 97 94 93 94 99
2450.0 93 86 86 86 89 87 80 84 83 85
2490.0 90 88 89 90 89 94 100 100 98 97
2530.0 100 99 98 99 101 99 99 102 97 100
2570.0 104 100 107 121 133 135 137 139 146 153
2610.0 149 154 155 156 152 151 152 152 155 160
2650.0 173 184 200 211 219 229 224 211 196 191
2690.0 183 176 165 160 169 168 165 168 169 172
2730.0 172 183 195 195 196 194 199 195 198 195
2770.0 199 215 226 232 245 263 271 282 288 297
2810.0 310 323 345 379 431 507 615 776 1023 1353
2850.0 1812 2364 3029 3480 3835 4075 3797 3498 3171 2796
2890.0 2465 2247 2156 2258 2609 2905 3472 4414 5400 6431
2930.0 7970 9982 10000 9070 8476 7290 5864 4677 3577 2582
2970.0 2021 1723 1431 1174 958 766 605 471 364 274
3010.0 211 171 155 153 148 144 150 154 151 148
3050.0 159 167 168 158 155 153 148 140 137 136
3090.0 140 138 124 132 145 145 142 139 138 139
3130.0 138 138 134 129 130 124 126 135 136 122
3170.0 113 115 126 120 115 105 112 106 103 97
3210.0 112 114 96 103 100 101 99 105 111 108
3250.0 116 119 118 118 120 114 102 109 109 103
3290.0 99 97 108 111 98 108 107 107 105 97
3330.0 104 119 109 96 101 110 86 95 104 94
3370.0 100 97 102 103 105 104 129 93 100 111
3410.0 111 106 96 95 101 114 99 98 108 118
3450.0 124 98 109 106 113 133 131 115 106 106
3490.0 124 122 107 104 109 116 105 102 104 106
3530.0 101 110 106 131 88 100 100 99 116 68
3570.0 87 86 124 99 100 113 132 103 114 134
3610.0 121 103 156 142 157 248 255 297 357 423
3650.0 535 524 550 550 460 360 292 252 192 143
3690.0 135 115 100 133 106 97 111 94 108 103
3730.0 107 133 89 129 98 86 125 117 86 88
3770.0 116 142 104 110 131 173 109 66 167 126
3810.0 110 63 129 158 60 75 124 156 133 142
3850.0 153 183 150 182 107 88 108 196 110 111
3890.0 109 127 140 170 162 202 159 111 134 153
3930.0 100 71 129 145 149 125 181 135 143 118
##END=
