##TITLE=Propionic acid, 3-dodecyloxy-2-ethoxy-, methyl ester
##JCAMP-DX=4.24
##DATA TYPE=INFRARED SPECTRUM
##ORIGIN=Sadtler Research Labs Under US-EPA Contract
##OWNER=NIST Standard Reference Data Program
##CAS REGISTRY NO=7448-04-6
##MOLFORM=C 18 H 36 O 4
##XUNITS=1/CM
##YUNITS=ABSORBANCE
##XFACTOR=1.0
##YFACTOR=0.000133121
##DELTAX=4.0
##FIRSTX=450.0
##LASTX=3966.0
##FIRSTY=0.000266
##MAXX=3966
##MINX=450
##MAXY=1.33121
##MINY=0
##NPOINTS=880
##XYDATA=(X++(Y..Y))
450.0 2 107 213 0 84 241 78 23 122 231
490.0 270 198 185 338 246 346 629 1129 1145 825
530.0 1010 905 421 312 178 227 248 321 327 233
570.0 102 154 153 119 123 110 42 95 140 121
610.0 114 89 97 82 119 85 106 95 81 136
650.0 127 126 178 137 179 191 150 141 216 280
690.0 512 547 399 301 204 417 502 311 244 286
730.0 169 222 278 337 265 251 248 213 241 286
770.0 330 332 348 317 268 218 203 238 257 282
810.0 299 294 334 383 361 400 387 431 461 460
850.0 447 463 410 416 414 387 384 398 409 397
890.0 382 398 396 457 484 523 618 703 797 881
930.0 924 957 932 907 880 884 878 893 909 892
970.0 846 783 757 756 752 765 797 867 880 873
1010.0 887 936 977 1044 1065 1116 1139 1191 1349 1548
1050.0 1710 1862 1871 1840 1859 1861 1878 1922 1986 2082
1090.0 2306 2591 2996 3540 4021 4543 5162 5227 5297 5230
1130.0 4902 4464 4063 3669 3272 3024 2812 2643 2613 2685
1170.0 2933 3246 3415 3561 3676 3651 3706 3560 3316 3018
1210.0 2865 2808 2825 3019 2922 2749 2783 2754 2451 2143
1250.0 2020 1947 1867 1758 1643 1497 1385 1265 1201 1152
1290.0 1122 1103 1078 1045 996 963 934 933 950 950
1330.0 948 952 959 1026 1155 1320 1482 1489 1387 1218
1370.0 1078 993 909 849 749 678 620 560 527 500
1410.0 487 505 514 560 615 749 1073 1402 1224 1123
1450.0 1081 1101 1158 1157 1102 977 833 668 528 409
1490.0 292 230 177 137 129 96 86 73 82 65
1530.0 55 55 55 55 53 48 46 60 58 47
1570.0 42 47 45 48 55 49 42 48 48 45
1610.0 34 45 43 40 31 36 41 38 35 43
1650.0 30 67 36 53 48 68 60 81 77 110
1690.0 118 136 182 212 256 305 387 478 587 729
1730.0 912 1166 1474 1841 2236 2654 3015 3396 3555 3339
1770.0 2891 2273 1807 1431 1114 862 647 489 366 277
1810.0 210 160 127 97 79 60 51 39 41 31
1850.0 32 25 21 35 23 28 25 28 31 26
1890.0 29 34 32 25 23 26 30 27 31 32
1930.0 37 39 40 42 44 52 53 59 53 48
1970.0 53 52 51 55 48 52 53 53 52 54
2010.0 57 55 59 62 59 63 61 63 61 59
2050.0 60 57 58 55 54 57 54 53 50 53
2090.0 50 45 44 42 40 39 34 34 35 32
2130.0 30 31 32 27 26 29 29 28 28 31
2170.0 26 30 27 26 26 28 29 25 22 25
2210.0 24 29 24 23 25 27 28 28 30 30
2250.0 27 26 30 28 29 33 35 34 37 35
2290.0 36 34 26 32 31 22 27 17 16 13
2330.0 13 14 14 25 14 40 13 14 13 13
2370.0 19 16 33 36 31 32 27 29 31 28
2410.0 26 28 31 33 31 28 29 29 30 31
2450.0 30 28 26 29 30 30 31 31 34 32
2490.0 35 38 38 37 36 39 44 42 46 47
2530.0 49 52 50 56 55 54 56 56 58 59
2570.0 66 65 69 73 74 79 84 84 84 86
2610.0 92 92 92 98 104 103 108 108 113 118
2650.0 123 126 131 143 143 149 158 167 175 179
2690.0 192 197 209 211 213 225 230 239 239 249
2730.0 259 270 273 283 287 291 293 299 304 313
2770.0 331 344 363 387 411 446 474 512 540 572
2810.0 611 656 704 771 853 970 1117 1325 1636 2086
2850.0 2723 3563 4516 5267 5486 5247 4775 4331 3952 3669
2890.0 3455 3365 3433 3670 4033 4520 5089 5840 6883 8214
2930.0 9529 10000 9379 8290 7023 5872 4995 4467 4181 3884
2970.0 3409 2741 2079 1591 1293 1084 946 833 745 674
3010.0 608 547 503 457 424 395 366 326 301 277
3050.0 255 239 225 212 199 196 199 190 163 149
3090.0 135 131 120 118 110 109 104 98 93 88
3130.0 85 80 75 70 68 63 63 65 66 62
3170.0 60 58 55 55 56 50 50 53 47 49
3210.0 43 38 39 36 41 42 40 23 26 32
3250.0 31 30 29 31 31 20 23 21 28 26
3290.0 20 20 21 23 22 20 25 23 19 14
3330.0 15 20 19 19 17 20 21 18 17 16
3370.0 18 24 23 28 14 22 18 15 19 23
3410.0 19 21 21 26 27 24 19 23 25 25
3450.0 27 18 20 21 17 21 23 29 36 30
3490.0 27 34 39 30 23 31 32 28 26 16
3530.0 24 20 18 22 31 18 22 19 42 60
3570.0 112 118 135 112 84 59 47 28 37 36
3610.0 28 29 42 33 17 50 37 49 33 54
3650.0 23 55 36 32 42 21 76 50 54 20
3690.0 40 47 35 55 45 37 53 42 43 31
3730.0 45 48 28 68 33 71 48 56 52 51
3770.0 44 40 63 47 42 59 32 53 62 65
3810.0 48 51 48 57 47 52 61 64 65 85
3850.0 46 79 61 60 58 39 59 57 61 54
3890.0 68 52 36 75 66 59 63 79 36 57
3930.0 47 58 40 75 60 72 70 46 71 74
##END=
