##TITLE=Benzeneacetic acid, 3-phenyl-2-propenyl ester
##JCAMP-DX=4.24
##DATA TYPE=INFRARED SPECTRUM
##ORIGIN=Sadtler Research Labs Under US-EPA Contract
##OWNER=NIST Standard Reference Data Program
##CAS REGISTRY NO=7492-65-1
##MOLFORM=C 17 H 16 O 2
##XUNITS=1/CM
##YUNITS=ABSORBANCE
##XFACTOR=1.0
##YFACTOR=0.000062503
##DELTAX=4.0
##FIRSTX=450.0
##LASTX=3966.0
##FIRSTY=0.001875
##MAXX=3966
##MINX=450
##MAXY=0.62503
##MINY=0
##NPOINTS=880
##XYDATA=(X++(Y..Y))
450.0 30 31 174 90 229 152 296 130 204 146
490.0 163 152 139 75 29 132 125 207 190 318
530.0 234 310 376 262 314 229 224 130 186 122
570.0 142 98 79 144 104 86 106 145 115 138
610.0 171 153 200 204 252 289 323 259 353 225
650.0 276 240 244 383 446 656 854 1119 1369 2015
690.0 2825 3193 3291 3043 3093 2979 3066 2964 2826 2418
730.0 2130 2060 2020 1986 1696 1420 1100 956 682 496
770.0 325 259 141 133 103 83 103 108 151 154
810.0 177 196 174 197 188 180 141 172 163 169
850.0 158 159 157 209 152 156 191 166 204 204
890.0 213 241 267 305 321 362 348 369 382 438
930.0 499 590 719 856 1086 1372 1825 2421 3141 3448
970.0 3267 3096 3182 3332 3398 3374 3103 2689 2224 1903
1010.0 1510 1169 989 950 1059 1176 1099 826 680 651
1050.0 711 773 859 943 990 1026 988 955 927 990
1090.0 1105 1270 1467 1705 1973 2273 2722 3271 4173 5395
1130.0 6953 8440 9279 9309 8372 7162 5880 4897 3969 3220
1170.0 2691 2383 2199 2058 1949 1866 1895 1965 2146 2374
1210.0 2692 3051 3478 4111 4887 5803 6521 6902 6794 6442
1250.0 5989 5523 5014 4374 3788 3238 2844 2548 2353 2216
1290.0 2136 2087 2030 2008 1971 1936 1877 1875 1861 1841
1330.0 1787 1712 1624 1455 1274 1087 976 906 902 906
1370.0 942 978 954 838 649 499 381 336 301 298
1410.0 315 348 423 486 602 724 863 955 1068 1198
1450.0 1322 1303 1129 886 655 503 431 402 450 694
1490.0 1130 1699 1921 1492 859 427 256 186 182 155
1530.0 148 137 136 159 144 145 142 177 169 172
1570.0 208 240 291 324 392 474 601 733 785 719
1610.0 560 391 262 199 171 158 157 179 188 237
1650.0 278 311 309 296 291 266 272 265 300 312
1690.0 333 366 428 515 598 725 856 1060 1229 1495
1730.0 1898 2478 3272 4362 6126 8148 9911 10000 8526 6266
1770.0 4445 3213 2440 1968 1663 1458 1275 1083 878 691
1810.0 569 477 398 333 295 257 221 205 204 196
1850.0 192 197 201 219 246 259 246 247 248 244
1890.0 220 180 151 134 135 126 135 155 175 197
1930.0 223 261 288 308 306 309 310 297 235 182
1970.0 133 119 99 108 100 98 94 83 81 72
2010.0 84 89 77 84 81 76 73 85 88 98
2050.0 95 100 101 83 73 73 78 89 94 91
2090.0 94 81 74 60 57 55 49 53 46 42
2130.0 46 45 52 45 48 47 50 39 42 44
2170.0 44 42 39 50 46 49 49 49 55 45
2210.0 51 52 56 56 53 60 54 59 61 65
2250.0 65 77 66 70 65 76 72 75 83 92
2290.0 101 111 125 144 167 194 204 209 209 187
2330.0 160 133 132 139 90 158 224 183 134 30
2370.0 4 4 6 26 41 45 54 54 55 57
2410.0 53 56 55 50 46 52 53 41 48 31
2450.0 40 39 43 51 47 44 44 50 51 44
2490.0 47 41 53 56 62 63 61 57 58 65
2530.0 55 56 57 59 58 61 59 68 68 66
2570.0 61 49 50 53 49 40 40 42 51 49
2610.0 45 44 44 49 39 42 52 39 36 27
2650.0 28 39 47 63 81 74 63 60 53 51
2690.0 60 61 68 68 68 66 74 69 69 78
2730.0 74 78 75 72 76 92 85 75 87 85
2770.0 82 67 71 85 83 94 99 100 109 105
2810.0 109 117 127 136 155 168 180 175 199 216
2850.0 253 287 323 380 402 417 435 460 498 541
2890.0 546 558 551 551 559 584 652 723 832 974
2930.0 1107 1250 1359 1407 1454 1491 1485 1411 1270 1146
2970.0 993 892 791 735 709 669 645 600 638 680
3010.0 810 927 1090 1344 1710 2202 2623 2835 2637 2221
3050.0 1847 1625 1583 1836 2434 3025 3075 2454 1913 1685
3090.0 1542 1370 1173 990 830 703 550 405 287 207
3130.0 170 129 113 111 99 81 68 95 103 75
3170.0 74 66 45 69 78 45 46 55 42 39
3210.0 53 51 27 49 55 42 47 37 66 47
3250.0 73 58 63 66 41 51 38 27 48 35
3290.0 38 71 67 53 44 79 50 42 56 61
3330.0 81 57 42 70 53 69 59 61 83 77
3370.0 65 52 45 56 65 72 34 42 55 52
3410.0 54 42 63 47 57 41 57 40 58 50
3450.0 67 68 75 25 78 85 126 102 112 116
3490.0 115 133 95 128 74 94 71 67 70 68
3530.0 50 24 69 72 41 30 48 45 90 74
3570.0 85 98 110 116 71 52 41 85 72 72
3610.0 57 47 68 43 45 36 28 23 62 27
3650.0 67 37 45 53 70 67 38 41 29 42
3690.0 42 32 40 63 32 4 6 44 58 45
3730.0 37 4 4 4 4 4 4 15 6 20
3770.0 3 4 4 7 20 17 3 13 16 8
3810.0 4 4 11 3 4 4 7 4 31 7
3850.0 6 62 6 19 4 4 4 4 4 7
3890.0 1 61 18 35 2 1 78 46 75 4
3930.0 62 0 23 7 2 37 10 4 4 4
##END=
