##TITLE=Butanoic acid, 2-butoxy-1-methyl-2-oxoethyl ester
##JCAMP-DX=4.24
##DATA TYPE=INFRARED SPECTRUM
##ORIGIN=Sadtler Research Labs Under US-EPA Contract
##OWNER=NIST Standard Reference Data Program
##CAS REGISTRY NO=7492-70-8
##MOLFORM=C 11 H 20 O 4
##XUNITS=1/CM
##YUNITS=ABSORBANCE
##XFACTOR=1.0
##YFACTOR=0.000144061
##DELTAX=4.0
##FIRSTX=450.0
##LASTX=3966.0
##FIRSTY=0.001441
##MAXX=3966
##MINX=450
##MAXY=1.44061
##MINY=0
##NPOINTS=880
##XYDATA=(X++(Y..Y))
450.0 10 28 25 50 21 31 66 21 131 1
490.0 14 40 1 37 91 78 67 68 39 40
530.0 55 9 94 104 81 69 63 71 71 69
570.0 66 52 51 63 61 23 102 72 87 87
610.0 81 88 87 95 60 83 86 93 104 92
650.0 50 72 59 72 45 62 21 53 47 46
690.0 54 58 58 50 56 60 59 69 71 85
730.0 72 138 137 148 169 172 173 172 143 126
770.0 101 100 82 86 70 74 94 117 137 142
810.0 126 106 90 91 96 109 128 153 173 181
850.0 178 164 167 167 161 159 149 141 143 145
890.0 147 149 149 145 139 128 121 118 124 139
930.0 163 207 263 324 396 485 550 580 582 565
970.0 539 478 382 280 233 238 269 309 320 315
1010.0 307 329 355 388 442 534 671 827 979 1108
1050.0 1212 1286 1351 1419 1499 1580 1663 1792 1998 2347
1090.0 2834 3398 3898 4157 4140 3884 3590 3394 3407 3585
1130.0 3766 3654 3136 2481 2052 1938 2060 2426 3052 3921
1170.0 4811 5312 5248 4819 4505 4430 4446 4394 4175 3779
1210.0 3278 2838 2521 2330 2221 2185 2201 2266 2367 2517
1250.0 2671 2801 2881 2867 2783 2635 2428 2150 1847 1587
1290.0 1392 1261 1175 1129 1099 1069 1015 951 888 844
1330.0 837 843 884 926 990 1091 1205 1294 1333 1315
1370.0 1269 1234 1198 1153 1099 1000 876 723 542 416
1410.0 354 324 355 363 401 434 480 500 526 591
1450.0 731 927 1099 1166 1116 968 795 611 450 344
1490.0 289 212 186 161 156 144 126 116 113 94
1530.0 88 81 78 101 79 69 64 89 60 55
1570.0 55 56 39 52 36 42 43 48 41 44
1610.0 47 39 56 41 58 38 54 58 58 49
1650.0 92 69 74 72 82 82 116 101 149 160
1690.0 174 190 223 245 283 341 415 533 606 713
1730.0 885 1129 1453 1959 2953 4500 7038 9276 10000 8110
1770.0 6183 4711 3445 2379 1682 1285 1045 866 727 582
1810.0 465 373 287 243 195 174 140 125 113 107
1850.0 91 79 73 65 68 67 55 46 48 42
1890.0 47 49 40 43 41 42 41 43 46 37
1930.0 36 34 38 40 40 41 39 42 36 40
1970.0 35 35 34 34 32 40 35 31 28 26
2010.0 25 23 26 22 21 22 26 31 37 41
2050.0 45 44 42 40 37 39 40 45 44 48
2090.0 49 42 38 34 32 31 31 28 26 27
2130.0 26 27 23 25 23 24 23 19 23 22
2170.0 20 23 22 23 21 21 23 22 22 17
2210.0 19 17 18 19 18 16 18 16 14 20
2250.0 19 21 19 21 18 20 20 21 21 24
2290.0 30 31 37 36 42 46 43 42 39 38
2330.0 19 1 1 0 0 33 13 31 0 0
2370.0 0 0 0 0 5 14 21 23 24 22
2410.0 25 23 24 20 18 15 16 18 12 14
2450.0 10 13 12 10 9 12 12 10 12 14
2490.0 13 10 11 11 12 10 10 10 5 7
2530.0 7 5 4 6 3 4 5 7 6 7
2570.0 7 4 3 3 2 0 4 0 6 8
2610.0 5 5 4 9 7 11 12 13 6 5
2650.0 4 11 18 24 30 31 28 23 16 17
2690.0 19 18 19 19 20 25 25 29 25 27
2730.0 29 37 38 42 50 54 55 54 53 50
2770.0 47 51 52 53 58 61 63 69 77 77
2810.0 84 91 100 110 124 136 155 171 194 228
2850.0 275 332 384 438 509 627 806 1051 1330 1518
2890.0 1508 1335 1143 1045 1043 1087 1186 1287 1391 1479
2930.0 1608 1834 2164 2546 2807 2841 2729 2717 2974 3445
2970.0 3872 3928 3558 2924 2339 1941 1720 1612 1420 1066
3010.0 681 446 328 270 225 194 164 150 132 118
3050.0 98 88 74 66 66 64 59 46 54 45
3090.0 48 38 36 38 41 36 32 28 34 33
3130.0 30 32 33 24 27 29 29 30 28 29
3170.0 28 33 38 43 47 41 33 40 37 39
3210.0 26 31 30 36 28 23 28 34 26 26
3250.0 24 27 41 37 30 30 27 33 31 22
3290.0 23 30 24 21 20 21 5 17 21 15
3330.0 9 15 10 5 12 4 2 19 12 12
3370.0 15 1 17 22 20 14 17 13 19 19
3410.0 14 17 9 18 18 17 20 19 14 4
3450.0 17 10 27 19 25 28 36 27 35 58
3490.0 61 60 76 78 78 65 61 60 39 45
3530.0 39 34 36 22 38 34 24 60 85 112
3570.0 146 181 192 166 151 117 66 39 19 39
3610.0 24 34 35 29 30 7 34 9 25 26
3650.0 37 34 9 18 24 49 28 27 24 24
3690.0 30 5 8 25 18 19 9 17 27 14
3730.0 26 24 7 3 19 14 23 13 26 36
3770.0 20 27 19 39 25 19 13 36 8 20
3810.0 21 26 13 23 22 21 27 19 25 29
3850.0 29 3 34 20 11 43 21 32 51 29
3890.0 26 19 7 29 23 33 30 29 31 17
3930.0 34 56 12 7 21 54 23 22 32 24
##END=
