##TITLE=Benzoic acid, 2-amino-, 2-propenyl ester
##JCAMP-DX=4.24
##DATA TYPE=INFRARED SPECTRUM
##ORIGIN=Sadtler Research Labs Under US-EPA Contract
##OWNER=NIST Standard Reference Data Program
##CAS REGISTRY NO=7493-63-2
##MOLFORM=C 10 H 11 N O 2
##XUNITS=1/CM
##YUNITS=ABSORBANCE
##XFACTOR=1.0
##YFACTOR=0.000072559
##DELTAX=4.0
##FIRSTX=450.0
##LASTX=3966.0
##FIRSTY=0.017124
##MAXX=3966
##MINX=450
##MAXY=0.72559
##MINY=0
##NPOINTS=880
##XYDATA=(X++(Y..Y))
450.0 236 185 109 95 144 120 114 193 166 227
490.0 342 231 250 523 617 484 600 629 462 480
530.0 452 239 286 480 334 251 358 261 153 238
570.0 111 61 221 170 51 184 200 171 229 170
610.0 105 264 315 204 254 477 359 371 426 333
650.0 306 406 426 334 501 554 438 403 453 440
690.0 556 731 750 674 608 367 276 298 242 289
730.0 434 608 981 1472 1884 1793 1303 942 492 314
770.0 209 151 166 205 142 83 212 199 175 238
810.0 197 184 223 233 174 251 293 298 333 361
850.0 329 326 280 202 197 217 122 114 171 144
890.0 132 209 173 166 243 308 352 476 632 715
930.0 771 771 623 470 376 286 289 343 373 458
970.0 608 669 693 666 575 531 545 499 398 343
1010.0 309 285 319 379 429 500 531 475 430 457
1050.0 523 672 936 1237 1527 1760 1814 1784 1954 2279
1090.0 2685 3271 3888 4253 4247 3857 3256 2531 2015 1531
1130.0 1124 876 745 703 815 1121 1906 2833 2814 2359
1170.0 1217 614 449 366 315 305 293 316 319 356
1210.0 401 509 670 935 1415 2211 3602 5863 8352 10000
1250.0 9553 6662 4127 2739 2076 1845 2019 2646 3457 4112
1290.0 4317 3690 2794 2003 1314 1064 1074 1089 1025 854
1330.0 627 477 380 338 314 320 423 563 669 722
1370.0 642 500 424 342 268 223 160 122 152 141
1410.0 157 178 166 163 208 257 315 317 487 608
1450.0 760 952 906 991 847 691 480 598 770 904
1490.0 955 965 748 625 373 210 189 135 60 104
1530.0 166 106 138 128 264 368 513 609 848 1045
1570.0 1022 965 901 1087 1362 1809 2282 2551 2681 2711
1610.0 2823 3260 3599 3498 3063 2313 1505 886 700 501
1650.0 424 282 373 291 306 277 278 312 391 456
1690.0 832 1368 2170 3420 4801 5444 5227 4177 2926 1984
1730.0 1490 1126 978 781 560 326 245 216 162 172
1770.0 153 86 124 136 111 94 84 107 62 83
1810.0 69 58 71 65 11 10 50 35 27 12
1850.0 46 64 80 66 67 56 73 58 72 65
1890.0 48 80 76 69 93 124 112 98 103 76
1930.0 74 91 76 57 66 45 30 44 47 32
1970.0 32 31 25 36 38 22 22 42 24 33
2010.0 40 31 27 49 28 31 52 49 35 52
2050.0 49 36 49 49 31 43 61 40 40 53
2090.0 46 42 45 35 30 49 39 36 52 50
2130.0 43 51 43 36 54 52 36 40 58 40
2170.0 38 46 40 46 54 40 27 48 49 42
2210.0 46 52 45 51 49 41 49 49 44 45
2250.0 46 45 48 53 39 44 58 45 39 53
2290.0 54 42 49 49 38 38 46 31 14 30
2330.0 19 10 10 10 19 40 19 10 10 10
2370.0 10 14 34 56 74 68 71 75 75 69
2410.0 69 70 70 69 67 63 62 65 71 62
2450.0 63 75 69 69 70 71 76 74 71 66
2490.0 65 71 79 68 69 77 70 69 69 76
2530.0 74 76 66 66 77 67 64 69 63 69
2570.0 77 63 64 79 76 66 72 75 69 76
2610.0 79 70 76 91 76 78 98 96 93 97
2650.0 94 91 95 94 77 84 85 77 78 77
2690.0 62 79 86 65 75 90 79 76 92 84
2730.0 85 105 90 73 94 94 69 85 88 77
2770.0 96 99 85 98 112 97 94 112 102 108
2810.0 123 114 103 132 114 99 118 126 98 127
2850.0 130 112 138 160 131 144 173 175 184 222
2890.0 230 237 257 238 208 229 216 201 228 242
2930.0 252 318 371 387 476 555 595 616 610 501
2970.0 408 369 303 272 316 328 311 353 353 319
3010.0 315 330 324 395 474 503 533 549 506 478
3050.0 504 505 541 603 551 492 497 501 541 632
3090.0 667 642 577 480 343 285 255 185 154 151
3130.0 133 121 138 116 101 136 119 92 113 127
3170.0 113 132 132 117 137 146 99 109 127 102
3210.0 101 107 87 80 121 103 70 106 109 80
3250.0 107 104 86 110 115 95 108 129 104 112
3290.0 131 116 134 170 146 133 175 156 116 148
3330.0 148 134 150 148 138 170 185 169 188 260
3370.0 319 446 685 1011 1360 1560 1503 1196 904 666
3410.0 472 370 315 266 293 282 239 211 197 154
3450.0 143 156 149 148 177 171 166 222 241 251
3490.0 282 351 391 476 586 715 884 1029 1049 952
3530.0 809 630 453 331 231 197 177 161 128 117
3570.0 114 132 138 134 113 113 117 103 102 108
3610.0 97 74 82 77 100 43 86 100 109 92
3650.0 27 69 70 102 102 39 45 42 87 85
3690.0 48 65 95 77 69 54 50 74 68 47
3730.0 39 34 25 39 10 11 30 56 63 62
3770.0 54 84 74 61 79 87 72 52 28 40
3810.0 53 63 28 30 70 59 39 26 38 52
3850.0 58 11 44 75 70 34 57 82 63 64
3890.0 83 62 73 89 78 81 102 104 90 111
3930.0 109 100 121 120 100 121 0 10 10 10
##END=
