##TITLE=Ethane, iodo-
##JCAMP-DX=4.24
##DATA TYPE=INFRARED SPECTRUM
##ORIGIN=Sadtler Research Labs Under US-EPA Contract
##OWNER=NIST Standard Reference Data Program
##CAS REGISTRY NO=75-03-6
##MOLFORM=C 2 H 5 I
##XUNITS=1/CM
##YUNITS=ABSORBANCE
##XFACTOR=1.0
##YFACTOR=0.000091510
##DELTAX=4.0
##FIRSTX=450.0
##LASTX=3966.0
##FIRSTY=0.000000
##MAXX=3966
##MINX=450
##MAXY=0.9151
##MINY=0
##NPOINTS=880
##XYDATA=(X++(Y..Y))
450.0 0 134 109 182 178 197 222 277 325 518
490.0 627 914 1130 1118 1017 1079 1285 1332 905 405
530.0 171 113 129 129 117 163 170 210 164 174
570.0 124 141 93 113 142 87 189 198 183 144
610.0 121 147 175 143 136 205 138 156 225 108
650.0 150 136 156 136 210 245 152 174 133 240
690.0 259 274 284 300 307 340 386 397 404 484
730.0 455 453 519 623 520 509 542 479 467 434
770.0 406 381 397 330 295 251 227 226 207 189
810.0 168 159 160 154 154 152 156 152 150 151
850.0 146 144 152 131 124 158 134 132 135 136
890.0 134 143 145 149 170 183 215 296 415 569
930.0 767 1028 1251 1451 1564 1623 1550 1527 1479 1414
970.0 1035 701 540 521 528 538 517 445 415 365
1010.0 351 350 341 341 294 215 175 174 170 168
1050.0 166 167 166 163 173 171 172 161 169 158
1090.0 157 163 162 170 179 188 195 220 227 252
1130.0 257 268 279 281 282 273 307 348 452 601
1170.0 795 1037 1396 2046 3081 4553 6177 7800 8606 9382
1210.0 9647 10000 9873 8698 7172 5381 3582 2378 1707 1208
1250.0 846 606 470 392 341 310 286 253 217 195
1290.0 179 176 168 171 165 161 163 172 172 167
1330.0 179 193 204 226 248 273 305 346 395 457
1370.0 533 597 632 577 613 841 974 971 973 975
1410.0 1034 1076 1118 1174 1235 1273 1261 1257 1242 1463
1450.0 1802 1337 1136 1059 992 995 954 886 781 692
1490.0 615 547 479 429 394 355 325 292 268 248
1530.0 238 215 192 182 172 168 163 165 157 150
1570.0 157 157 158 143 149 150 154 150 156 159
1610.0 155 155 158 163 160 162 166 167 167 171
1650.0 173 181 179 176 174 178 180 177 181 183
1690.0 180 178 188 180 183 180 183 181 182 180
1730.0 172 174 171 168 162 164 160 162 157 152
1770.0 153 153 144 143 143 143 140 137 134 132
1810.0 132 133 132 135 132 134 133 129 134 133
1850.0 134 130 131 135 144 143 145 147 157 161
1890.0 167 172 175 173 176 175 175 177 162 157
1930.0 158 159 165 165 170 172 172 178 181 172
1970.0 171 172 171 170 166 162 159 154 145 143
2010.0 143 138 129 128 130 132 128 126 128 124
2050.0 115 114 121 122 128 138 145 147 143 137
2090.0 135 137 139 142 143 146 151 156 164 171
2130.0 181 198 204 220 236 249 246 259 257 267
2170.0 254 233 235 229 219 207 204 205 198 192
2210.0 190 186 185 181 176 176 167 157 150 148
2250.0 143 144 141 140 145 144 140 141 147 148
2290.0 153 163 170 175 182 192 185 189 184 174
2330.0 171 145 150 155 165 169 186 162 152 115
2370.0 103 115 128 153 158 167 176 191 197 207
2410.0 222 238 251 253 244 234 249 255 222 192
2450.0 172 162 157 148 141 134 129 123 122 118
2490.0 112 112 107 101 104 109 106 103 103 105
2530.0 100 101 95 99 95 92 94 89 97 96
2570.0 95 94 99 96 107 109 105 105 99 101
2610.0 98 97 93 105 110 114 134 143 156 168
2650.0 173 168 161 157 163 165 158 164 162 157
2690.0 137 134 120 128 132 129 133 140 154 158
2730.0 176 196 225 213 206 216 253 243 194 164
2770.0 141 148 133 131 136 146 146 153 166 176
2810.0 201 218 252 265 303 315 334 360 380 406
2850.0 462 574 693 962 1306 1645 1675 1576 1694 1884
2890.0 1862 1653 1422 1308 1390 1666 2091 2662 3106 3313
2930.0 3174 3183 3338 3291 2899 2503 2109 1929 2018 2239
2970.0 2627 3042 3378 3131 3019 3517 3505 3485 2997 2679
3010.0 2297 2093 1846 1766 1824 1484 998 1022 850 778
3050.0 637 569 471 395 340 285 262 211 215 182
3090.0 169 160 146 155 137 153 142 160 141 159
3130.0 148 157 158 148 158 154 155 151 170 177
3170.0 189 194 203 210 212 214 211 226 212 231
3210.0 228 227 245 234 239 256 250 230 220 195
3250.0 196 166 158 142 126 134 124 141 116 128
3290.0 139 139 124 141 143 137 119 127 129 123
3330.0 100 141 104 126 112 130 124 103 114 117
3370.0 114 100 123 116 118 131 132 124 129 112
3410.0 90 101 111 113 126 123 111 120 119 130
3450.0 114 120 127 116 136 112 119 137 120 122
3490.0 120 120 118 106 107 107 99 131 125 147
3530.0 110 120 120 113 128 123 124 110 131 141
3570.0 108 101 117 115 132 129 111 126 147 145
3610.0 126 127 130 154 100 123 112 109 114 123
3650.0 126 162 121 128 115 124 110 142 138 137
3690.0 117 140 107 122 110 127 118 118 132 122
3730.0 131 136 151 154 136 130 131 117 148 120
3770.0 109 105 128 134 144 140 121 116 149 135
3810.0 99 130 134 114 161 153 159 117 100 161
3850.0 156 97 149 139 129 96 113 132 129 127
3890.0 97 152 150 104 108 95 118 124 185 119
3930.0 143 157 123 163 83 124 89 135 101 89
##END=
