##TITLE=Ethene, chloro-
##JCAMP-DX=4.24
##DATA TYPE=INFRARED SPECTRUM
##ORIGIN=Sadtler Research Labs Under US-EPA Contract
##OWNER=NIST Standard Reference Data Program
##CAS REGISTRY NO=75-01-4
##MOLFORM=C 2 H 3 Cl
##XUNITS=1/CM
##YUNITS=ABSORBANCE
##XFACTOR=1.0
##YFACTOR=0.000027139
##DELTAX=4.0
##FIRSTX=450.0
##LASTX=3966.0
##FIRSTY=0.000000
##MAXX=3966
##MINX=450
##MAXY=0.27139
##MINY=0
##NPOINTS=880
##XYDATA=(X++(Y..Y))
450.0 0 265 322 255 351 282 415 303 295 306
490.0 386 371 306 395 279 338 213 349 364 334
530.0 311 344 394 412 515 408 492 549 540 598
570.0 641 753 835 939 959 1038 1036 1171 1041 1168
610.0 1017 1861 2568 1749 941 1244 1242 1286 1212 1186
650.0 1128 1110 1058 1007 871 853 871 882 1058 1505
690.0 2214 3035 4370 5443 6340 6057 5389 4475 5802 6899
730.0 7723 7550 5694 3458 1776 830 546 403 432 388
770.0 367 357 381 378 340 385 348 379 383 420
810.0 436 448 513 568 588 667 778 841 960 1084
850.0 1263 1367 1636 1776 2001 2188 2349 2470 2490 2795
890.0 2821 4436 7478 3816 3706 3839 4178 4283 4515 4306
930.0 4194 4474 4705 8817 4417 3063 3233 3104 3195 3082
970.0 2994 2798 2619 2382 2114 1872 1652 1510 1428 1703
1010.0 2130 2916 3497 3801 2863 1855 2221 2527 2629 2545
1050.0 2073 1539 1012 658 440 358 307 294 295 296
1090.0 301 299 306 293 302 296 292 295 300 302
1130.0 303 286 293 296 301 291 294 286 287 284
1170.0 291 288 290 281 284 306 297 317 323 348
1210.0 364 389 392 409 400 379 383 406 463 461
1250.0 573 750 1065 1432 1772 1855 1548 1489 1180 1309
1290.0 2103 2029 1769 1352 1014 762 613 588 538 580
1330.0 597 676 669 789 910 1061 1219 1259 1168 814
1370.0 921 992 1249 1423 1358 1132 925 718 617 551
1410.0 514 504 454 454 410 424 388 382 361 343
1450.0 339 320 317 303 298 307 325 323 386 451
1490.0 514 641 710 744 686 642 547 648 780 785
1530.0 702 566 547 470 470 453 497 494 617 794
1570.0 1099 1474 2166 3214 4543 6368 7812 8858 7980 7258
1610.0 7018 5935 8701 10000 8715 5857 3238 1511 677 448
1650.0 365 384 402 357 397 368 378 333 361 365
1690.0 368 351 348 310 290 283 268 283 280 302
1730.0 294 321 307 316 292 296 338 329 358 372
1770.0 412 456 518 557 581 547 508 476 547 658
1810.0 669 652 586 549 494 461 412 410 478 528
1850.0 516 496 465 442 422 392 383 345 386 416
1890.0 391 347 314 289 260 265 259 259 246 258
1930.0 265 256 264 256 259 255 252 256 261 259
1970.0 261 275 264 256 265 262 258 262 262 256
2010.0 257 264 260 251 259 256 255 256 257 254
2050.0 254 262 259 257 255 264 261 256 253 263
2090.0 255 257 263 269 262 257 259 254 257 248
2130.0 253 253 257 255 258 250 243 250 251 250
2170.0 247 247 244 249 251 239 238 253 244 246
2210.0 244 245 242 248 238 246 237 253 246 242
2250.0 240 253 247 240 242 243 249 240 237 235
2290.0 232 245 242 242 230 227 260 281 310 306
2330.0 302 316 321 302 327 253 291 263 277 234
2370.0 272 259 262 235 227 231 248 249 241 246
2410.0 248 251 246 251 235 244 241 244 246 244
2450.0 247 242 244 241 236 250 249 244 244 237
2490.0 242 237 259 251 241 235 237 235 241 239
2530.0 251 257 252 241 244 245 248 241 240 244
2570.0 249 240 236 240 240 249 252 263 250 256
2610.0 253 263 259 254 253 262 251 265 263 260
2650.0 264 260 262 262 265 261 255 262 241 240
2690.0 249 259 257 252 255 248 267 255 253 251
2730.0 263 248 254 249 255 252 245 247 237 255
2770.0 251 245 258 248 246 251 256 247 251 258
2810.0 251 250 239 247 258 253 248 238 251 248
2850.0 241 252 251 252 252 260 262 264 260 265
2890.0 257 257 261 260 262 262 259 254 263 270
2930.0 263 274 273 276 285 287 279 269 288 282
2970.0 294 291 286 280 265 261 265 294 309 320
3010.0 344 372 400 406 420 429 439 439 453 460
3050.0 457 442 518 582 694 803 878 860 712 878
3090.0 669 942 1147 1151 1054 936 748 640 611 594
3130.0 710 779 671 581 480 417 360 342 342 316
3170.0 301 279 288 268 267 260 254 260 261 259
3210.0 265 263 245 258 257 258 233 227 229 230
3250.0 230 234 253 262 266 249 272 267 260 271
3290.0 251 252 271 253 249 235 234 242 254 268
3330.0 260 248 243 241 256 257 258 247 259 243
3370.0 243 235 250 260 242 277 278 261 248 249
3410.0 245 239 242 262 264 277 270 254 269 249
3450.0 245 265 224 256 265 273 255 227 271 258
3490.0 255 265 276 257 271 260 265 262 251 261
3530.0 251 244 264 265 250 231 248 276 242 269
3570.0 278 264 243 264 265 258 305 240 261 245
3610.0 263 257 274 284 270 278 273 274 251 246
3650.0 296 280 263 239 229 275 270 316 261 275
3690.0 289 293 298 278 240 263 299 289 279 244
3730.0 246 251 292 276 360 259 307 283 265 256
3770.0 261 278 268 286 275 288 273 277 262 294
3810.0 260 300 326 313 304 320 296 284 272 277
3850.0 282 334 290 315 291 265 258 284 306 293
3890.0 247 281 238 306 281 267 296 254 275 245
3930.0 270 276 268 285 244 266 294 254 323 345
##END=
