##TITLE=Ethene, fluoro-
##JCAMP-DX=4.24
##DATA TYPE=INFRARED SPECTRUM
##ORIGIN=Sadtler Research Labs Under US-EPA Contract
##OWNER=NIST Standard Reference Data Program
##CAS REGISTRY NO=75-02-5
##MOLFORM=C 2 H 3 F
##XUNITS=1/CM
##YUNITS=ABSORBANCE
##XFACTOR=1.0
##YFACTOR=0.000042117
##DELTAX=4.0
##FIRSTX=450.0
##LASTX=3966.0
##FIRSTY=0.000000
##MAXX=3966
##MINX=450
##MAXY=0.42117
##MINY=0
##NPOINTS=880
##XYDATA=(X++(Y..Y))
450.0 0 312 557 500 638 434 608 346 392 416
490.0 396 449 453 680 502 542 419 404 332 360
530.0 339 249 322 261 326 166 252 199 242 215
570.0 205 212 218 243 185 260 204 260 219 238
610.0 202 214 270 225 281 226 292 252 295 236
650.0 294 296 316 335 340 371 351 413 376 444
690.0 367 454 396 415 350 716 947 509 400 468
730.0 494 463 483 495 451 487 471 500 457 519
770.0 489 537 516 587 578 653 758 776 884 956
810.0 1143 1153 1353 1436 1619 1653 1770 1843 1867 1988
850.0 2003 2269 2495 6261 4562 3314 3008 2968 3431 3715
890.0 3896 4382 4975 5348 5636 6041 5808 5441 4802 5804
930.0 7576 6401 5317 5703 5795 5856 5253 4637 3996 3349
970.0 2901 2520 2271 1954 1783 1527 1380 1153 1029 892
1010.0 744 688 572 553 437 476 406 406 385 423
1050.0 420 385 449 390 453 383 498 435 505 517
1090.0 578 616 668 916 992 1456 1898 2925 3805 5441
1130.0 6945 8365 9035 8301 7247 4449 7925 6795 5517 9310
1170.0 9975 9884 8296 5769 3896 2267 1582 918 827 640
1210.0 660 564 620 611 526 562 498 539 445 527
1250.0 467 487 448 484 483 465 567 572 661 631
1290.0 702 626 586 595 693 505 570 622 620 676
1330.0 635 647 498 565 621 645 687 685 679 654
1370.0 691 533 598 692 693 760 785 790 834 813
1410.0 674 761 520 654 621 711 573 581 626 588
1450.0 528 433 312 400 488 456 328 372 530 423
1490.0 327 466 378 439 273 230 336 328 214 394
1530.0 384 482 464 380 566 724 790 591 746 813
1570.0 782 704 688 923 1044 1141 1173 1269 1384 1677
1610.0 2094 2716 3486 4608 5791 6822 8585 8292 8312 7143
1650.0 7247 8563 5356 5605 9172 10000 9613 7208 5057 2895
1690.0 1709 976 485 373 372 506 398 273 407 500
1730.0 393 249 392 416 363 313 404 397 412 456
1770.0 390 361 454 422 411 397 391 451 436 545
1810.0 517 517 525 513 498 485 549 602 584 558
1850.0 604 618 602 626 600 518 567 551 505 460
1890.0 396 387 374 368 345 328 306 301 274 309
1930.0 318 301 308 269 283 301 299 292 295 272
1970.0 275 287 280 285 281 253 245 267 273 265
2010.0 269 259 249 245 266 264 281 280 290 313
2050.0 338 353 384 384 381 379 350 403 374 412
2090.0 425 412 396 365 325 285 264 254 234 224
2130.0 225 216 216 206 209 210 200 205 196 189
2170.0 188 187 183 172 171 173 171 173 169 171
2210.0 172 181 175 173 172 171 174 176 172 176
2250.0 181 185 185 190 199 210 224 233 248 254
2290.0 251 248 227 252 275 272 278 306 298 291
2330.0 237 254 233 208 233 199 233 228 245 209
2370.0 229 211 209 190 187 179 179 179 178 181
2410.0 183 178 179 184 190 193 202 201 202 198
2450.0 193 194 209 186 195 202 209 207 203 199
2490.0 195 196 188 185 184 193 191 195 196 200
2530.0 208 209 221 229 243 247 253 252 253 243
2570.0 236 240 235 255 249 243 238 235 216 197
2610.0 194 188 189 187 191 181 179 182 185 176
2650.0 178 182 175 184 184 183 181 177 176 186
2690.0 178 182 183 191 175 184 187 184 189 179
2730.0 185 188 183 189 193 192 189 194 195 206
2770.0 208 216 216 227 225 231 228 219 212 233
2810.0 214 222 228 230 227 210 187 185 170 181
2850.0 189 177 185 191 181 179 181 189 191 183
2890.0 191 185 184 184 194 194 191 192 194 203
2930.0 193 193 198 188 196 202 200 215 225 224
2970.0 227 233 241 225 231 232 227 236 247 242
3010.0 253 262 271 273 272 272 278 283 305 302
3050.0 328 342 367 393 430 468 507 515 504 495
3090.0 452 433 458 518 563 602 619 624 612 587
3130.0 542 476 456 444 405 459 463 453 440 398
3170.0 363 324 301 286 274 251 263 255 234 227
3210.0 223 217 208 208 209 188 197 194 202 186
3250.0 186 193 188 190 193 207 211 209 210 208
3290.0 203 216 205 201 199 209 224 222 207 190
3330.0 186 169 184 182 183 188 185 208 198 200
3370.0 211 209 209 209 203 206 219 204 191 202
3410.0 219 206 203 212 209 215 207 203 215 214
3450.0 215 215 197 218 203 206 217 208 205 202
3490.0 216 200 211 222 200 222 203 200 200 210
3530.0 206 215 210 223 210 236 216 218 223 204
3570.0 222 210 214 232 224 225 207 235 218 234
3610.0 225 234 217 220 205 216 217 232 214 218
3650.0 203 206 220 200 251 192 225 209 227 216
3690.0 200 206 211 228 194 219 219 219 222 228
3730.0 221 205 223 249 167 207 205 225 236 222
3770.0 216 212 209 219 205 212 197 196 253 204
3810.0 234 215 197 228 227 200 215 230 250 235
3850.0 192 207 217 211 212 199 198 218 221 218
3890.0 237 226 227 191 215 227 203 209 225 212
3930.0 193 216 223 190 228 240 207 226 194 224
##END=
