##TITLE=Methylene Chloride
##JCAMP-DX=4.24
##DATA TYPE=INFRARED SPECTRUM
##ORIGIN=Sadtler Research Labs Under US-EPA Contract
##OWNER=NIST Standard Reference Data Program
##CAS REGISTRY NO=75-09-2
##MOLFORM=C H 2 Cl 2
##XUNITS=1/CM
##YUNITS=ABSORBANCE
##XFACTOR=1.0
##YFACTOR=0.000089160
##DELTAX=4.0
##FIRSTX=450.0
##LASTX=3966.0
##FIRSTY=0.002764
##MAXX=3966
##MINX=450
##MAXY=0.8916
##MINY=0
##NPOINTS=880
##XYDATA=(X++(Y..Y))
450.0 31 44 48 37 36 32 32 32 29 28
490.0 31 30 42 27 15 20 28 26 30 39
530.0 36 33 18 31 40 32 30 9 23 55
570.0 10 6 46 31 51 39 31 31 36 36
610.0 36 43 36 36 48 43 47 56 60 79
650.0 95 110 123 149 190 226 249 273 290 347
690.0 387 427 460 515 568 658 838 1207 1763 2295
730.0 2987 4216 6473 9106 10000 8818 6962 6416 5605 4889
770.0 3427 1789 652 133 5 10 37 51 50 53
810.0 62 51 56 50 67 50 44 34 45 45
850.0 48 56 53 54 68 61 67 66 72 67
890.0 72 96 102 70 71 78 80 82 83 72
930.0 72 67 54 54 50 50 50 37 44 38
970.0 38 38 34 41 44 44 43 44 44 38
1010.0 43 40 40 41 37 45 37 44 44 43
1050.0 37 42 43 43 42 49 49 55 69 75
1090.0 65 59 59 47 37 32 38 31 31 31
1130.0 35 32 30 31 31 31 31 27 31 32
1170.0 32 32 31 31 28 33 30 32 31 31
1210.0 30 31 31 30 34 40 67 131 283 586
1250.0 1074 1683 2151 2079 1796 1345 2003 2382 1717 877
1290.0 326 93 28 26 26 26 27 30 33 32
1330.0 32 25 32 30 26 25 28 27 30 29
1370.0 27 30 35 33 39 36 35 39 37 32
1410.0 41 40 49 45 52 54 71 71 89 101
1450.0 108 115 102 112 97 96 81 72 47 37
1490.0 30 30 31 32 24 23 30 28 27 23
1530.0 29 22 36 23 34 31 32 30 26 28
1570.0 26 31 21 28 23 32 24 27 24 26
1610.0 27 26 25 28 30 24 28 19 27 18
1650.0 28 0 26 23 26 14 24 15 21 11
1690.0 24 22 20 16 15 21 24 19 29 24
1730.0 25 20 28 25 30 20 26 21 20 23
1770.0 22 19 24 24 23 21 25 24 26 21
1810.0 21 22 20 21 18 20 21 19 23 17
1850.0 20 17 18 17 20 18 17 17 16 17
1890.0 19 17 17 16 16 17 17 17 19 15
1930.0 14 14 14 17 15 15 13 15 14 15
1970.0 14 13 13 13 14 14 14 12 12 11
2010.0 11 12 12 12 10 11 11 10 12 11
2050.0 14 11 9 11 10 10 10 10 9 9
2090.0 9 9 9 11 11 14 14 8 9 8
2130.0 7 7 7 7 8 8 9 12 12 9
2170.0 7 7 7 7 11 6 6 8 6 9
2210.0 9 8 12 4 11 10 5 5 4 4
2250.0 11 4 5 6 9 11 13 15 15 16
2290.0 23 23 24 30 26 28 29 36 28 20
2330.0 21 19 19 13 13 11 8 7 2 13
2370.0 13 10 13 11 8 7 5 5 4 0
2410.0 5 5 4 6 6 5 1 2 7 0
2450.0 0 1 1 0 0 0 0 0 0 0
2490.0 0 0 2 6 6 6 1 6 7 7
2530.0 5 10 13 6 7 11 6 7 8 1
2570.0 2 2 1 1 1 1 4 5 6 7
2610.0 7 7 7 7 7 7 7 7 12 7
2650.0 14 10 8 10 9 8 8 13 20 26
2690.0 24 29 26 22 28 28 15 10 9 3
2730.0 3 3 9 4 3 8 10 10 10 10
2770.0 10 10 9 9 9 10 11 11 11 10
2810.0 10 10 10 17 15 10 17 21 17 21
2850.0 17 17 16 16 20 17 17 17 17 11
2890.0 12 17 12 11 11 18 15 18 18 18
2930.0 21 23 34 39 45 51 57 80 96 114
2970.0 127 146 178 210 236 243 208 150 189 256
3010.0 265 241 206 179 156 140 120 103 82 65
3050.0 53 42 36 25 14 8 8 15 12 15
3090.0 11 10 10 10 10 9 9 9 9 9
3130.0 9 9 9 9 11 11 11 11 11 10
3170.0 10 10 10 10 10 10 12 12 12 12
3210.0 12 12 12 12 12 12 12 12 12 12
3250.0 13 10 12 12 12 6 6 12 12 12
3290.0 12 20 12 10 11 13 14 13 13 7
3330.0 8 8 14 6 2 14 7 16 15 14
3370.0 5 8 14 14 9 8 4 11 12 15
3410.0 14 7 17 8 10 10 10 0 5 11
3450.0 7 8 9 5 15 17 10 16 7 17
3490.0 17 17 13 7 21 19 5 16 11 16
3530.0 18 18 19 7 23 20 7 4 10 5
3570.0 7 8 4 15 2 19 10 13 20 22
3610.0 16 14 20 9 10 0 17 21 15 9
3650.0 6 16 11 17 9 5 7 5 19 18
3690.0 24 22 22 19 16 20 20 24 19 19
3730.0 18 8 16 19 15 21 21 22 26 25
3770.0 21 23 24 19 16 18 14 16 13 21
3810.0 20 18 16 12 18 7 5 1 8 10
3850.0 1 11 7 10 22 16 15 9 12 11
3890.0 3 7 3 10 12 9 14 24 25 30
3930.0 29 24 15 18 12 12 5 6 6 2
##END=
