##TITLE=Ethanethiol
##JCAMP-DX=4.24
##DATA TYPE=INFRARED SPECTRUM
##ORIGIN=Sadtler Research Labs Under US-EPA Contract
##OWNER=NIST Standard Reference Data Program
##CAS REGISTRY NO=75-08-1
##MOLFORM=C 2 H 6 S
##XUNITS=1/CM
##YUNITS=ABSORBANCE
##XFACTOR=1.0
##YFACTOR=0.000070013
##DELTAX=4.0
##FIRSTX=450.0
##LASTX=3966.0
##FIRSTY=0.000000
##MAXX=3966
##MINX=450
##MAXY=0.70013
##MINY=0
##NPOINTS=880
##XYDATA=(X++(Y..Y))
450.0 0 676 910 1029 1003 805 880 800 930 954
490.0 896 849 740 768 906 891 933 790 738 935
530.0 914 831 824 912 777 798 540 760 936 889
570.0 835 757 842 891 979 898 886 794 842 911
610.0 844 864 778 810 895 839 920 1023 1132 1125
650.0 1246 1289 1182 1248 1272 1394 1307 1236 1105 948
690.0 919 825 810 764 926 844 869 911 879 873
730.0 948 874 1068 1029 1012 845 988 891 898 933
770.0 923 1015 956 920 922 946 969 879 954 923
810.0 873 898 955 934 966 944 946 982 989 1066
850.0 1039 1055 1070 1030 1036 1121 1135 1140 1107 1113
890.0 1113 1098 1041 1034 1045 988 948 916 933 933
930.0 954 1006 1026 1063 1084 1183 1271 1420 1453 1527
970.0 1612 1627 1669 1697 1664 1498 1416 1394 1311 1264
1010.0 1179 1039 969 879 885 868 820 814 897 862
1050.0 883 872 914 941 996 1058 1170 1217 1242 1308
1090.0 1230 1247 1327 1342 1365 1290 1359 1278 1124 937
1130.0 957 890 850 818 887 846 809 809 791 809
1170.0 764 763 805 797 768 776 795 821 812 841
1210.0 875 869 869 985 1083 1203 1352 1574 1898 2223
1250.0 2662 3301 3801 4116 4179 4067 4041 4056 3884 4086
1290.0 3768 3056 2397 1912 1599 1444 1322 1209 1162 1091
1330.0 1026 1020 972 927 915 890 917 946 1047 1102
1370.0 1198 1286 1317 1311 1305 1501 1684 1678 1658 1580
1410.0 1598 1606 1626 1702 1793 1915 1980 2027 2104 2205
1450.0 2245 2589 2616 2214 2011 1929 1817 1758 1693 1563
1490.0 1445 1332 1229 1179 1064 995 898 922 864 840
1530.0 800 746 751 700 724 692 687 677 693 711
1570.0 684 684 711 706 714 719 705 705 689 701
1610.0 720 708 712 699 696 684 680 685 686 683
1650.0 676 669 697 671 682 670 675 672 675 662
1690.0 691 688 674 657 657 680 667 648 659 646
1730.0 634 621 651 637 623 618 629 622 629 628
1770.0 618 620 622 620 611 604 613 613 610 617
1810.0 601 609 605 601 596 597 603 609 597 588
1850.0 591 599 607 600 588 591 590 597 590 597
1890.0 592 601 600 603 597 599 598 596 600 612
1930.0 606 606 610 612 613 610 606 607 608 613
1970.0 605 604 607 598 602 596 598 599 599 594
2010.0 590 582 581 585 587 584 582 577 575 576
2050.0 576 576 580 576 574 573 570 573 572 569
2090.0 570 580 576 581 577 581 583 584 585 582
2130.0 586 588 585 584 582 590 587 586 592 589
2170.0 588 587 583 580 588 585 583 583 586 582
2210.0 584 587 585 590 592 594 596 587 588 592
2250.0 587 592 587 581 580 571 570 564 558 556
2290.0 554 547 550 546 547 552 558 562 558 580
2330.0 564 568 593 559 595 570 586 573 580 570
2370.0 575 573 568 562 559 566 568 560 561 568
2410.0 570 576 574 580 578 587 591 592 592 586
2450.0 586 581 578 579 582 581 581 575 577 572
2490.0 574 568 570 564 559 562 557 562 568 573
2530.0 583 579 586 589 600 622 635 647 667 684
2570.0 728 742 785 819 817 884 856 855 833 849
2610.0 842 831 787 749 715 675 665 640 629 615
2650.0 609 605 600 590 597 590 592 608 618 627
2690.0 636 659 675 683 694 695 717 732 736 757
2730.0 753 759 753 741 737 736 754 750 723 698
2770.0 665 663 654 648 657 659 674 698 706 728
2810.0 759 792 838 882 935 984 1020 1065 1131 1238
2850.0 1322 1487 1693 1948 2386 2872 3278 3388 3214 3260
2890.0 3506 3644 3710 3724 3682 3667 3838 4309 4953 5691
2930.0 6109 6218 6677 7114 7451 8202 9109 9563 9641 9470
2970.0 8915 8847 8779 8710 9943 10000 7963 6343 5784 4957
3010.0 4349 3901 3342 2901 2477 2074 1747 1458 1245 1070
3050.0 941 858 774 738 687 668 678 647 650 643
3090.0 632 647 637 629 623 628 627 630 626 622
3130.0 621 637 636 632 633 630 647 641 638 637
3170.0 653 654 648 662 660 664 666 672 677 680
3210.0 670 678 670 678 664 658 645 627 626 610
3250.0 613 618 599 605 599 602 605 603 614 625
3290.0 622 622 615 612 626 624 619 612 596 582
3330.0 578 587 572 580 572 561 562 574 572 574
3370.0 574 568 568 569 571 579 580 567 569 583
3410.0 574 575 576 579 579 580 587 589 587 590
3450.0 582 581 585 591 587 582 585 571 584 571
3490.0 571 569 583 575 573 559 570 577 574 580
3530.0 571 571 569 569 574 584 586 570 574 573
3570.0 560 575 578 567 572 556 553 574 576 581
3610.0 569 572 557 587 571 588 594 606 582 595
3650.0 575 592 594 612 602 593 617 605 591 583
3690.0 608 597 613 592 597 587 581 578 578 590
3730.0 592 575 586 615 574 606 571 597 596 614
3770.0 594 562 571 572 583 602 569 603 584 605
3810.0 582 601 621 592 590 598 568 595 628 596
3850.0 576 577 589 620 605 617 610 567 584 551
3890.0 605 599 563 602 578 626 601 581 579 567
3930.0 609 634 588 570 570 546 586 582 589 567
##END=
