##TITLE=Ethyl Chloride
##JCAMP-DX=4.24
##DATA TYPE=INFRARED SPECTRUM
##ORIGIN=Sadtler Research Labs Under US-EPA Contract
##OWNER=NIST Standard Reference Data Program
##CAS REGISTRY NO=75-00-3
##MOLFORM=C 2 H 5 Cl
##XUNITS=1/CM
##YUNITS=ABSORBANCE
##XFACTOR=1.0
##YFACTOR=0.000079437
##DELTAX=4.0
##FIRSTX=450.0
##LASTX=3966.0
##FIRSTY=0.010406
##MAXX=3966
##MINX=450
##MAXY=0.79437
##MINY=0
##NPOINTS=880
##XYDATA=(X++(Y..Y))
450.0 131 164 194 216 129 146 96 140 44 96
490.0 51 107 77 75 91 78 64 34 76 26
530.0 73 52 79 31 49 75 9 60 17 94
570.0 0 114 44 76 41 75 130 98 177 126
610.0 192 112 279 270 380 480 720 1093 1614 2576
650.0 3573 4894 5902 6434 6269 6210 5943 6781 6619 8512
690.0 7201 4630 1988 712 194 207 143 116 142 101
730.0 125 70 149 104 147 154 213 222 232 308
770.0 294 368 296 503 612 594 466 434 386 426
810.0 390 374 366 316 279 230 213 165 148 120
850.0 105 82 67 66 53 55 35 53 32 35
890.0 36 35 45 39 50 53 82 115 166 240
930.0 370 558 826 1213 1781 2543 3461 4141 4455 4148
970.0 4308 3867 3500 4898 5415 4220 2771 1558 1001 708
1010.0 679 657 621 545 491 490 398 411 391 362
1050.0 356 347 318 277 235 184 190 214 226 186
1090.0 162 122 103 86 66 56 49 52 27 41
1130.0 25 27 18 20 20 19 26 17 28 22
1170.0 33 30 32 33 45 46 49 66 61 77
1210.0 83 107 120 138 157 185 228 261 366 490
1250.0 766 1146 1818 2795 4045 5388 6198 6346 5762 6244
1290.0 6045 6649 7718 7521 5677 4092 2838 2218 1982 1892
1330.0 1589 1276 1049 888 899 924 878 894 1000 1006
1370.0 1102 1271 1357 1426 1191 1486 2141 2326 2144 1774
1410.0 1551 1399 1376 1421 1497 1521 1606 1699 1886 2496
1450.0 2398 1753 1948 1885 1584 1474 1581 1528 1368 1259
1490.0 1041 936 779 688 585 464 394 309 266 204
1530.0 177 122 131 83 59 84 59 78 70 60
1570.0 56 74 78 74 65 87 85 95 96 97
1610.0 95 93 118 95 106 100 108 93 91 78
1650.0 83 104 101 83 81 75 84 73 74 91
1690.0 77 71 86 76 70 68 71 58 68 64
1730.0 52 60 53 46 28 32 37 41 30 41
1770.0 22 19 22 18 24 18 18 10 10 20
1810.0 18 14 24 17 16 12 19 21 16 15
1850.0 18 22 20 25 17 7 23 18 21 18
1890.0 20 18 26 28 32 34 39 52 51 64
1930.0 71 70 71 57 51 69 68 56 43 25
1970.0 24 17 25 20 25 19 21 28 31 34
2010.0 36 46 47 56 57 56 55 50 52 65
2050.0 65 52 42 34 30 26 27 23 22 21
2090.0 20 26 24 26 28 30 32 34 36 35
2130.0 42 37 42 41 43 41 46 44 39 47
2170.0 46 41 41 46 41 48 48 57 62 66
2210.0 71 79 88 86 102 101 141 153 138 132
2250.0 131 124 115 120 123 108 91 71 59 52
2290.0 43 27 14 14 5 1 13 14 27 34
2330.0 42 45 54 48 45 69 31 34 29 42
2370.0 34 38 26 18 22 31 47 47 56 58
2410.0 63 68 79 86 97 105 125 134 138 142
2450.0 118 126 148 138 136 117 98 80 70 65
2490.0 64 64 61 64 63 61 66 67 58 53
2530.0 47 51 45 38 41 35 28 28 26 21
2570.0 22 17 19 18 18 22 19 23 21 24
2610.0 21 25 28 32 30 31 33 34 32 34
2650.0 42 31 42 37 44 46 48 46 51 51
2690.0 50 59 60 69 73 78 88 117 145 179
2730.0 213 240 258 248 264 236 263 315 290 241
2770.0 192 153 135 130 121 127 124 134 138 149
2810.0 170 189 216 247 291 314 342 368 391 446
2850.0 522 594 792 1036 1332 1672 1956 2097 2238 2581
2890.0 2644 2541 2488 2502 2658 2757 2908 3182 3769 4466
2930.0 5129 5050 4687 4782 5557 5282 7039 7441 7611 7627
2970.0 7955 8303 8284 7902 7763 8392 9768 10000 9271 8619
3010.0 9016 8784 6204 5111 4820 4264 3814 3317 2844 2359
3050.0 1940 1561 1223 959 736 571 431 350 277 231
3090.0 185 167 153 134 130 121 120 111 111 106
3130.0 102 94 101 100 103 101 105 110 107 117
3170.0 116 122 126 132 138 139 152 149 162 168
3210.0 171 167 182 199 186 159 177 182 158 140
3250.0 135 126 128 115 108 86 78 72 77 77
3290.0 82 84 86 87 93 95 79 79 89 83
3330.0 83 82 73 53 39 23 28 27 27 22
3370.0 19 27 25 22 25 24 29 28 26 21
3410.0 25 26 32 22 22 27 23 31 29 29
3450.0 25 28 27 21 23 24 28 23 7 18
3490.0 25 22 18 15 12 18 11 17 8 4
3530.0 5 21 14 13 4 10 20 20 16 3
3570.0 9 15 22 20 16 17 10 8 10 13
3610.0 5 1 3 16 29 32 39 28 45 30
3650.0 19 36 42 44 57 32 42 34 33 34
3690.0 42 21 26 11 26 23 11 16 25 12
3730.0 15 14 11 12 42 15 23 25 17 30
3770.0 23 44 45 28 33 44 32 24 28 16
3810.0 17 11 19 1 6 14 13 9 22 18
3850.0 4 27 8 11 14 1 3 13 1 13
3890.0 34 8 1 1 18 13 24 22 30 13
3930.0 7 18 34 34 22 18 32 32 21 35
##END=
