##TITLE=Ethylamine
##JCAMP-DX=4.24
##DATA TYPE=INFRARED SPECTRUM
##ORIGIN=Sadtler Research Labs Under US-EPA Contract
##OWNER=NIST Standard Reference Data Program
##CAS REGISTRY NO=75-04-7
##MOLFORM=C 2 H 7 N
##XUNITS=1/CM
##YUNITS=ABSORBANCE
##XFACTOR=1.0
##YFACTOR=0.000147107
##DELTAX=4.0
##FIRSTX=450.0
##LASTX=3966.0
##FIRSTY=0.002059
##MAXX=3966
##MINX=450
##MAXY=1.47107
##MINY=0
##NPOINTS=880
##XYDATA=(X++(Y..Y))
450.0 14 96 92 113 41 1 34 45 8 9
490.0 21 18 3 25 15 22 33 35 53 74
530.0 65 65 103 80 116 134 139 174 182 202
570.0 206 251 248 261 266 275 302 319 321 341
610.0 372 375 405 417 455 465 481 502 545 566
650.0 594 619 629 692 666 785 854 849 904 953
690.0 1040 1115 1221 1343 1481 1636 1848 2072 2334 2684
730.0 3014 3416 3811 4291 4680 5402 5976 6530 7077 7351
770.0 7668 8508 7345 7198 7575 7797 6989 6695 6412 5812
810.0 4779 4159 3276 2554 2249 1956 1714 1523 1302 1155
850.0 1025 953 868 824 777 749 657 629 627 562
890.0 546 544 496 487 438 373 305 249 223 205
930.0 225 177 133 115 113 105 102 104 126 188
970.0 117 79 105 101 115 129 159 165 200 236
1010.0 282 356 409 478 556 665 765 835 911 1026
1050.0 1217 1431 1461 1710 2021 2132 2164 1986 2059 2119
1090.0 1677 1899 2182 2204 1948 1549 1196 955 783 662
1130.0 601 521 447 373 301 251 209 189 163 133
1170.0 119 105 101 84 83 77 78 81 74 77
1210.0 78 74 71 62 52 44 46 46 50 47
1250.0 71 84 101 124 157 196 231 256 270 260
1290.0 291 318 300 318 358 366 385 378 411 433
1330.0 476 496 504 510 565 792 727 864 1080 1268
1370.0 1379 1502 1693 1641 1565 1620 1793 1948 1591 1611
1410.0 1667 1592 1400 1126 915 758 704 689 723 757
1450.0 808 971 1051 837 725 719 674 672 645 639
1490.0 582 561 514 464 414 325 296 238 210 183
1530.0 168 151 143 126 128 166 164 192 238 281
1570.0 330 396 493 575 695 828 985 1140 1292 1408
1610.0 1472 1512 1575 1623 1606 1542 1512 1455 1411 1285
1650.0 1136 984 832 704 587 485 393 340 268 215
1690.0 169 139 98 63 61 52 43 21 40 34
1730.0 26 21 24 21 4 9 19 23 23 32
1770.0 23 23 29 25 36 29 35 33 34 47
1810.0 47 48 62 62 62 61 67 75 70 70
1850.0 75 84 79 77 71 56 67 61 60 51
1890.0 46 41 40 37 34 29 28 24 12 12
1930.0 11 8 6 1 2 5 5 4 8 2
1970.0 8 10 11 10 15 11 11 15 13 13
2010.0 12 13 10 13 14 19 17 15 13 13
2050.0 14 15 17 17 13 17 19 18 18 18
2090.0 17 20 19 21 21 21 23 24 25 24
2130.0 25 26 30 31 34 32 34 33 33 32
2170.0 32 31 35 33 31 27 29 30 26 28
2210.0 30 30 30 32 35 37 40 41 43 42
2250.0 44 46 50 48 46 47 50 47 43 38
2290.0 30 26 18 13 6 3 4 2 3 0
2330.0 0 4 12 0 8 5 0 4 0 1
2370.0 12 20 21 27 33 38 42 41 44 45
2410.0 47 46 44 44 45 45 43 44 46 51
2450.0 48 50 51 47 48 52 52 51 50 48
2490.0 48 48 48 44 47 46 47 47 51 56
2530.0 55 59 63 67 71 75 78 81 85 88
2570.0 94 96 100 105 109 111 112 115 113 113
2610.0 118 124 125 130 137 141 149 157 167 179
2650.0 191 204 217 229 244 256 271 285 296 311
2690.0 331 346 361 378 392 406 420 433 454 473
2730.0 490 502 517 524 538 552 567 590 610 615
2770.0 619 628 651 689 743 814 890 985 1092 1223
2810.0 1368 1536 1714 1920 2133 2368 2649 2880 3115 3372
2850.0 3635 3995 4409 4686 4965 5149 5261 5297 5314 5512
2890.0 5444 5432 5526 5696 5749 5804 5901 6018 6350 6226
2930.0 6259 6538 7073 7455 7680 8098 8628 8861 8670 9800
2970.0 10000 8307 8028 8060 7710 6849 6290 5571 4775 4057
3010.0 3377 2785 2259 1816 1437 1132 881 676 520 401
3050.0 319 256 217 184 166 152 145 138 130 125
3090.0 122 123 117 112 112 117 108 109 104 103
3130.0 103 103 104 99 103 102 105 105 108 110
3170.0 110 118 124 125 127 128 133 136 134 132
3210.0 128 128 123 115 113 108 99 87 76 71
3250.0 60 55 45 39 35 29 31 26 25 29
3290.0 30 41 43 47 56 65 77 96 111 124
3330.0 136 153 149 167 205 191 181 201 199 199
3370.0 179 172 159 146 135 126 113 103 94 85
3410.0 80 72 62 50 51 39 38 35 31 27
3450.0 25 30 19 18 20 20 24 14 12 11
3490.0 15 14 15 13 12 15 17 15 11 6
3530.0 15 15 17 12 10 8 8 18 12 4
3570.0 4 10 6 3 13 0 12 1 8 6
3610.0 11 1 3 11 5 11 15 7 15 13
3650.0 13 8 12 20 8 15 12 22 14 22
3690.0 20 14 15 10 11 15 15 19 12 17
3730.0 19 27 31 13 44 27 28 24 25 29
3770.0 21 23 20 23 15 17 19 25 13 27
3810.0 19 24 27 15 17 20 21 27 15 9
3850.0 20 27 36 23 27 17 21 23 10 33
3890.0 21 21 24 19 17 28 31 19 30 34
3930.0 30 22 37 41 38 37 53 39 36 34
##END=
