##TITLE=Acetonitrile
##JCAMP-DX=4.24
##DATA TYPE=INFRARED SPECTRUM
##ORIGIN=Sadtler Research Labs Under US-EPA Contract
##OWNER=NIST Standard Reference Data Program
##CAS REGISTRY NO=75-05-8
##MOLFORM=C 2 H 3 N
##XUNITS=1/CM
##YUNITS=ABSORBANCE
##XFACTOR=1.0
##YFACTOR=0.000070270
##DELTAX=4.0
##FIRSTX=450.0
##LASTX=3966.0
##FIRSTY=0.004778
##MAXX=3966
##MINX=450
##MAXY=0.7027
##MINY=0
##NPOINTS=880
##XYDATA=(X++(Y..Y))
450.0 68 147 156 120 113 117 180 111 90 184
490.0 97 50 52 196 136 121 100 179 14 183
530.0 57 61 115 91 142 87 128 184 163 122
570.0 69 168 84 116 103 124 92 40 98 24
610.0 68 90 111 108 80 116 160 146 120 140
650.0 153 151 160 215 248 465 608 865 1269 1712
690.0 2101 2351 2344 2026 1687 1390 1422 1609 1691 1847
730.0 1740 1529 1195 909 682 452 308 189 93 110
770.0 88 93 57 10 24 40 29 85 59 38
810.0 58 38 32 46 58 65 35 45 18 32
850.0 41 64 74 71 93 141 202 244 384 526
890.0 730 924 1108 1247 1273 1202 964 922 748 793
930.0 919 1013 994 830 637 415 276 195 182 218
970.0 228 283 340 422 498 593 747 750 876 1011
1010.0 1265 1206 1248 1459 1889 1505 1492 1845 2132 1624
1050.0 1619 1789 1955 1569 1513 1396 1301 1378 1131 901
1090.0 889 970 601 589 519 427 440 313 264 251
1130.0 186 138 129 120 113 103 63 58 62 64
1170.0 37 47 32 40 52 42 62 65 50 59
1210.0 72 102 107 107 121 148 156 157 262 183
1250.0 160 346 289 268 317 484 430 413 738 763
1290.0 619 676 1123 684 663 1292 1031 1058 1334 1706
1330.0 1438 1498 3230 1587 1495 2559 2501 2362 3518 4231
1370.0 4916 5449 6894 4702 5201 5998 6947 7724 7324 6816
1410.0 7823 6084 5873 10000 7544 4884 5352 7191 5001 5236
1450.0 6968 5346 5209 6027 8229 5176 5154 6007 7375 5498
1490.0 4418 5005 5872 4948 4259 4701 6357 4718 4695 4269
1530.0 5520 3627 3686 4617 2787 2718 2712 2776 2451 2794
1570.0 2517 1829 2366 1961 1345 1428 1312 931 1194 1204
1610.0 727 888 1063 637 780 536 549 720 439 558
1650.0 659 899 304 364 280 447 394 252 430 562
1690.0 298 286 520 554 364 210 337 589 228 206
1730.0 324 585 333 366 361 488 323 345 353 239
1770.0 391 395 239 258 282 279 398 272 393 234
1810.0 279 269 271 263 359 352 269 253 306 423
1850.0 305 235 215 242 248 354 196 173 170 194
1890.0 249 249 246 229 196 183 164 223 193 130
1930.0 105 112 92 153 124 88 89 94 88 90
1970.0 100 83 66 62 56 118 108 67 55 60
2010.0 71 65 106 78 73 76 77 93 118 135
2050.0 128 146 153 155 172 125 117 124 140 161
2090.0 154 136 133 115 96 87 58 48 45 26
2130.0 12 26 34 26 21 29 36 43 22 12
2170.0 5 12 6 13 41 57 64 58 73 77
2210.0 105 124 184 240 354 464 598 766 899 1002
2250.0 1052 1010 943 950 1059 1124 1434 1691 1730 1589
2290.0 1364 1132 937 785 1045 1099 1206 1304 1222 997
2330.0 747 566 438 361 333 289 341 363 311 337
2370.0 297 336 324 323 336 338 379 398 433 403
2410.0 391 410 468 368 373 397 383 386 323 295
2450.0 267 232 275 269 265 264 293 304 307 285
2490.0 278 291 252 238 249 241 256 226 222 204
2530.0 188 199 173 160 171 160 198 185 173 178
2570.0 163 166 172 169 224 269 318 385 482 511
2610.0 665 699 786 764 579 386 338 289 236 157
2650.0 118 90 87 85 65 33 9 24 30 18
2690.0 31 14 18 13 40 44 49 48 64 88
2730.0 89 96 118 99 100 122 161 186 181 149
2770.0 106 102 96 102 88 100 133 134 116 139
2810.0 157 141 148 173 187 235 284 394 402 516
2850.0 584 600 605 636 708 940 880 1026 1063 974
2890.0 845 801 804 820 859 897 945 1021 1212 1412
2930.0 1829 2021 2309 2424 2405 1799 1705 1745 1805 2454
2970.0 2709 2523 2443 1723 2097 1150 1084 985 719 1190
3010.0 633 1741 775 1024 946 806 1142 655 1746 726
3050.0 1136 721 879 776 828 1070 618 851 547 738
3090.0 436 799 440 519 416 418 368 376 322 298
3130.0 310 310 341 371 415 457 516 570 638 652
3170.0 608 536 574 505 585 897 1003 949 669 351
3210.0 216 168 196 205 235 256 209 167 139 101
3250.0 85 77 66 79 81 81 89 75 84 68
3290.0 79 89 100 81 115 94 108 118 120 103
3330.0 105 96 128 118 129 91 106 104 138 161
3370.0 123 101 104 104 113 118 134 108 108 130
3410.0 91 105 74 95 110 108 80 94 95 69
3450.0 88 69 70 52 107 96 75 37 56 72
3490.0 93 65 54 105 87 109 37 60 93 57
3530.0 78 80 87 85 116 67 13 10 71 102
3570.0 160 81 105 83 73 124 92 96 102 73
3610.0 77 131 54 92 62 154 87 113 76 133
3650.0 200 98 102 86 84 124 93 218 110 94
3690.0 126 69 79 74 24 73 70 104 26 63
3730.0 103 85 94 86 95 76 98 69 43 46
3770.0 4 0 23 65 63 34 36 50 87 83
3810.0 92 75 35 77 49 108 71 74 99 122
3850.0 111 55 52 93 84 100 87 102 97 136
3890.0 104 125 97 130 128 171 156 150 165 157
3930.0 154 160 183 174 182 158 115 85 86 86
##END=
