##TITLE=Formamide
##JCAMP-DX=4.24
##DATA TYPE=INFRARED SPECTRUM
##ORIGIN=Sadtler Research Labs Under US-EPA Contract
##OWNER=NIST Standard Reference Data Program
##CAS REGISTRY NO=75-12-7
##MOLFORM=C H 3 N O
##XUNITS=1/CM
##YUNITS=ABSORBANCE
##XFACTOR=1.0
##YFACTOR=0.000073242
##DELTAX=4.0
##FIRSTX=450.0
##LASTX=3966.0
##FIRSTY=0.027832
##MAXX=3966
##MINX=450
##MAXY=0.73242
##MINY=0
##NPOINTS=880
##XYDATA=(X++(Y..Y))
450.0 380 383 351 277 246 236 257 205 174 158
490.0 79 5 53 87 54 79 90 116 99 156
530.0 203 300 326 344 540 545 584 689 660 663
570.0 811 985 1209 1245 937 843 828 711 877 762
610.0 636 684 686 741 787 883 931 1017 892 796
650.0 764 708 491 551 724 777 718 592 495 402
690.0 285 186 157 90 80 85 87 88 118 104
730.0 158 241 298 362 471 513 576 584 362 486
770.0 346 405 588 729 758 725 670 582 521 480
810.0 343 310 355 303 368 417 431 383 330 303
850.0 285 263 242 228 202 171 153 148 140 148
890.0 152 114 121 105 107 112 115 120 139 152
930.0 172 176 155 133 170 148 141 168 209 251
970.0 204 184 176 178 157 154 134 157 151 185
1010.0 192 217 244 307 282 285 293 266 238 277
1050.0 250 286 295 323 392 410 442 431 444 431
1090.0 378 355 300 306 484 328 449 516 571 513
1130.0 485 419 375 413 370 398 462 408 404 455
1170.0 501 458 430 407 398 380 363 368 368 381
1210.0 450 583 708 865 1134 1407 1673 1911 2006 1736
1250.0 1372 1430 1548 1821 1829 2177 2355 2252 1900 1459
1290.0 1038 647 427 277 216 172 186 195 187 167
1330.0 142 113 174 145 62 66 83 82 168 145
1370.0 155 182 140 109 106 154 121 151 98 125
1410.0 92 84 183 108 75 69 58 161 18 26
1450.0 55 70 234 41 66 24 143 71 28 38
1490.0 161 39 110 87 206 311 163 211 259 207
1530.0 173 259 263 445 486 516 617 822 833 729
1570.0 686 552 823 504 613 814 946 938 872 752
1610.0 666 563 482 346 412 412 416 464 369 384
1650.0 327 419 217 198 167 236 210 222 281 370
1690.0 353 396 586 847 1015 1424 2122 3103 4172 5535
1730.0 6876 7996 8408 7823 6809 7086 7748 5058 5284 8064
1770.0 9949 10000 8398 6226 4269 2738 1753 1064 761 481
1810.0 376 264 226 143 184 176 150 139 141 176
1850.0 101 56 40 47 50 109 49 29 31 35
1890.0 59 38 34 29 29 41 22 56 50 30
1930.0 16 16 8 29 19 5 7 8 10 15
1970.0 15 3 3 3 4 18 33 9 9 9
2010.0 9 9 29 11 10 4 4 5 18 7
2050.0 4 4 3 3 19 5 4 11 10 12
2090.0 18 11 11 11 12 12 16 13 11 19
2130.0 11 12 12 5 7 12 12 12 12 12
2170.0 15 19 12 19 13 19 20 20 12 21
2210.0 17 22 25 20 15 19 15 15 21 15
2250.0 8 14 17 24 31 36 38 50 49 57
2290.0 57 50 57 63 51 67 77 78 76 80
2330.0 75 65 62 39 36 44 51 65 93 78
2370.0 62 56 32 35 24 21 11 11 11 12
2410.0 12 12 6 11 16 19 15 12 12 11
2450.0 11 11 11 10 10 10 17 17 16 16
2490.0 16 19 21 22 16 16 15 23 23 16
2530.0 14 22 22 15 12 6 9 8 7 15
2570.0 14 13 13 13 22 15 23 26 21 28
2610.0 25 25 26 25 33 39 38 37 31 40
2650.0 35 43 42 44 52 58 59 65 72 71
2690.0 79 92 93 104 111 128 156 176 196 225
2730.0 253 266 266 243 211 173 181 242 318 381
2770.0 422 447 448 453 460 469 503 516 545 588
2810.0 627 698 752 846 929 1020 1080 1101 1043 891
2850.0 662 558 601 852 1089 1197 1190 1123 991 875
2890.0 757 665 575 519 464 416 384 338 295 262
2930.0 219 186 154 132 104 96 83 76 76 54
2970.0 55 53 41 41 36 29 28 33 20 21
3010.0 20 27 26 24 13 12 20 15 18 25
3050.0 13 13 19 5 11 11 11 19 22 13
3090.0 16 17 18 24 24 23 31 36 39 44
3130.0 31 32 28 33 35 46 43 42 50 50
3170.0 35 36 26 29 28 32 21 33 17 14
3210.0 29 13 7 7 14 13 26 11 9 16
3250.0 14 16 18 6 12 19 13 18 19 5
3290.0 10 28 23 14 17 18 23 25 17 23
3330.0 23 29 38 35 32 36 42 50 58 62
3370.0 74 81 110 137 172 215 248 290 332 372
3410.0 430 514 618 599 603 578 514 560 520 415
3450.0 527 605 623 586 511 430 353 299 304 276
3490.0 290 282 305 368 404 411 409 403 407 464
3530.0 473 464 562 610 701 638 570 436 409 458
3570.0 452 431 500 518 523 536 396 333 264 218
3610.0 256 227 192 170 115 203 105 66 69 76
3650.0 156 80 73 19 27 81 80 94 38 27
3690.0 78 38 18 38 31 68 84 59 68 111
3730.0 83 129 138 89 155 121 90 58 43 38
3770.0 43 23 26 15 19 19 27 44 78 49
3810.0 38 28 63 77 56 55 76 85 67 53
3850.0 62 120 86 80 82 102 80 62 88 86
3890.0 63 65 79 98 81 42 43 66 53 46
3930.0 47 58 30 39 38 41 0 3 3 3
##END=
