##TITLE=Carbon disulfide
##JCAMP-DX=4.24
##DATA TYPE=INFRARED SPECTRUM
##ORIGIN=Sadtler Research Labs Under US-EPA Contract
##OWNER=NIST Standard Reference Data Program
##CAS REGISTRY NO=75-15-0
##MOLFORM=C S 2
##XUNITS=1/CM
##YUNITS=ABSORBANCE
##XFACTOR=1.0
##YFACTOR=0.000070435
##DELTAX=4.0
##FIRSTX=450.0
##LASTX=3966.0
##FIRSTY=0.000000
##MAXX=3966
##MINX=450
##MAXY=0.70435
##MINY=0
##NPOINTS=880
##XYDATA=(X++(Y..Y))
450.0 0 222 343 368 265 187 244 337 256 278
490.0 427 241 244 246 246 245 268 291 288 249
530.0 258 162 265 355 303 264 322 332 208 213
570.0 213 269 291 191 192 249 271 176 254 324
610.0 339 191 225 303 296 267 273 308 261 280
650.0 353 298 278 323 271 297 359 310 341 279
690.0 324 322 310 287 311 292 262 324 349 351
730.0 320 298 283 262 314 347 332 322 325 317
770.0 334 358 344 311 304 328 329 306 352 354
810.0 388 331 319 374 332 323 340 309 317 357
850.0 332 331 354 375 379 360 371 364 339 359
890.0 384 338 319 392 383 381 367 378 367 305
930.0 349 376 358 397 330 372 398 389 345 373
970.0 362 378 368 351 354 385 391 385 380 385
1010.0 399 377 401 405 389 382 393 402 384 381
1050.0 388 415 385 390 389 399 421 421 401 378
1090.0 395 410 416 411 388 450 432 404 377 425
1130.0 403 415 426 416 424 420 420 420 428 426
1170.0 416 427 434 418 430 431 425 433 430 438
1210.0 433 441 435 442 442 426 449 458 439 449
1250.0 437 457 459 444 449 444 452 445 443 452
1290.0 435 438 455 451 475 440 437 426 435 461
1330.0 457 452 391 396 470 458 467 460 407 438
1370.0 450 423 441 459 438 431 425 385 433 466
1410.0 427 485 342 428 435 473 398 421 476 483
1450.0 464 438 385 466 568 563 487 625 764 850
1490.0 1054 1500 2029 2822 3798 5202 6871 8131 9035 9419
1530.0 8991 9247 9671 10000 8636 3585 876 113 577 402
1570.0 468 483 431 506 496 502 496 470 527 450
1610.0 500 496 404 503 403 513 440 396 476 428
1650.0 336 346 425 472 427 428 357 446 358 314
1690.0 407 445 286 327 374 442 399 291 434 464
1730.0 403 309 396 428 364 342 402 392 409 428
1770.0 370 367 417 408 415 402 372 399 372 427
1810.0 416 415 432 417 400 377 415 430 400 362
1850.0 400 442 424 427 402 357 420 420 425 413
1890.0 399 410 410 426 412 402 403 391 382 407
1930.0 412 408 406 383 385 409 409 397 410 392
1970.0 394 408 398 399 402 370 380 390 395 395
2010.0 395 390 371 382 389 384 394 378 379 384
2050.0 378 384 386 379 367 375 380 372 372 374
2090.0 359 364 364 375 376 370 374 369 375 378
2130.0 385 396 403 413 431 440 462 483 495 531
2170.0 533 508 540 555 469 436 529 461 358 330
2210.0 337 331 328 326 330 329 330 324 324 324
2250.0 317 325 317 317 319 311 314 312 317 313
2290.0 307 306 302 302 308 308 319 322 305 303
2330.0 292 320 307 290 266 254 251 254 252 254
2370.0 250 247 258 266 269 275 278 273 275 272
2410.0 271 271 276 269 272 269 270 269 266 266
2450.0 265 261 263 260 258 253 256 255 259 254
2490.0 249 253 254 243 244 247 245 244 241 239
2530.0 234 239 241 235 238 235 232 232 230 231
2570.0 227 224 227 223 222 226 224 223 214 216
2610.0 214 217 214 213 211 214 207 212 209 205
2650.0 202 200 201 200 201 196 195 201 190 190
2690.0 191 192 192 187 190 189 184 186 183 187
2730.0 183 174 184 184 180 177 173 175 166 172
2770.0 171 172 179 179 176 174 171 181 179 171
2810.0 176 177 182 179 176 179 168 184 181 171
2850.0 177 179 175 176 178 178 172 174 176 174
2890.0 175 173 183 177 169 187 176 177 174 174
2930.0 173 183 177 178 178 182 181 178 175 174
2970.0 180 178 176 174 176 183 175 179 173 170
3010.0 180 171 171 175 181 181 174 178 180 172
3050.0 176 179 174 180 179 173 168 179 176 172
3090.0 179 176 180 188 190 179 177 177 182 182
3130.0 187 176 184 185 178 185 183 186 184 179
3170.0 191 187 174 180 182 195 182 204 184 174
3210.0 187 185 187 187 183 188 182 181 192 178
3250.0 192 186 184 181 176 192 178 189 182 183
3290.0 194 197 191 194 179 178 190 191 196 185
3330.0 189 175 176 194 187 198 182 186 205 188
3370.0 184 185 173 200 199 196 195 195 184 186
3410.0 197 191 187 190 186 186 194 194 191 202
3450.0 205 195 199 193 192 195 200 192 194 188
3490.0 196 189 196 192 205 196 196 194 188 195
3530.0 200 214 177 187 179 192 201 175 194 192
3570.0 205 194 190 199 180 202 192 198 197 198
3610.0 188 182 193 205 213 204 176 205 229 185
3650.0 196 187 204 179 218 197 217 194 169 201
3690.0 175 200 211 197 197 182 200 189 205 207
3730.0 196 190 170 196 182 188 194 202 204 196
3770.0 193 194 207 186 204 201 200 176 205 194
3810.0 226 186 217 165 205 211 183 165 172 217
3850.0 199 205 177 213 193 206 180 190 191 178
3890.0 176 227 179 167 182 186 194 181 214 249
3930.0 219 204 196 281 181 171 187 209 208 210
##END=
