##TITLE=Propane, 2-chloro-
##JCAMP-DX=4.24
##DATA TYPE=INFRARED SPECTRUM
##ORIGIN=Sadtler Research Labs Under US-EPA Contract
##OWNER=NIST Standard Reference Data Program
##CAS REGISTRY NO=75-29-6
##MOLFORM=C 3 H 7 Cl
##XUNITS=1/CM
##YUNITS=ABSORBANCE
##XFACTOR=1.0
##YFACTOR=0.000088281
##DELTAX=4.0
##FIRSTX=450.0
##LASTX=3966.0
##FIRSTY=0.000000
##MAXX=3966
##MINX=450
##MAXY=0.88281
##MINY=0
##NPOINTS=880
##XYDATA=(X++(Y..Y))
450.0 0 77 120 105 58 68 103 115 84 97
490.0 71 91 88 53 88 92 98 70 87 89
530.0 88 97 85 88 69 80 78 81 77 109
570.0 101 98 94 128 145 230 353 602 951 1402
610.0 1894 2377 2762 3034 3074 3570 3389 2940 2988 2274
650.0 1182 478 238 170 193 167 187 185 165 155
690.0 141 115 110 105 93 85 86 89 95 86
730.0 103 87 105 100 104 98 86 88 73 64
770.0 70 66 77 85 88 94 84 77 89 95
810.0 86 72 77 73 73 78 85 89 101 117
850.0 132 184 259 411 607 862 1071 1191 1267 1417
890.0 1245 1130 1289 1142 794 483 303 212 197 208
930.0 194 181 187 200 199 182 168 147 133 123
970.0 111 100 91 89 89 82 84 84 86 91
1010.0 105 115 126 137 146 169 218 303 493 804
1050.0 1221 1534 1519 1535 2414 1377 1692 2005 1642 991
1090.0 522 316 277 304 364 440 506 562 597 599
1130.0 627 780 969 1154 1405 1615 1663 1624 1755 1738
1170.0 1648 1541 1296 985 682 441 281 198 169 166
1210.0 175 199 221 263 337 477 720 1086 1572 2112
1250.0 2659 3289 3373 3421 3974 3750 3109 3440 2768 1564
1290.0 811 476 340 298 306 338 377 394 343 275
1330.0 227 264 304 282 306 398 558 804 1104 1432
1370.0 1701 1714 1485 2277 2457 2778 1967 1441 1219 939
1410.0 685 502 510 554 710 860 1055 1149 1170 1158
1450.0 1713 2395 1426 1354 1295 1669 1576 990 923 881
1490.0 802 629 482 378 313 271 219 193 181 138
1530.0 145 103 122 116 111 83 91 108 80 78
1570.0 77 91 76 96 79 98 90 98 86 92
1610.0 89 86 100 83 104 74 100 97 98 86
1650.0 138 101 115 108 122 107 142 105 147 144
1690.0 134 122 153 129 137 114 128 138 112 94
1730.0 108 118 102 97 111 106 91 91 86 78
1770.0 85 90 80 81 70 82 75 80 83 72
1810.0 78 87 71 81 74 86 78 69 78 75
1850.0 67 55 59 58 67 66 61 57 58 59
1890.0 61 65 59 57 56 52 57 50 61 50
1930.0 49 49 46 52 52 44 45 47 45 49
1970.0 46 46 47 48 46 58 56 55 54 59
2010.0 58 62 64 64 60 58 57 58 55 54
2050.0 51 53 54 52 51 50 47 45 45 46
2090.0 43 40 43 42 41 43 42 42 43 44
2130.0 42 46 47 43 40 40 39 40 40 42
2170.0 42 40 40 41 39 40 40 42 44 42
2210.0 44 44 48 51 54 58 61 66 77 86
2250.0 95 99 99 101 106 110 103 95 85 78
2290.0 69 68 67 72 79 87 89 87 89 87
2330.0 84 76 70 61 65 51 51 51 46 59
2370.0 61 67 65 65 64 64 66 61 61 56
2410.0 53 51 52 47 49 51 53 53 56 54
2450.0 56 63 58 53 53 52 55 55 56 63
2490.0 67 73 81 86 92 95 99 95 96 97
2530.0 84 81 71 63 61 61 58 59 60 59
2570.0 67 69 72 75 78 78 77 79 80 82
2610.0 80 77 74 76 83 89 95 102 105 109
2650.0 113 98 98 98 84 77 67 62 55 55
2690.0 55 56 60 63 69 75 85 100 117 134
2730.0 148 157 174 177 168 186 196 181 156 135
2770.0 128 116 105 107 114 115 112 124 135 150
2810.0 167 181 199 201 208 217 203 215 239 253
2850.0 298 380 550 807 1056 1195 1215 1304 1413 1513
2890.0 1617 1655 1633 1569 1521 1693 2009 2249 2480 3069
2930.0 3454 3352 3357 3531 3595 3165 3302 3600 3909 4502
2970.0 5197 5579 6469 10000 6825 7124 7072 9577 6005 4709
3010.0 3757 2972 2247 1605 1075 682 421 269 189 150
3050.0 131 119 110 105 104 101 94 93 93 95
3090.0 96 96 90 92 95 97 91 87 87 88
3130.0 87 88 89 89 90 94 94 98 100 104
3170.0 104 109 114 123 128 141 144 147 157 170
3210.0 177 165 171 162 161 161 142 139 135 131
3250.0 105 104 96 93 84 82 74 77 77 78
3290.0 78 70 80 89 92 95 91 84 89 94
3330.0 87 77 78 71 69 65 55 55 56 63
3370.0 55 51 60 62 61 69 67 73 81 88
3410.0 92 81 74 85 83 77 80 66 65 63
3450.0 63 59 60 56 56 55 50 58 53 55
3490.0 49 60 56 48 53 51 54 56 50 54
3530.0 51 55 52 57 57 62 59 67 50 58
3570.0 52 61 65 65 69 61 66 83 73 76
3610.0 70 68 71 72 81 53 72 66 61 65
3650.0 52 65 55 63 63 47 57 51 63 62
3690.0 53 61 59 59 60 58 53 61 64 56
3730.0 54 52 55 60 37 58 53 72 57 59
3770.0 60 59 65 55 51 59 67 55 62 77
3810.0 79 64 73 59 81 68 64 50 73 68
3850.0 67 39 64 65 72 77 75 70 71 65
3890.0 80 73 69 45 59 56 64 56 60 63
3930.0 77 66 70 73 63 54 54 65 66 60
##END=
