##TITLE=Methane, bromodichloro-
##JCAMP-DX=4.24
##DATA TYPE=INFRARED SPECTRUM
##ORIGIN=Sadtler Research Labs Under US-EPA Contract
##OWNER=NIST Standard Reference Data Program
##CAS REGISTRY NO=75-27-4
##MOLFORM=C H Br Cl 2
##XUNITS=1/CM
##YUNITS=ABSORBANCE
##XFACTOR=1.0
##YFACTOR=0.000094904
##DELTAX=4.0
##FIRSTX=450.0
##LASTX=3966.0
##FIRSTY=0.014330
##MAXX=3966
##MINX=450
##MAXY=0.94904
##MINY=0
##NPOINTS=880
##XYDATA=(X++(Y..Y))
450.0 151 171 118 86 109 109 139 66 102 93
490.0 121 137 135 146 128 186 122 172 101 145
530.0 78 112 121 132 115 118 151 116 159 92
570.0 153 138 198 168 318 536 927 1240 1596 1738
610.0 1720 1862 1045 266 143 0 142 69 116 98
650.0 184 177 238 307 285 371 293 266 130 181
690.0 180 259 375 685 1292 2292 4020 5996 8103 9218
730.0 9808 9028 8034 4572 2481 3261 4825 7250 9099 10000
770.0 9527 8387 7998 5568 3137 1671 946 544 414 394
810.0 430 417 446 432 273 210 212 172 89 78
850.0 63 80 50 61 68 66 78 68 86 69
890.0 77 63 72 69 67 52 45 69 64 62
930.0 52 72 69 68 69 64 63 54 73 49
970.0 61 58 82 73 66 75 64 69 60 68
1010.0 49 69 54 59 54 61 66 55 80 60
1050.0 79 60 79 47 61 62 59 55 45 76
1090.0 40 67 48 76 51 80 72 64 78 62
1130.0 96 45 146 124 225 273 460 693 1266 2199
1170.0 2328 2861 2604 2808 2057 424 279 433 769 1126
1210.0 1841 1598 1027 1448 1056 662 365 180 142 52
1250.0 73 33 72 25 63 43 44 41 35 48
1290.0 24 52 31 52 32 60 47 55 72 66
1330.0 73 55 71 48 57 46 58 45 50 68
1370.0 54 68 64 82 68 87 71 49 48 49
1410.0 51 34 59 54 60 57 71 67 58 51
1450.0 48 55 70 81 64 101 102 117 121 144
1490.0 137 146 148 120 124 87 57 69 77 83
1530.0 74 86 98 93 76 55 65 57 83 40
1570.0 60 38 71 27 54 37 35 38 36 45
1610.0 23 59 34 52 29 49 36 63 32 54
1650.0 37 98 44 35 55 48 51 57 34 76
1690.0 39 47 63 77 50 57 68 76 80 68
1730.0 81 86 99 71 86 82 89 82 82 74
1770.0 67 87 57 69 49 69 55 57 46 43
1810.0 48 43 56 40 48 42 46 40 44 40
1850.0 36 42 42 40 39 44 42 39 41 37
1890.0 40 34 40 34 37 35 42 40 36 36
1930.0 38 38 42 41 39 43 47 44 38 38
1970.0 46 41 43 38 39 35 39 41 33 30
2010.0 26 30 21 27 25 26 21 23 23 21
2050.0 29 22 26 29 36 39 40 42 44 47
2090.0 37 48 44 47 43 42 42 39 42 35
2130.0 40 38 37 32 40 39 40 37 33 34
2170.0 30 37 31 39 37 44 44 44 45 39
2210.0 49 44 44 47 43 39 41 42 44 43
2250.0 35 46 40 40 38 42 41 34 40 42
2290.0 46 45 54 54 57 66 73 84 97 107
2330.0 108 134 89 96 60 70 80 79 68 32
2370.0 35 21 40 41 48 52 48 54 46 46
2410.0 45 51 49 58 59 58 52 40 37 27
2450.0 31 27 32 27 29 24 28 26 19 29
2490.0 26 29 24 32 32 28 31 24 30 27
2530.0 35 28 30 36 31 31 36 33 26 27
2570.0 27 24 17 20 21 15 19 14 20 11
2610.0 22 20 23 27 31 33 29 37 35 41
2650.0 31 43 37 40 43 43 45 44 44 33
2690.0 31 32 28 20 22 26 15 20 17 24
2730.0 14 22 16 21 20 17 23 20 23 23
2770.0 24 19 23 23 24 32 23 28 21 25
2810.0 17 16 13 15 17 14 21 19 20 12
2850.0 17 20 23 21 12 21 19 25 15 15
2890.0 15 21 23 20 23 16 32 25 26 22
2930.0 27 16 23 32 21 34 27 39 27 29
2970.0 38 30 40 36 36 26 38 26 32 19
3010.0 28 39 19 47 55 87 61 140 162 118
3050.0 65 84 59 52 28 23 23 23 30 22
3090.0 31 17 23 19 28 22 27 34 15 26
3130.0 24 30 24 30 27 30 25 21 26 26
3170.0 30 30 28 35 34 32 30 37 32 37
3210.0 31 29 35 31 32 13 34 33 34 27
3250.0 37 38 43 42 32 34 32 33 24 38
3290.0 31 33 29 24 29 31 40 39 45 36
3330.0 38 26 41 32 28 39 35 38 33 47
3370.0 42 39 31 33 49 42 38 41 49 47
3410.0 44 31 43 47 38 45 41 38 41 33
3450.0 54 48 48 39 39 47 50 37 37 37
3490.0 51 58 38 45 27 44 33 48 49 27
3530.0 44 38 47 41 34 39 43 30 47 24
3570.0 46 50 28 52 34 57 37 33 22 33
3610.0 41 31 45 21 45 40 30 22 27 33
3650.0 38 35 15 28 45 52 42 43 11 11
3690.0 48 13 44 26 27 35 21 26 22 11
3730.0 14 38 40 11 44 37 73 29 33 37
3770.0 44 11 36 38 35 45 24 55 14 32
3810.0 31 58 41 43 25 27 35 69 44 35
3850.0 30 46 41 22 42 49 34 25 46 44
3890.0 16 54 23 27 40 62 64 46 24 31
3930.0 23 51 54 11 48 50 25 63 31 20
##END=
