##TITLE=Methane, tribromo-
##JCAMP-DX=4.24
##DATA TYPE=INFRARED SPECTRUM
##ORIGIN=Sadtler Research Labs Under US-EPA Contract
##OWNER=NIST Standard Reference Data Program
##CAS REGISTRY NO=75-25-2
##MOLFORM=C H Br 3
##XUNITS=1/CM
##YUNITS=ABSORBANCE
##XFACTOR=1.0
##YFACTOR=0.000202963
##DELTAX=4.0
##FIRSTX=450.0
##LASTX=3966.0
##FIRSTY=0.018470
##MAXX=3966
##MINX=450
##MAXY=2.02963
##MINY=0
##NPOINTS=880
##XYDATA=(X++(Y..Y))
450.0 91 113 127 87 91 85 65 59 51 50
490.0 62 81 86 58 87 92 93 82 93 70
530.0 61 51 89 93 110 105 89 44 51 19
570.0 21 56 48 81 44 47 58 63 58 58
610.0 80 50 86 89 148 172 345 519 925 1539
650.0 2645 4166 6198 8382 10000 6861 3405 1221 993 930
690.0 882 961 613 447 333 125 49 54 48 72
730.0 69 81 90 100 129 146 123 100 106 85
770.0 71 39 46 38 33 28 36 38 31 40
810.0 39 47 33 33 39 37 36 36 28 19
850.0 32 23 24 20 37 36 39 46 50 47
890.0 38 38 29 34 37 44 39 39 38 40
930.0 33 38 44 36 41 39 38 29 40 42
970.0 48 41 58 61 47 51 56 53 56 54
1010.0 59 57 69 77 88 88 99 109 119 128
1050.0 148 142 128 108 86 63 54 54 44 46
1090.0 43 50 47 56 68 88 109 175 222 209
1130.0 307 614 1219 2593 5082 4681 1935 717 290 128
1170.0 68 46 43 50 52 63 63 60 57 50
1210.0 42 32 34 39 37 38 42 43 40 42
1250.0 42 40 40 40 39 37 38 43 48 59
1290.0 79 91 95 91 88 69 59 61 67 66
1330.0 67 69 62 57 52 54 52 53 61 56
1370.0 52 54 58 57 71 78 77 69 65 56
1410.0 56 50 57 62 59 63 66 76 68 79
1450.0 80 91 109 111 130 129 141 146 142 145
1490.0 146 130 115 97 91 78 58 59 50 48
1530.0 37 47 39 48 42 49 46 59 71 67
1570.0 78 92 107 110 128 127 119 118 103 93
1610.0 76 70 52 49 36 38 36 39 28 36
1650.0 27 38 27 20 23 20 20 24 17 27
1690.0 20 21 21 29 18 17 18 20 16 13
1730.0 17 16 18 11 16 11 20 14 22 16
1770.0 20 20 18 17 18 22 21 17 18 22
1810.0 14 20 18 20 18 20 16 18 14 22
1850.0 19 18 19 20 16 20 22 14 16 18
1890.0 20 20 20 23 23 22 23 24 22 21
1930.0 23 22 26 24 27 22 22 23 23 21
1970.0 20 21 19 19 19 20 14 17 16 14
2010.0 12 12 11 9 8 9 10 6 2 7
2050.0 9 10 10 8 6 4 2 2 0 9
2090.0 7 7 8 9 8 7 8 3 6 6
2130.0 4 3 3 4 6 2 3 3 1 1
2170.0 2 3 0 3 4 6 3 3 7 2
2210.0 2 4 2 1 4 7 9 4 12 16
2250.0 11 24 37 32 49 68 29 27 24 18
2290.0 16 18 23 14 9 9 9 0 0 0
2330.0 0 0 0 0 0 0 0 0 0 0
2370.0 0 0 0 0 0 1 1 6 1 1
2410.0 2 3 2 3 6 4 7 7 8 8
2450.0 11 10 10 11 14 17 19 17 21 19
2490.0 16 14 20 16 13 13 12 10 9 13
2530.0 14 11 12 12 11 16 19 17 20 21
2570.0 20 18 14 20 17 13 16 20 14 17
2610.0 17 19 17 17 14 17 18 17 16 17
2650.0 20 21 24 17 22 23 20 21 24 27
2690.0 26 34 32 30 30 36 31 31 37 37
2730.0 38 39 47 44 44 49 56 52 57 63
2770.0 60 57 61 76 66 68 73 79 73 72
2810.0 78 90 91 98 105 105 115 119 122 119
2850.0 126 129 132 132 141 149 157 156 152 152
2890.0 156 169 172 178 181 180 197 187 200 204
2930.0 209 214 209 225 204 219 215 222 225 221
2970.0 214 208 231 217 211 207 220 219 231 240
3010.0 217 237 212 229 220 248 255 295 324 341
3050.0 523 398 259 311 225 226 199 217 208 186
3090.0 191 186 182 170 185 156 148 143 149 148
3130.0 135 137 146 132 125 121 112 110 119 122
3170.0 103 102 121 112 113 117 112 91 102 102
3210.0 106 100 108 100 88 100 98 82 83 95
3250.0 99 98 77 95 87 101 88 81 96 87
3290.0 96 79 83 89 96 91 86 89 97 106
3330.0 105 107 93 96 97 101 99 81 95 97
3370.0 99 96 99 103 107 113 108 98 91 100
3410.0 96 89 90 89 80 87 81 92 93 81
3450.0 78 66 92 73 52 60 58 53 54 40
3490.0 41 62 43 51 51 49 39 41 34 23
3530.0 31 19 18 21 37 17 28 6 18 21
3570.0 40 11 13 12 16 26 31 18 24 12
3610.0 21 16 16 8 9 14 17 13 20 16
3650.0 11 4 14 11 0 10 17 24 13 11
3690.0 14 21 22 8 16 3 19 23 13 20
3730.0 21 20 21 18 9 20 20 19 11 31
3770.0 16 36 14 18 27 28 23 30 26 22
3810.0 29 28 29 20 24 24 31 31 32 32
3850.0 16 22 24 30 32 42 33 13 43 41
3890.0 31 24 29 16 49 21 44 30 7 50
3930.0 31 11 27 26 22 22 31 10 26 11
##END=
