##TITLE=Ethane, 1,1-dichloro-
##JCAMP-DX=4.24
##DATA TYPE=INFRARED SPECTRUM
##ORIGIN=Sadtler Research Labs Under US-EPA Contract
##OWNER=NIST Standard Reference Data Program
##CAS REGISTRY NO=75-34-3
##MOLFORM=C 2 H 4 Cl 2
##XUNITS=1/CM
##YUNITS=ABSORBANCE
##XFACTOR=1.0
##YFACTOR=0.000060132
##DELTAX=4.0
##FIRSTX=450.0
##LASTX=3966.0
##FIRSTY=0.002946
##MAXX=3966
##MINX=450
##MAXY=0.60132
##MINY=0
##NPOINTS=880
##XYDATA=(X++(Y..Y))
450.0 49 47 62 75 71 62 46 59 57 58
490.0 76 75 72 70 69 66 66 84 62 52
530.0 58 55 32 0 75 56 77 41 88 17
570.0 55 180 81 67 115 74 73 65 67 79
610.0 111 137 211 324 449 597 801 1053 1208 1164
650.0 1101 1366 1526 1462 1389 1465 1928 3071 5018 7478
690.0 9255 10000 9977 9595 8852 7981 7084 4749 2409 1217
730.0 740 703 492 253 152 105 102 96 97 102
770.0 71 63 70 72 61 54 43 52 41 46
810.0 39 47 62 48 29 56 46 48 44 40
850.0 47 47 70 52 53 49 45 56 56 64
890.0 63 64 65 71 73 53 63 68 59 56
930.0 64 72 80 115 158 220 320 431 584 773
970.0 962 1136 1170 1142 1206 1282 1189 984 761 558
1010.0 382 274 203 201 250 361 555 881 1527 2627
1050.0 3511 3756 4059 4057 3463 4057 3315 1817 837 443
1090.0 367 382 274 180 129 96 73 57 45 36
1130.0 36 43 31 35 33 32 24 24 32 33
1170.0 34 47 47 55 67 91 147 232 404 694
1210.0 1126 1691 2339 2642 2977 3660 3095 3796 3458 2373
1250.0 1751 1453 1257 999 930 1035 1110 1005 815 872
1290.0 856 660 489 365 272 209 159 143 125 143
1330.0 159 176 195 206 217 245 265 309 390 488
1370.0 614 768 902 1007 985 1079 1063 874 666 480
1410.0 336 260 257 310 437 572 656 686 757 1026
1450.0 1321 670 611 562 491 406 283 210 165 125
1490.0 101 83 65 60 85 35 47 47 43 29
1530.0 27 36 46 28 29 46 54 54 17 26
1570.0 36 31 20 26 32 34 33 33 34 36
1610.0 43 41 35 31 26 31 41 20 33 43
1650.0 37 33 29 44 49 55 59 54 78 54
1690.0 59 75 63 45 61 59 60 48 38 46
1730.0 51 44 30 35 43 45 34 34 44 43
1770.0 44 35 38 31 36 44 33 34 35 32
1810.0 24 24 23 27 24 25 23 27 36 16
1850.0 32 23 23 23 33 25 26 24 31 31
1890.0 27 28 26 22 32 32 31 33 33 31
1930.0 31 34 40 46 38 38 43 40 39 40
1970.0 40 38 39 30 30 31 31 31 22 29
2010.0 21 29 31 22 21 30 30 31 30 37
2050.0 33 38 37 39 38 38 46 37 46 47
2090.0 47 37 38 28 28 29 29 21 28 28
2130.0 28 30 30 38 27 38 28 28 37 37
2170.0 37 37 37 37 37 29 28 27 26 22
2210.0 27 27 27 26 30 28 27 36 35 35
2250.0 28 25 35 31 36 35 34 30 26 33
2290.0 38 29 27 35 25 39 39 40 51 50
2330.0 48 51 53 41 26 54 76 67 43 19
2370.0 3 3 2 20 27 32 32 33 33 33
2410.0 33 32 32 32 41 41 46 48 58 64
2450.0 72 73 74 73 81 74 71 63 53 46
2490.0 37 31 30 32 31 31 38 31 31 33
2530.0 29 31 21 21 32 27 23 22 29 30
2570.0 29 30 21 18 13 9 5 5 10 6
2610.0 5 5 12 5 12 12 19 10 4 6
2650.0 21 20 25 27 36 27 36 27 27 26
2690.0 26 19 9 6 2 11 10 17 18 10
2730.0 17 18 18 25 26 16 25 30 21 17
2770.0 10 1 9 16 9 17 27 23 45 36
2810.0 46 54 57 57 59 53 51 51 50 41
2850.0 53 63 81 122 142 178 187 155 184 215
2890.0 198 180 156 137 121 130 144 179 241 318
2930.0 431 553 676 679 486 583 695 584 441 317
2970.0 266 296 457 746 1077 1170 1111 1673 1293 1600
3010.0 1528 1363 1232 664 590 481 390 286 182 111
3050.0 67 32 23 15 6 14 17 16 15 15
3090.0 14 9 12 16 22 16 24 7 23 15
3130.0 6 7 10 23 18 13 22 14 23 15
3170.0 15 15 13 13 14 10 9 24 13 14
3210.0 30 30 48 39 38 38 39 38 41 46
3250.0 47 52 58 50 37 38 37 29 38 35
3290.0 36 31 43 51 63 65 44 52 55 63
3330.0 54 28 29 32 27 27 30 26 16 24
3370.0 20 20 28 28 28 52 52 43 48 35
3410.0 43 47 46 39 52 29 20 27 17 29
3450.0 35 22 21 26 41 20 23 28 26 35
3490.0 26 19 45 32 24 19 12 21 18 7
3530.0 27 18 26 25 33 17 2 25 30 43
3570.0 34 20 32 40 44 17 23 33 25 34
3610.0 31 25 28 34 46 28 4 14 39 65
3650.0 40 16 32 56 59 63 48 25 22 36
3690.0 57 48 39 55 56 63 52 52 38 53
3730.0 58 52 37 62 43 30 9 25 33 31
3770.0 39 45 56 44 47 37 51 61 59 56
3810.0 39 46 33 32 32 41 37 43 40 57
3850.0 74 82 71 70 57 48 29 37 50 81
3890.0 65 52 68 64 36 41 62 39 46 51
3930.0 49 46 33 43 53 49 32 21 14 25
##END=
