##TITLE=Ethane, 1,1-difluoro-
##JCAMP-DX=4.24
##DATA TYPE=INFRARED SPECTRUM
##ORIGIN=Sadtler Research Labs Under US-EPA Contract
##OWNER=NIST Standard Reference Data Program
##CAS REGISTRY NO=75-37-6
##MOLFORM=C 2 H 4 F 2
##XUNITS=1/CM
##YUNITS=ABSORBANCE
##XFACTOR=1.0
##YFACTOR=0.000048511
##DELTAX=4.0
##FIRSTX=450.0
##LASTX=3966.0
##FIRSTY=0.002959
##MAXX=3966
##MINX=450
##MAXY=0.48511
##MINY=0
##NPOINTS=880
##XYDATA=(X++(Y..Y))
450.0 61 226 287 268 206 355 269 280 271 319
490.0 308 208 164 74 25 118 79 66 65 50
530.0 58 100 64 69 99 123 131 137 66 200
570.0 319 203 93 148 151 140 112 141 128 79
610.0 72 55 84 34 51 23 56 62 57 51
650.0 47 56 50 46 57 67 52 58 65 29
690.0 33 21 0 34 68 45 48 44 56 30
730.0 51 46 51 49 42 27 50 50 38 60
770.0 53 56 51 62 45 38 48 31 51 40
810.0 41 52 50 54 46 62 66 88 94 127
850.0 131 171 150 145 288 253 162 189 193 219
890.0 223 223 255 298 390 468 601 743 915 1062
930.0 1116 1210 1253 1236 1279 1138 1213 1139 1004 785
970.0 578 435 327 237 170 129 107 95 68 84
1010.0 67 75 81 76 79 84 89 102 101 98
1050.0 118 117 126 138 156 170 178 203 236 290
1090.0 329 405 501 664 907 1289 1896 2912 4400 5971
1130.0 7410 9077 10000 9543 5872 2839 1459 1064 825 734
1170.0 591 460 315 255 213 168 134 103 87 66
1210.0 54 43 51 44 57 56 60 61 57 58
1250.0 60 59 62 60 55 67 50 49 49 43
1290.0 44 44 45 48 54 45 60 52 76 83
1330.0 105 122 139 189 223 290 328 418 420 487
1370.0 604 630 552 589 746 975 1288 1356 1307 1080
1410.0 1421 1391 1106 1025 1128 1037 886 621 430 281
1450.0 184 172 235 171 62 111 66 83 41 69
1490.0 31 42 33 32 37 5 30 16 26 16
1530.0 30 22 26 27 19 25 17 29 30 26
1570.0 25 23 28 28 26 20 28 33 33 25
1610.0 32 30 39 30 34 24 30 25 27 21
1650.0 21 29 33 21 22 19 23 28 22 17
1690.0 23 14 24 19 21 22 20 13 25 24
1730.0 17 22 20 23 16 9 19 12 21 17
1770.0 22 13 25 23 26 30 31 25 29 33
1810.0 32 30 28 37 30 26 25 30 27 15
1850.0 25 30 34 29 30 26 30 31 29 28
1890.0 22 27 25 27 23 25 22 27 20 23
1930.0 29 21 26 18 24 19 22 26 29 26
1970.0 29 33 34 43 43 42 48 61 64 63
2010.0 52 33 30 30 32 31 38 29 34 34
2050.0 31 38 40 47 41 46 39 39 40 39
2090.0 34 27 32 28 32 26 20 20 19 22
2130.0 18 23 16 17 16 21 13 16 18 16
2170.0 12 15 15 15 18 10 20 14 15 16
2210.0 16 22 21 19 18 24 24 27 28 29
2250.0 34 40 38 43 42 36 31 41 42 37
2290.0 41 38 36 36 28 24 14 8 19 19
2330.0 0 14 2 9 8 22 5 15 15 17
2370.0 28 9 16 15 18 18 3 11 13 20
2410.0 13 16 12 14 12 11 16 10 16 10
2450.0 15 13 12 11 15 22 19 24 25 22
2490.0 24 28 23 21 22 19 20 21 15 19
2530.0 22 17 21 14 14 19 16 15 14 15
2570.0 6 12 19 21 16 11 13 15 18 12
2610.0 12 4 13 12 4 2 11 11 18 17
2650.0 18 13 15 20 22 25 25 20 22 31
2690.0 53 45 29 21 32 28 30 29 27 26
2730.0 22 24 18 24 22 27 27 33 11 19
2770.0 21 17 29 25 32 23 26 25 37 36
2810.0 41 33 25 31 27 44 27 36 23 21
2850.0 19 21 27 21 44 20 40 22 34 33
2890.0 23 38 36 47 24 50 26 47 51 83
2930.0 95 115 198 202 292 298 412 331 359 309
2970.0 384 1095 1449 199 513 509 636 603 570 602
3010.0 315 1116 855 223 363 338 305 311 205 175
3050.0 84 99 33 41 31 29 26 16 42 13
3090.0 42 18 33 12 28 31 24 16 15 31
3130.0 20 29 23 28 20 25 22 17 31 21
3170.0 23 10 36 27 29 20 31 27 14 25
3210.0 26 46 31 26 16 11 19 15 27 18
3250.0 24 16 38 23 13 16 29 20 19 24
3290.0 19 37 26 18 20 25 12 16 15 18
3330.0 21 22 20 10 24 26 28 15 28 26
3370.0 15 30 21 27 32 31 36 28 26 36
3410.0 32 20 29 19 32 41 37 21 15 24
3450.0 15 33 18 26 32 27 22 22 37 36
3490.0 31 2 23 37 32 27 34 23 18 11
3530.0 26 28 17 24 15 9 19 34 3 22
3570.0 5 8 17 33 49 15 17 13 28 12
3610.0 23 22 30 43 34 14 24 43 40 26
3650.0 18 18 12 30 16 33 16 16 21 20
3690.0 31 21 22 26 33 25 36 19 17 22
3730.0 25 27 12 44 58 5 40 34 20 21
3770.0 32 30 30 20 41 25 22 42 20 47
3810.0 30 22 38 52 56 27 61 40 49 42
3850.0 40 56 36 31 34 51 39 40 37 52
3890.0 46 25 24 27 30 54 44 38 44 23
3930.0 39 45 17 44 59 23 47 18 15 13
##END=
