##TITLE=Propane, 2-iodo-
##JCAMP-DX=4.24
##DATA TYPE=INFRARED SPECTRUM
##ORIGIN=Sadtler Research Labs Under US-EPA Contract
##OWNER=NIST Standard Reference Data Program
##CAS REGISTRY NO=75-30-9
##MOLFORM=C 3 H 7 I
##XUNITS=1/CM
##YUNITS=ABSORBANCE
##XFACTOR=1.0
##YFACTOR=0.000069580
##DELTAX=4.0
##FIRSTX=450.0
##LASTX=3966.0
##FIRSTY=0.012664
##MAXX=3966
##MINX=450
##MAXY=0.6958
##MINY=0
##NPOINTS=880
##XYDATA=(X++(Y..Y))
450.0 182 175 321 360 493 611 641 867 1132 1513
490.0 1632 1709 1583 1483 1037 744 519 581 478 229
530.0 293 248 288 170 188 227 146 114 39 174
570.0 246 375 90 141 30 154 218 93 227 113
610.0 133 56 118 223 257 204 191 131 57 217
650.0 186 282 153 71 172 62 109 141 219 113
690.0 78 33 179 70 150 245 116 108 23 220
730.0 164 96 154 110 89 37 219 254 170 116
770.0 161 103 138 206 247 281 136 216 223 171
810.0 248 376 296 241 132 240 223 176 326 279
850.0 298 277 560 879 996 1137 1130 1121 957 918
890.0 646 444 303 308 396 323 414 428 537 528
930.0 545 619 663 635 692 755 668 602 553 611
970.0 545 488 494 362 336 314 410 546 763 1145
1010.0 1599 1765 1778 1855 1660 1525 1063 697 449 329
1050.0 397 473 500 480 525 561 565 565 644 668
1090.0 681 818 1006 1313 1508 1873 2199 2442 2917 3579
1130.0 4680 6274 7909 8869 8984 9122 8958 8425 6639 4363
1170.0 3010 2510 2273 2428 3117 4380 6077 7176 7262 7857
1210.0 6976 7023 5437 3269 1679 920 655 562 504 536
1250.0 505 465 440 454 447 446 394 379 302 266
1290.0 291 292 342 332 383 450 539 694 849 1016
1330.0 1068 1037 942 801 746 882 1099 1396 1910 2368
1370.0 2847 2954 3108 3808 3701 3592 2692 2073 1639 1353
1410.0 1055 942 860 779 852 1001 1258 1560 1768 1982
1450.0 2119 2429 2953 2647 2618 2342 1898 1643 1341 1097
1490.0 880 620 473 335 402 380 321 319 309 216
1530.0 178 197 230 241 191 177 151 226 118 150
1570.0 176 124 125 93 103 95 111 128 117 77
1610.0 129 125 155 158 147 165 148 148 170 223
1650.0 221 273 155 160 140 221 252 177 232 212
1690.0 158 180 219 310 219 164 202 241 168 162
1730.0 214 285 181 161 215 209 165 176 169 121
1770.0 132 141 128 136 140 149 137 117 154 143
1810.0 165 108 138 99 133 106 117 132 111 118
1850.0 90 69 76 105 119 149 62 88 121 118
1890.0 163 149 171 123 101 123 123 115 115 102
1930.0 71 54 49 110 67 58 69 70 49 55
1970.0 91 70 55 48 57 49 65 73 76 64
2010.0 39 71 74 76 83 81 66 34 49 61
2050.0 54 57 82 50 52 40 52 72 50 72
2090.0 65 46 39 41 63 52 47 44 48 28
2130.0 55 42 74 42 38 52 48 83 86 97
2170.0 84 69 67 82 67 74 67 43 55 49
2210.0 101 109 115 115 94 102 100 106 114 115
2250.0 100 114 100 107 115 99 104 66 63 55
2290.0 70 76 76 75 76 47 36 77 57 81
2330.0 25 15 27 10 10 82 97 8 8 8
2370.0 8 8 48 52 56 57 36 71 57 71
2410.0 71 53 40 32 48 61 54 54 56 26
2450.0 40 53 62 69 38 75 63 82 91 114
2490.0 110 91 93 104 87 81 110 80 67 36
2530.0 62 75 48 63 54 34 20 28 49 59
2570.0 45 63 55 33 65 79 110 85 85 102
2610.0 77 88 117 155 147 135 140 157 121 144
2650.0 150 129 115 89 124 107 109 116 107 77
2690.0 85 109 127 118 106 149 119 147 214 297
2730.0 362 327 369 336 352 332 327 279 263 233
2770.0 243 234 216 272 237 212 184 199 248 242
2810.0 292 348 372 368 412 465 532 561 651 766
2850.0 882 1185 1615 2198 2751 3262 3663 4080 4384 4570
2890.0 4566 4397 4312 4231 4298 4480 4911 5544 6052 6364
2930.0 6052 6137 5655 4953 4031 3326 3129 3507 4520 5602
2970.0 7157 8174 10000 9639 9293 7877 7398 7367 4969 4014
3010.0 3106 2342 1673 1176 775 506 313 241 209 143
3050.0 197 175 152 119 114 142 152 156 175 171
3090.0 106 132 132 167 170 158 173 110 114 111
3130.0 137 146 148 156 129 108 139 186 162 206
3170.0 149 199 195 190 256 227 257 238 235 242
3210.0 260 265 266 210 196 194 181 217 162 181
3250.0 134 82 87 80 103 105 83 53 46 32
3290.0 61 62 67 68 16 32 4 56 72 73
3330.0 73 37 22 62 72 62 93 58 95 54
3370.0 76 121 98 104 78 88 102 114 110 110
3410.0 68 70 54 56 91 72 116 81 59 62
3450.0 64 98 79 122 89 53 15 77 95 92
3490.0 91 80 65 26 82 71 80 62 54 86
3530.0 19 52 88 79 65 81 63 66 63 132
3570.0 157 50 37 37 94 114 96 112 89 44
3610.0 97 143 153 141 135 209 88 138 195 219
3650.0 260 194 209 155 156 196 250 175 149 139
3690.0 106 96 85 141 104 96 76 100 99 100
3730.0 128 174 134 101 164 137 135 114 108 100
3770.0 35 72 105 105 102 104 103 107 99 144
3810.0 182 127 141 135 128 107 151 218 188 136
3850.0 145 159 121 161 185 223 144 127 166 155
3890.0 164 140 178 137 93 120 152 157 141 134
3930.0 118 111 115 159 142 126 0 8 8 8
##END=
