##TITLE=Ethene, 1,1-difluoro-
##JCAMP-DX=4.24
##DATA TYPE=INFRARED SPECTRUM
##ORIGIN=Sadtler Research Labs Under US-EPA Contract
##OWNER=NIST Standard Reference Data Program
##CAS REGISTRY NO=75-38-7
##MOLFORM=C 2 H 2 F 2
##XUNITS=1/CM
##YUNITS=ABSORBANCE
##XFACTOR=1.0
##YFACTOR=0.000067209
##DELTAX=4.0
##FIRSTX=450.0
##LASTX=3966.0
##FIRSTY=0.000000
##MAXX=3966
##MINX=450
##MAXY=0.67209
##MINY=0
##NPOINTS=880
##XYDATA=(X++(Y..Y))
450.0 0 419 678 486 555 443 538 479 450 456
490.0 506 499 413 549 439 480 444 532 506 586
530.0 622 636 704 597 761 648 651 618 735 658
570.0 735 624 560 546 439 511 414 506 424 462
610.0 460 458 459 434 484 456 486 421 482 410
650.0 467 427 459 434 437 477 403 467 413 490
690.0 389 457 438 449 438 450 486 398 497 434
730.0 512 410 522 470 521 622 612 788 746 1174
770.0 1175 1547 1490 1879 1590 1282 1628 1872 3903 4544
810.0 1142 2000 1416 2398 1939 2000 1650 1311 1204 882
850.0 803 587 637 509 517 499 520 566 601 780
890.0 930 1334 1759 2366 2832 3178 3270 3146 3514 3854
930.0 3406 4041 4858 4679 3915 2816 2080 1700 1626 1440
970.0 1345 1173 984 826 685 615 544 514 480 475
1010.0 465 449 444 444 442 434 434 438 439 435
1050.0 444 434 431 435 434 435 426 435 430 438
1090.0 433 431 439 441 440 438 438 439 437 444
1130.0 439 437 440 447 447 446 446 443 445 442
1170.0 446 443 452 458 469 489 522 566 583 596
1210.0 561 590 595 587 578 643 658 696 731 805
1250.0 960 1196 1609 2160 2980 3956 5087 6219 7149 7775
1290.0 7858 8329 8292 8088 9496 9142 9541 8423 6865 4863
1330.0 3470 2715 2151 1719 1308 1051 873 789 721 697
1370.0 721 723 739 694 668 589 585 566 552 530
1410.0 549 542 563 538 526 517 518 504 480 466
1450.0 474 471 498 464 454 449 479 462 444 462
1490.0 479 461 464 466 480 505 471 487 505 482
1530.0 479 462 490 507 490 457 479 506 501 483
1570.0 523 552 628 721 834 1013 1163 1308 1312 1277
1610.0 1512 1398 1340 1400 1486 1374 1316 1117 967 820
1650.0 773 675 612 588 608 670 775 918 1146 1547
1690.0 2009 2769 3671 4872 5935 7059 7876 8692 9021 9736
1730.0 9227 9177 9319 10000 8252 7585 6783 5705 4074 2470
1770.0 1466 937 704 595 548 508 512 484 483 470
1810.0 465 469 464 483 483 503 498 502 521 548
1850.0 547 555 582 595 586 559 535 530 571 605
1890.0 639 651 631 602 587 645 609 615 630 611
1930.0 574 535 492 471 452 437 434 427 424 424
1970.0 425 421 423 423 420 425 423 420 419 425
2010.0 413 422 420 418 418 421 422 418 423 421
2050.0 418 421 420 420 422 420 417 417 420 419
2090.0 414 414 414 420 415 416 419 420 419 422
2130.0 421 422 426 422 426 431 431 428 432 437
2170.0 437 439 442 450 457 469 479 487 492 500
2210.0 507 517 515 534 538 545 549 540 522 508
2250.0 509 508 491 504 497 485 460 450 435 425
2290.0 421 410 405 398 393 382 381 381 391 396
2330.0 396 412 404 417 422 400 399 407 403 406
2370.0 422 422 426 410 408 414 416 417 420 417
2410.0 419 418 414 415 410 417 414 417 416 418
2450.0 415 421 418 414 422 421 414 417 414 420
2490.0 418 417 417 416 414 416 417 421 422 418
2530.0 422 426 425 428 434 439 441 449 457 463
2570.0 474 476 483 483 482 492 501 495 496 498
2610.0 503 495 492 501 508 518 528 532 548 558
2650.0 560 563 577 577 555 534 516 503 477 455
2690.0 447 443 434 429 426 430 419 423 421 423
2730.0 416 416 418 419 415 412 417 417 415 418
2770.0 416 417 419 419 413 417 415 411 414 414
2810.0 413 414 420 413 416 416 418 416 415 418
2850.0 421 417 413 412 414 412 415 418 414 412
2890.0 413 408 410 415 414 414 415 411 417 419
2930.0 420 416 409 417 416 415 415 422 414 416
2970.0 414 416 418 414 417 416 423 417 426 424
3010.0 428 425 435 443 452 468 472 483 488 497
3050.0 482 502 505 504 505 515 524 521 504 510
3090.0 498 496 494 502 482 481 479 467 458 454
3130.0 449 444 439 435 434 434 430 428 427 434
3170.0 431 425 425 423 418 415 412 411 407 405
3210.0 406 403 401 405 405 405 407 407 397 398
3250.0 398 399 405 402 402 403 403 415 409 411
3290.0 407 399 404 402 408 404 406 402 408 407
3330.0 406 402 407 403 407 401 401 409 404 397
3370.0 399 396 400 399 396 396 395 397 395 395
3410.0 385 381 390 397 404 409 410 411 411 415
3450.0 409 413 408 412 413 420 412 397 397 388
3490.0 387 382 380 382 384 396 392 391 398 396
3530.0 402 410 408 404 408 406 408 410 407 401
3570.0 406 407 392 403 405 401 407 408 410 404
3610.0 406 404 396 406 399 400 401 399 401 391
3650.0 413 412 407 399 391 399 393 413 396 413
3690.0 400 395 398 406 405 411 417 399 401 398
3730.0 396 405 407 399 406 412 416 397 395 408
3770.0 407 393 388 411 393 401 384 401 400 401
3810.0 385 390 390 409 396 402 404 417 411 396
3850.0 398 410 401 398 406 399 390 396 380 402
3890.0 392 395 391 417 401 409 407 391 381 384
3930.0 402 403 397 389 385 396 401 381 385 417
##END=
