##TITLE=Ethene, 1,1-dichloro-
##JCAMP-DX=4.24
##DATA TYPE=INFRARED SPECTRUM
##ORIGIN=Sadtler Research Labs Under US-EPA Contract
##OWNER=NIST Standard Reference Data Program
##CAS REGISTRY NO=75-35-4
##MOLFORM=C 2 H 2 Cl 2
##XUNITS=1/CM
##YUNITS=ABSORBANCE
##XFACTOR=1.0
##YFACTOR=0.000132224
##DELTAX=4.0
##FIRSTX=450.0
##LASTX=3966.0
##FIRSTY=0.101283
##MAXX=3966
##MINX=450
##MAXY=1.32224
##MINY=0
##NPOINTS=880
##XYDATA=(X++(Y..Y))
450.0 766 798 1242 425 344 400 370 294 228 147
490.0 138 80 93 81 73 69 84 57 66 64
530.0 61 73 52 75 73 86 101 115 140 160
570.0 272 383 606 844 1218 1531 1697 1497 1260 1555
610.0 1966 1745 1141 748 462 325 192 121 74 45
650.0 31 23 34 15 22 7 29 23 27 21
690.0 22 31 17 27 25 38 30 27 34 41
730.0 41 36 61 84 176 340 675 1179 1877 2719
770.0 3761 5420 7243 8528 10000 8827 9883 7612 8760 7922
810.0 4595 2132 1014 661 615 696 822 1123 1442 1848
850.0 2294 2678 2768 4065 3116 5293 3426 3446 3064 3230
890.0 2716 2078 1468 962 648 414 279 285 273 214
930.0 209 237 179 116 112 94 95 82 79 64
970.0 59 48 50 41 42 39 39 46 55 75
1010.0 67 86 88 83 82 93 82 81 120 190
1050.0 352 600 1080 1833 2955 4295 5660 7238 8265 9423
1090.0 8676 8558 7662 5863 6030 4615 2292 1208 1048 1380
1130.0 1796 1493 1879 1480 1193 1547 1073 565 265 105
1170.0 107 56 90 56 57 37 42 32 31 42
1210.0 27 34 22 32 22 37 35 38 41 39
1250.0 45 31 42 28 28 13 25 28 28 40
1290.0 51 71 90 131 150 177 158 122 155 187
1330.0 164 128 106 84 88 87 101 114 125 156
1370.0 189 229 267 308 315 309 307 284 265 205
1410.0 151 67 27 13 20 19 15 18 18 22
1450.0 9 23 0 20 16 19 17 10 30 15
1490.0 22 18 40 36 36 54 86 123 153 271
1530.0 342 474 588 780 955 1211 1483 1573 1600 1535
1570.0 1559 1815 1900 1715 1609 1754 2210 2933 3738 4854
1610.0 5656 5906 5145 4638 6416 6237 5062 3047 2176 1254
1650.0 765 431 147 120 48 72 11 58 35 32
1690.0 36 46 41 17 46 45 57 51 96 109
1730.0 139 178 216 174 153 216 203 182 155 117
1770.0 91 60 57 33 40 27 31 24 24 37
1810.0 32 28 24 27 17 20 21 26 21 21
1850.0 26 28 32 32 36 28 36 34 32 32
1890.0 33 31 27 28 23 22 19 23 22 23
1930.0 23 21 20 14 17 13 13 10 12 12
1970.0 13 17 17 18 16 15 12 15 15 13
2010.0 12 8 9 6 12 11 15 14 15 14
2050.0 15 16 15 16 13 18 16 14 9 10
2090.0 8 8 10 6 6 3 5 6 4 5
2130.0 4 4 4 5 3 5 4 7 3 8
2170.0 5 9 14 11 11 12 17 18 22 22
2210.0 25 24 24 26 23 25 21 16 7 7
2250.0 5 3 2 2 3 0 2 0 2 2
2290.0 1 3 1 3 2 5 1 3 3 3
2330.0 1 3 4 4 6 5 2 3 0 0
2370.0 0 0 2 8 8 13 14 16 21 25
2410.0 31 35 38 38 35 34 35 32 23 14
2450.0 13 11 13 12 5 9 3 5 5 6
2490.0 4 4 5 3 3 3 5 5 5 3
2530.0 6 6 4 5 3 5 2 3 2 4
2570.0 5 2 3 3 1 0 3 2 3 5
2610.0 6 6 6 7 8 8 10 10 9 9
2650.0 11 8 9 9 12 7 10 8 12 10
2690.0 14 12 11 11 6 11 8 8 4 6
2730.0 3 4 4 4 5 2 3 1 1 3
2770.0 3 1 2 4 3 3 3 2 2 2
2810.0 2 5 4 6 7 7 6 7 7 5
2850.0 5 5 9 8 5 6 6 9 7 9
2890.0 7 10 10 8 9 11 13 11 12 12
2930.0 13 15 14 14 13 16 16 16 16 15
2970.0 15 18 18 18 18 16 19 16 20 24
3010.0 23 18 17 17 19 19 21 26 18 13
3050.0 21 24 16 15 13 8 9 11 9 8
3090.0 10 7 7 6 5 6 2 6 1 0
3130.0 1 3 7 7 10 14 22 24 34 39
3170.0 49 59 66 68 65 62 58 62 55 37
3210.0 24 21 19 14 17 24 25 21 21 24
3250.0 23 19 12 4 2 9 1 1 0 5
3290.0 6 10 7 10 12 10 12 12 10 10
3330.0 12 6 13 12 16 10 8 11 7 8
3370.0 10 9 8 10 1 4 7 1 7 9
3410.0 10 9 7 10 11 9 6 13 8 6
3450.0 5 4 1 1 2 7 6 2 11 4
3490.0 4 6 10 15 13 7 11 9 12 12
3530.0 7 13 6 3 9 6 2 5 6 9
3570.0 9 6 7 4 7 4 9 4 3 1
3610.0 4 8 9 8 5 14 7 14 13 7
3650.0 11 8 13 9 5 12 9 13 6 9
3690.0 3 3 3 2 0 4 7 11 11 13
3730.0 14 14 14 17 18 18 17 6 12 10
3770.0 5 1 5 5 3 7 1 5 12 8
3810.0 5 6 13 12 12 11 8 12 6 7
3850.0 7 14 11 10 2 16 13 8 10 0
3890.0 11 14 11 13 18 14 17 13 10 10
3930.0 3 14 12 12 8 13 5 12 11 7
##END=
