##TITLE=2-Propanamine
##JCAMP-DX=4.24
##DATA TYPE=INFRARED SPECTRUM
##ORIGIN=Sadtler Research Labs Under US-EPA Contract
##OWNER=NIST Standard Reference Data Program
##CAS REGISTRY NO=75-31-0
##MOLFORM=C 3 H 9 N
##XUNITS=1/CM
##YUNITS=ABSORBANCE
##XFACTOR=1.0
##YFACTOR=0.000049658
##DELTAX=4.0
##FIRSTX=450.0
##LASTX=3966.0
##FIRSTY=0.009137
##MAXX=3966
##MINX=450
##MAXY=0.49658
##MINY=0
##NPOINTS=880
##XYDATA=(X++(Y..Y))
450.0 184 183 164 206 196 290 276 326 311 335
490.0 301 241 195 153 109 85 37 50 5 59
530.0 64 114 111 114 126 130 141 101 102 85
570.0 120 75 123 136 162 184 221 203 252 252
610.0 233 190 250 207 254 206 243 238 318 306
650.0 346 366 396 402 373 469 390 426 428 456
690.0 513 534 559 573 625 687 733 780 823 933
730.0 959 1146 1226 1468 1638 1986 2346 2736 3097 3529
770.0 3686 3896 4133 4801 5199 4095 3862 3679 3634 3570
810.0 3367 2847 2439 2099 2034 1817 1656 1547 1451 1196
850.0 975 693 555 418 376 312 303 269 238 217
890.0 214 178 168 156 167 154 161 167 178 179
930.0 185 217 240 262 262 302 307 316 320 346
970.0 318 354 346 309 289 224 211 210 182 171
1010.0 152 173 182 186 192 249 247 268 257 279
1050.0 300 247 247 211 211 179 189 154 184 185
1090.0 213 259 293 347 413 459 532 590 666 715
1130.0 790 777 859 958 1074 1174 1263 1307 1315 1319
1170.0 1321 1322 1185 1069 975 863 686 528 403 311
1210.0 267 267 259 259 257 256 240 262 242 250
1250.0 228 240 218 219 207 185 165 164 159 153
1290.0 171 181 213 257 316 417 504 614 735 837
1330.0 958 1072 1152 1276 1402 1485 1613 1620 1704 1838
1370.0 2048 2214 2275 2227 2114 1944 1714 1448 1131 838
1410.0 598 443 380 336 345 390 457 575 597 665
1450.0 679 714 861 1137 1165 1060 995 746 678 668
1490.0 666 585 540 444 428 339 267 260 245 205
1530.0 171 193 194 242 190 172 208 253 266 218
1570.0 275 282 363 381 469 557 679 810 930 1029
1610.0 1099 1151 1273 1278 1261 1134 1073 983 869 783
1650.0 649 625 427 365 291 280 211 189 155 167
1690.0 107 103 138 148 108 95 100 143 102 109
1730.0 103 148 101 112 88 109 87 88 79 66
1770.0 83 82 57 53 48 47 60 39 39 27
1810.0 28 28 29 30 47 45 33 30 37 42
1850.0 31 10 22 10 22 31 10 15 10 16
1890.0 16 19 4 10 4 12 3 14 3 12
1930.0 6 15 5 20 9 17 3 17 5 5
1970.0 5 5 8 8 8 8 8 8 8 8
2010.0 8 10 10 10 10 10 9 12 11 10
2050.0 12 12 12 12 12 12 12 2 12 14
2090.0 2 5 10 8 13 13 13 13 13 13
2130.0 13 14 14 14 14 14 14 14 14 14
2170.0 14 23 13 13 13 14 13 13 13 10
2210.0 8 9 9 6 1 5 3 13 3 3
2250.0 2 2 15 1 16 15 14 14 16 15
2290.0 15 27 27 37 40 48 50 41 62 43
2330.0 62 47 73 51 73 62 84 73 84 73
2370.0 58 54 43 38 25 23 22 23 24 23
2410.0 23 25 25 24 24 26 26 26 26 26
2450.0 26 27 27 28 28 28 28 28 28 28
2490.0 28 28 30 30 29 29 30 30 30 30
2530.0 32 30 39 32 40 31 54 42 55 55
2570.0 66 66 78 76 89 92 93 100 112 117
2610.0 133 140 165 166 186 186 199 201 211 240
2650.0 252 228 183 189 178 178 179 169 168 158
2690.0 158 156 153 158 165 182 187 215 212 225
2730.0 225 236 248 247 245 238 238 226 226 226
2770.0 247 240 257 270 293 325 350 373 421 463
2810.0 519 545 612 676 795 883 994 1082 1225 1311
2850.0 1441 1708 2134 2369 2290 2292 2383 2537 2644 2717
2890.0 2733 2767 2843 2968 3062 3096 3019 3013 3014 3221
2930.0 3481 3807 4215 4989 5601 6378 6695 7525 7669 10000
2970.0 9738 7855 7700 6902 5902 5097 4033 3075 2234 1543
3010.0 1017 653 398 267 198 142 121 98 109 87
3050.0 96 76 87 76 89 86 99 99 99 107
3090.0 92 95 94 90 90 80 90 82 90 90
3130.0 92 103 103 109 98 114 103 113 115 126
3170.0 126 138 138 138 142 143 144 142 138 144
3210.0 127 129 97 117 98 97 88 88 76 73
3250.0 74 53 56 28 46 27 27 26 29 27
3290.0 33 47 60 78 82 88 113 113 147 147
3330.0 169 148 171 180 169 153 144 140 122 108
3370.0 88 85 56 66 54 44 53 39 45 45
3410.0 45 53 42 59 37 58 26 47 27 40
3450.0 24 20 29 36 34 20 27 22 16 19
3490.0 10 8 0 19 1 9 17 11 23 22
3530.0 34 13 33 13 24 13 25 9 27 28
3570.0 29 23 30 32 47 47 47 26 37 27
3610.0 47 29 38 40 31 70 48 50 51 69
3650.0 93 72 50 42 41 69 65 76 53 59
3690.0 84 75 64 74 66 98 85 76 65 83
3730.0 80 105 103 105 135 121 122 111 111 111
3770.0 114 98 94 110 102 100 113 125 145 134
3810.0 147 136 167 147 148 134 140 125 123 117
3850.0 122 159 142 138 151 162 150 142 150 129
3890.0 119 120 121 121 121 122 122 131 133 154
3930.0 143 144 122 123 120 115 22 28 29 29
##END=
