##TITLE=Methane, dichlorofluoro-
##JCAMP-DX=4.24
##DATA TYPE=INFRARED SPECTRUM
##ORIGIN=Sadtler Research Labs Under US-EPA Contract
##OWNER=NIST Standard Reference Data Program
##CAS REGISTRY NO=75-43-4
##MOLFORM=C H Cl 2 F
##XUNITS=1/CM
##YUNITS=ABSORBANCE
##XFACTOR=1.0
##YFACTOR=0.000127457
##DELTAX=4.0
##FIRSTX=450.0
##LASTX=3966.0
##FIRSTY=0.011216
##MAXX=3966
##MINX=450
##MAXY=1.27457
##MINY=0
##NPOINTS=880
##XYDATA=(X++(Y..Y))
450.0 88 81 94 133 18 40 55 74 66 53
490.0 24 70 34 43 31 53 27 18 51 40
530.0 34 41 41 48 38 37 29 40 23 23
570.0 16 23 1 25 28 28 35 31 39 24
610.0 36 39 26 28 26 30 49 43 31 32
650.0 34 50 26 34 10 61 57 44 63 69
690.0 79 104 130 178 258 357 526 715 927 1161
730.0 1436 1767 1881 1919 1951 2139 1985 1667 1339 1256
770.0 1388 1783 2645 4154 6227 7843 9821 9239 10000 8989
810.0 8606 8983 7286 4474 3084 2466 2155 2015 1523 718
850.0 272 87 62 36 40 34 35 41 38 51
890.0 47 56 49 62 55 53 56 49 44 36
930.0 43 43 55 59 64 63 68 70 71 60
970.0 56 50 41 41 31 33 33 42 36 44
1010.0 49 57 78 105 156 234 366 567 907 1400
1050.0 2072 2936 4113 5762 7667 8777 8019 6350 7516 9521
1090.0 7085 4840 3048 1854 1037 507 268 155 128 81
1130.0 95 94 96 82 99 84 61 71 62 75
1170.0 56 90 73 86 82 120 121 91 145 160
1210.0 264 367 767 1181 1812 2036 2174 2497 2217 2308
1250.0 2766 1628 980 601 562 425 303 200 166 203
1290.0 245 361 432 598 613 560 547 606 479 382
1330.0 276 207 152 93 72 44 38 24 30 26
1370.0 27 28 30 30 25 30 26 31 26 29
1410.0 25 26 24 26 27 28 29 20 27 28
1450.0 29 28 25 30 35 35 35 35 33 34
1490.0 34 38 39 42 50 50 67 69 76 85
1530.0 85 92 78 86 71 69 60 53 34 42
1570.0 40 45 41 44 44 43 48 46 49 43
1610.0 48 48 46 36 30 31 24 29 22 23
1650.0 17 23 17 20 15 15 20 15 17 20
1690.0 16 17 21 18 16 20 16 20 15 18
1730.0 16 15 17 17 17 17 14 17 14 16
1770.0 13 15 17 17 14 18 15 20 15 17
1810.0 16 18 13 16 16 13 16 14 15 10
1850.0 15 13 14 13 14 12 11 15 11 13
1890.0 10 15 10 12 10 10 9 10 11 12
1930.0 10 10 11 10 11 13 14 12 13 13
1970.0 10 11 11 11 12 10 10 10 9 7
2010.0 10 8 11 7 11 8 11 10 8 11
2050.0 11 10 10 13 11 13 11 16 18 22
2090.0 26 28 35 38 46 61 74 94 114 134
2130.0 147 155 142 135 170 142 93 67 36 24
2170.0 10 6 5 6 7 4 6 6 9 5
2210.0 8 8 8 9 8 8 5 8 7 8
2250.0 7 8 9 7 7 5 5 6 12 11
2290.0 15 20 25 23 29 32 28 26 24 26
2330.0 20 16 14 10 16 27 23 17 26 26
2370.0 32 25 26 22 17 13 9 9 4 8
2410.0 8 8 5 6 5 6 8 7 8 6
2450.0 10 7 11 11 7 8 5 5 4 4
2490.0 2 3 0 1 2 2 3 3 4 3
2530.0 10 10 15 16 15 17 18 13 14 12
2570.0 7 7 1 5 4 7 5 7 8 10
2610.0 15 10 12 14 12 10 10 7 7 4
2650.0 3 5 5 4 5 5 5 4 4 4
2690.0 3 4 8 1 6 3 5 3 3 6
2730.0 5 5 5 5 5 6 4 7 7 7
2770.0 5 4 3 4 8 2 6 6 4 3
2810.0 5 6 6 8 6 10 5 6 7 9
2850.0 6 6 6 7 9 3 7 3 7 4
2890.0 6 4 6 9 8 8 2 6 5 9
2930.0 6 6 6 5 10 6 11 5 10 6
2970.0 8 9 9 11 7 20 17 36 37 67
3010.0 62 70 62 95 209 101 41 77 52 51
3050.0 28 28 18 9 10 7 10 4 10 7
3090.0 8 9 9 9 9 10 10 9 6 12
3130.0 8 9 6 9 10 11 15 13 14 11
3170.0 13 13 11 14 16 13 12 14 12 13
3210.0 9 10 8 11 9 7 9 10 10 10
3250.0 12 9 8 11 11 10 9 11 9 9
3290.0 9 14 8 11 11 12 14 12 10 5
3330.0 13 9 10 9 15 12 9 12 9 14
3370.0 11 15 8 11 11 6 11 10 11 12
3410.0 12 12 14 10 14 12 14 12 11 9
3450.0 8 15 11 18 22 10 14 10 6 11
3490.0 14 9 8 14 17 15 10 18 9 11
3530.0 17 9 3 11 9 10 13 23 22 14
3570.0 14 16 15 13 5 8 12 9 10 23
3610.0 3 17 12 10 17 7 11 10 9 17
3650.0 13 12 21 15 22 12 20 9 20 14
3690.0 14 10 12 10 16 21 18 15 14 22
3730.0 18 15 16 29 5 24 21 34 24 29
3770.0 26 28 31 22 20 21 26 6 14 17
3810.0 27 16 21 15 21 29 15 12 12 4
3850.0 16 5 11 14 23 16 16 22 21 17
3890.0 23 18 14 8 18 30 22 6 10 21
3930.0 13 20 16 15 12 29 5 24 23 16
##END=
