##TITLE=Methane, trifluoro-
##JCAMP-DX=4.24
##DATA TYPE=INFRARED SPECTRUM
##ORIGIN=Sadtler Research Labs Under US-EPA Contract
##OWNER=NIST Standard Reference Data Program
##CAS REGISTRY NO=75-46-7
##MOLFORM=C H F 3
##XUNITS=1/CM
##YUNITS=ABSORBANCE
##XFACTOR=1.0
##YFACTOR=0.000102338
##DELTAX=4.0
##FIRSTX=450.0
##LASTX=3966.0
##FIRSTY=0.000000
##MAXX=3966
##MINX=450
##MAXY=1.02338
##MINY=0
##NPOINTS=880
##XYDATA=(X++(Y..Y))
450.0 0 92 58 164 144 121 125 143 133 139
490.0 130 148 137 129 209 186 135 118 128 147
530.0 168 150 182 162 158 134 136 130 133 138
570.0 108 119 118 128 113 138 131 113 135 128
610.0 130 115 139 130 136 127 137 126 121 138
650.0 111 135 120 152 125 158 170 170 164 139
690.0 192 95 355 347 111 172 159 170 195 178
730.0 187 151 168 134 134 118 121 123 119 135
770.0 115 118 111 126 111 116 114 115 117 123
810.0 130 118 127 127 126 116 112 119 113 114
850.0 119 130 116 121 120 115 111 121 118 111
890.0 116 119 116 114 115 113 114 118 118 119
930.0 118 124 118 113 115 115 112 114 118 115
970.0 117 112 120 113 115 115 118 108 109 107
1010.0 100 106 100 103 99 103 106 105 109 111
1050.0 120 113 116 106 111 107 110 107 108 114
1090.0 115 126 118 139 138 164 201 273 361 510
1130.0 870 1551 3129 5484 7537 9101 10000 5585 2833 1282
1170.0 1144 865 717 545 453 345 277 254 181 297
1210.0 417 122 154 157 155 166 151 151 127 138
1250.0 119 114 110 109 108 101 106 101 104 98
1290.0 107 103 103 103 99 99 94 101 98 105
1330.0 111 119 134 147 168 204 259 329 431 581
1370.0 795 1053 1166 974 698 504 367 285 221 182
1410.0 151 136 124 116 113 113 106 96 102 102
1450.0 98 98 97 93 102 94 98 95 100 98
1490.0 102 97 97 104 96 98 101 101 95 99
1530.0 96 102 96 100 97 94 96 95 91 96
1570.0 93 98 90 95 93 92 95 95 95 95
1610.0 99 96 96 100 97 100 96 103 97 99
1650.0 96 97 91 102 95 97 94 97 95 97
1690.0 93 95 93 90 91 94 96 91 93 91
1730.0 93 91 93 93 93 95 86 89 85 85
1770.0 80 84 80 81 74 83 84 89 89 88
1810.0 87 90 89 87 90 90 96 97 104 104
1850.0 106 96 91 87 89 90 83 87 83 84
1890.0 82 88 85 85 86 85 86 85 85 86
1930.0 84 85 84 85 87 85 83 85 83 85
1970.0 82 81 81 84 81 81 80 81 81 80
2010.0 80 80 83 78 81 81 82 83 83 82
2050.0 81 82 81 81 80 80 80 78 80 77
2090.0 77 77 77 77 76 76 77 80 80 77
2130.0 78 75 80 78 80 77 75 77 77 77
2170.0 78 76 76 75 77 75 74 76 76 77
2210.0 76 78 75 77 82 78 81 84 84 86
2250.0 88 91 94 97 102 110 116 121 121 112
2290.0 97 92 85 80 82 82 87 90 94 95
2330.0 92 95 99 98 93 94 88 92 90 81
2370.0 91 88 83 75 71 73 72 71 74 72
2410.0 69 67 69 68 70 69 70 71 71 68
2450.0 72 70 71 65 67 70 68 68 69 70
2490.0 70 71 69 68 72 74 75 78 75 70
2530.0 70 69 70 68 68 68 68 65 67 65
2570.0 63 67 65 65 63 65 66 66 65 65
2610.0 66 66 65 65 68 65 65 65 65 63
2650.0 65 66 64 67 65 64 68 66 69 69
2690.0 67 65 69 69 67 75 68 65 67 64
2730.0 66 66 66 64 65 64 64 63 64 66
2770.0 67 65 68 67 66 64 67 65 63 67
2810.0 66 67 64 65 68 68 65 63 64 65
2850.0 66 67 69 66 64 65 66 66 68 65
2890.0 66 68 65 67 66 65 67 63 64 66
2930.0 64 64 67 62 65 65 67 68 69 70
2970.0 67 68 71 72 76 87 97 110 119 133
3010.0 150 146 142 135 155 176 390 274 206 144
3050.0 137 139 153 145 136 119 108 91 81 80
3090.0 72 68 68 67 64 71 65 69 66 70
3130.0 67 67 65 67 69 67 65 66 71 73
3170.0 67 66 63 63 66 68 70 68 68 73
3210.0 71 68 66 68 72 64 67 67 67 67
3250.0 70 66 65 65 66 69 67 69 67 71
3290.0 66 69 64 67 70 67 69 72 68 67
3330.0 67 68 74 70 71 72 71 72 69 72
3370.0 72 69 72 72 65 68 74 76 74 69
3410.0 75 71 72 73 70 72 73 68 69 68
3450.0 71 67 68 81 72 73 78 71 71 74
3490.0 78 70 71 70 71 72 73 77 70 72
3530.0 74 78 74 75 67 70 70 69 82 67
3570.0 75 77 70 77 75 72 67 85 71 82
3610.0 74 74 75 80 75 64 74 81 72 73
3650.0 62 72 76 68 86 66 86 73 77 73
3690.0 75 73 75 77 72 74 78 72 77 76
3730.0 74 70 77 80 62 72 74 84 76 76
3770.0 80 77 80 77 75 71 70 66 87 67
3810.0 77 71 70 81 81 74 80 78 81 83
3850.0 73 72 83 78 71 76 77 70 65 78
3890.0 88 73 87 60 73 76 75 76 78 85
3930.0 72 74 70 69 73 74 66 90 71 81
##END=
