##TITLE=Methane, chlorodifluoro-
##JCAMP-DX=4.24
##DATA TYPE=INFRARED SPECTRUM
##ORIGIN=Sadtler Research Labs Under US-EPA Contract
##OWNER=NIST Standard Reference Data Program
##CAS REGISTRY NO=75-45-6
##MOLFORM=C H Cl F 2
##XUNITS=1/CM
##YUNITS=ABSORBANCE
##XFACTOR=1.0
##YFACTOR=0.000047552
##DELTAX=4.0
##FIRSTX=450.0
##LASTX=3966.0
##FIRSTY=0.001997
##MAXX=3966
##MINX=450
##MAXY=0.47552
##MINY=0
##NPOINTS=880
##XYDATA=(X++(Y..Y))
450.0 42 119 249 14 12 8 33 12 56 17
490.0 40 61 67 33 86 117 87 102 75 46
530.0 66 62 59 106 87 52 87 70 40 114
570.0 132 118 104 131 144 110 232 203 117 179
610.0 187 162 119 113 102 106 82 47 98 73
650.0 77 71 58 34 78 76 78 49 71 77
690.0 56 81 95 54 88 67 78 74 77 73
730.0 95 87 92 67 90 111 115 89 152 204
770.0 229 351 514 807 1102 1526 1769 1921 1971 2276
810.0 2520 2236 2432 2470 1605 1277 708 573 550 383
850.0 250 148 130 68 93 70 72 49 90 71
890.0 71 71 83 79 57 95 80 90 88 97
930.0 85 75 85 80 88 76 95 72 82 81
970.0 90 72 73 68 69 78 67 83 53 75
1010.0 84 81 71 80 78 69 96 73 85 68
1050.0 98 87 127 152 217 306 454 742 1108 1725
1090.0 2516 3564 4484 5555 6245 6629 9457 10000 7513 4079
1130.0 3153 3192 2461 1858 1303 959 717 558 450 366
1170.0 324 273 297 255 221 182 150 136 132 121
1210.0 103 88 81 90 75 77 73 81 67 78
1250.0 80 72 73 73 87 83 116 140 208 281
1290.0 450 635 797 899 858 1245 1287 811 1506 1360
1330.0 737 430 420 414 322 185 170 254 218 172
1370.0 140 114 111 97 98 72 76 65 68 66
1410.0 68 73 75 76 70 66 69 68 66 65
1450.0 68 66 63 65 63 61 65 65 65 63
1490.0 67 50 65 65 72 68 61 61 63 69
1530.0 57 67 67 72 68 69 71 69 70 67
1570.0 64 64 69 64 65 69 75 75 73 78
1610.0 83 78 81 78 83 77 78 75 72 71
1650.0 67 65 66 66 71 65 72 66 72 78
1690.0 68 75 81 81 80 78 70 73 66 66
1730.0 67 69 70 64 69 63 67 61 66 65
1770.0 62 64 63 63 62 60 61 56 57 57
1810.0 60 63 64 65 63 60 64 60 64 66
1850.0 63 57 58 65 61 65 58 59 61 54
1890.0 58 63 59 58 64 61 60 64 62 61
1930.0 67 59 59 63 62 65 58 52 56 61
1970.0 61 60 59 58 58 62 60 61 61 55
2010.0 63 63 61 59 61 63 59 62 64 65
2050.0 63 61 58 58 60 57 60 56 55 58
2090.0 56 57 55 61 63 62 56 54 54 55
2130.0 55 61 63 61 64 62 63 62 61 64
2170.0 71 71 78 84 88 103 113 125 133 147
2210.0 147 154 133 102 109 100 86 81 76 69
2250.0 69 67 66 67 66 58 53 53 47 38
2290.0 34 31 23 20 22 2 8 2 7 19
2330.0 39 42 47 42 65 47 40 42 75 86
2370.0 88 70 68 60 58 65 69 63 66 68
2410.0 71 70 71 59 61 61 60 56 52 57
2450.0 55 58 60 60 53 50 53 48 52 50
2490.0 52 45 50 55 51 49 47 49 42 46
2530.0 44 51 52 49 46 46 49 45 48 49
2570.0 51 48 48 50 47 47 54 41 43 47
2610.0 51 44 42 34 43 45 46 37 37 48
2650.0 48 45 44 48 48 48 46 42 46 44
2690.0 44 47 46 47 51 48 44 40 43 45
2730.0 39 48 40 45 43 49 33 40 38 42
2770.0 42 44 42 39 41 31 43 42 41 42
2810.0 38 45 38 39 37 36 38 44 39 42
2850.0 40 39 37 40 39 31 37 36 36 36
2890.0 38 34 33 38 38 42 39 46 44 41
2930.0 30 35 36 41 46 39 46 35 43 45
2970.0 33 45 43 51 54 78 84 109 123 138
3010.0 133 144 154 296 329 166 121 140 122 117
3050.0 98 84 67 51 49 36 38 29 27 29
3090.0 35 29 40 32 28 32 43 30 23 32
3130.0 33 36 37 41 33 33 39 28 34 34
3170.0 27 32 30 34 29 29 29 35 29 21
3210.0 27 28 34 33 24 25 26 22 26 21
3250.0 31 31 23 26 28 24 37 34 27 26
3290.0 27 25 21 27 22 23 20 27 36 32
3330.0 20 26 29 28 34 12 34 33 30 40
3370.0 30 32 40 23 30 37 22 22 20 29
3410.0 27 21 42 29 13 32 27 22 27 18
3450.0 34 9 22 44 20 21 26 38 29 35
3490.0 31 21 25 17 18 17 22 16 13 18
3530.0 15 31 35 23 21 23 31 21 19 28
3570.0 24 2 10 15 15 14 25 31 38 20
3610.0 31 20 10 18 17 20 11 19 33 38
3650.0 14 21 13 29 40 35 6 18 19 15
3690.0 12 16 28 13 2 30 33 13 32 47
3730.0 21 2 28 33 18 37 17 12 7 19
3770.0 28 14 33 32 26 29 33 8 18 24
3810.0 35 19 9 36 15 18 26 25 19 39
3850.0 30 8 23 28 40 45 6 23 22 39
3890.0 15 11 0 4 2 39 2 27 15 10
3930.0 10 9 10 9 26 34 7 13 16 6
##END=
