##TITLE=Methane, triiodo-
##JCAMP-DX=4.24
##DATA TYPE=INFRARED SPECTRUM
##ORIGIN=Sadtler Research Labs Under US-EPA Contract
##OWNER=NIST Standard Reference Data Program
##CAS REGISTRY NO=75-47-8
##MOLFORM=C H I 3
##XUNITS=1/CM
##YUNITS=ABSORBANCE
##XFACTOR=1.0
##YFACTOR=0.000076172
##DELTAX=4.0
##FIRSTX=450.0
##LASTX=3966.0
##FIRSTY=0.003047
##MAXX=3966
##MINX=450
##MAXY=0.76172
##MINY=0
##NPOINTS=880
##XYDATA=(X++(Y..Y))
450.0 40 75 22 38 80 55 62 56 60 119
490.0 60 35 83 86 101 165 48 92 105 45
530.0 147 77 108 161 30 162 127 190 291 260
570.0 314 377 301 307 312 142 237 246 348 467
610.0 377 389 358 215 285 160 154 183 149 173
650.0 245 200 303 210 211 260 277 317 306 294
690.0 318 290 241 328 285 254 179 132 254 247
730.0 295 203 235 370 259 242 297 317 213 363
770.0 300 340 494 493 702 598 909 1376 1993 2324
810.0 2993 3444 3857 3086 2157 1739 1337 1147 982 820
850.0 700 723 540 584 476 430 474 378 350 358
890.0 290 252 268 226 233 223 197 224 179 195
930.0 226 188 217 187 174 214 195 220 214 194
970.0 224 203 211 270 293 400 598 829 1362 2127
1010.0 3445 5103 6566 8317 10000 9257 8608 5252 3303 2204
1050.0 1441 1389 1562 1383 1669 1784 1703 1818 1997 2030
1090.0 2148 1628 1691 1884 1763 1816 1529 1214 878 634
1130.0 528 432 335 311 300 292 308 234 205 184
1170.0 131 156 126 100 126 81 165 137 100 100
1210.0 151 124 164 139 177 200 184 218 273 363
1250.0 575 913 1539 2410 2740 2208 1364 711 412 287
1290.0 221 207 179 166 157 124 115 95 87 100
1330.0 75 81 85 70 95 89 83 93 75 98
1370.0 108 94 115 106 108 128 130 138 165 147
1410.0 171 168 144 136 122 108 120 96 117 119
1450.0 96 108 98 90 103 83 86 87 71 86
1490.0 83 71 90 74 97 80 74 98 110 100
1530.0 114 94 108 133 113 129 124 116 118 97
1570.0 82 101 73 92 93 79 93 92 101 120
1610.0 94 109 114 92 104 96 91 102 71 79
1650.0 69 51 50 40 27 45 32 26 46 32
1690.0 42 43 34 62 47 48 62 54 50 65
1730.0 42 68 51 58 63 49 56 60 48 57
1770.0 50 48 52 40 54 58 49 55 43 48
1810.0 61 46 48 60 39 57 47 47 58 52
1850.0 47 58 42 56 54 40 55 56 48 59
1890.0 46 55 55 42 56 49 55 60 52 54
1930.0 59 52 57 61 57 65 59 62 63 48
1970.0 55 54 47 55 44 46 57 43 55 51
2010.0 42 55 42 39 54 38 54 50 38 51
2050.0 51 52 60 48 61 62 48 60 59 55
2090.0 59 51 56 61 48 60 54 48 61 55
2130.0 46 52 39 46 49 44 51 46 45 57
2170.0 48 52 47 40 52 51 44 51 48 50
2210.0 47 38 46 44 37 54 34 38 37 31
2250.0 38 30 28 42 27 32 34 30 31 32
2290.0 25 37 23 24 36 22 32 33 15 46
2330.0 30 27 57 26 25 39 16 42 61 48
2370.0 95 66 55 52 33 33 30 20 27 26
2410.0 26 32 19 26 30 19 39 25 27 31
2450.0 23 28 28 21 36 26 28 34 22 30
2490.0 42 19 30 33 23 38 22 31 35 27
2530.0 33 24 20 32 28 26 39 26 32 39
2570.0 25 32 30 25 35 30 33 37 24 40
2610.0 31 34 33 33 26 33 26 39 31 34
2650.0 46 30 31 46 30 42 36 35 40 33
2690.0 35 48 36 35 44 32 43 33 28 50
2730.0 28 37 43 27 38 34 37 42 28 38
2770.0 48 32 52 52 38 45 43 58 54 49
2810.0 61 60 47 68 58 55 69 46 61 73
2850.0 59 67 65 67 83 69 69 82 63 90
2890.0 92 92 112 119 152 176 152 154 129 106
2930.0 120 101 112 136 120 157 208 292 499 729
2970.0 899 886 624 406 232 142 116 103 80 93
3010.0 80 104 112 73 73 83 70 89 71 81
3050.0 91 82 104 93 91 104 93 96 102 85
3090.0 90 93 71 91 84 70 97 60 71 78
3130.0 47 77 47 47 66 45 49 59 28 58
3170.0 42 28 56 39 34 54 31 52 50 30
3210.0 58 38 37 51 37 45 51 24 57 33
3250.0 36 56 39 46 61 32 54 45 40 66
3290.0 51 50 45 28 50 39 46 57 36 34
3330.0 47 33 49 35 28 58 37 38 50 19
3370.0 40 38 21 43 26 30 57 23 33 40
3410.0 33 38 19 17 38 16 37 50 9 30
3450.0 26 30 45 23 27 36 21 37 21 31
3490.0 46 23 34 50 20 44 40 9 39 13
3530.0 25 40 13 40 33 20 55 31 13 30
3570.0 8 33 31 0 27 24 14 35 21 22
3610.0 40 16 33 26 31 28 27 22 25 17
3650.0 30 36 28 37 19 31 52 13 44 44
3690.0 32 59 47 39 46 24 25 45 14 30
3730.0 46 31 38 39 26 49 20 47 39 20
3770.0 47 24 25 45 21 23 40 23 37 36
3810.0 42 50 21 43 54 34 50 44 30 51
3850.0 37 25 31 10 30 36 37 58 39 30
3890.0 38 9 16 19 13 31 19 11 32 25
3930.0 24 21 2 23 20 24 0 2 2 2
##END=
