##TITLE=Methane, nitro-
##JCAMP-DX=4.24
##DATA TYPE=INFRARED SPECTRUM
##ORIGIN=Sadtler Research Labs Under US-EPA Contract
##OWNER=NIST Standard Reference Data Program
##CAS REGISTRY NO=75-52-5
##MOLFORM=C H 3 N O 2
##XUNITS=1/CM
##YUNITS=ABSORBANCE
##XFACTOR=1.0
##YFACTOR=0.000164127
##DELTAX=4.0
##FIRSTX=450.0
##LASTX=3966.0
##FIRSTY=0.006073
##MAXX=3966
##MINX=450
##MAXY=1.64127
##MINY=0
##NPOINTS=880
##XYDATA=(X++(Y..Y))
450.0 37 48 99 28 91 65 66 70 74 17
490.0 77 83 65 34 41 40 43 32 15 33
530.0 36 15 33 29 44 31 26 23 33 51
570.0 61 70 69 58 81 114 117 167 313 276
610.0 173 196 274 361 561 798 968 1159 1066 965
650.0 722 1288 1197 712 753 1045 986 847 578 428
690.0 241 178 101 103 59 70 66 62 73 55
730.0 64 45 58 50 54 44 50 52 40 51
770.0 39 50 13 46 47 62 55 50 41 46
810.0 41 41 43 49 48 40 49 47 52 52
850.0 56 53 59 81 82 77 80 108 120 154
890.0 193 219 256 254 253 241 348 398 208 305
930.0 344 358 312 219 146 90 72 58 58 52
970.0 51 66 69 31 41 55 55 59 58 65
1010.0 67 77 73 88 95 109 129 139 160 182
1050.0 214 238 276 307 341 375 405 429 429 423
1090.0 416 381 389 391 372 381 349 295 265 246
1130.0 232 217 208 201 201 191 199 199 196 194
1170.0 186 183 179 179 167 166 150 143 139 142
1210.0 131 120 120 113 109 95 89 75 70 70
1250.0 68 65 61 76 73 82 84 101 109 128
1290.0 138 147 164 161 193 211 230 227 285 319
1330.0 363 431 526 661 866 1167 1480 1888 2172 2473
1370.0 2647 2858 3526 3072 2673 3172 3707 3602 2494 2150
1410.0 2043 1880 1595 1311 1172 989 1014 975 978 987
1450.0 1027 937 846 873 888 964 1005 1095 1266 1152
1490.0 1220 1267 1232 1340 1373 1518 1699 1767 1953 2067
1530.0 2189 2567 2927 3651 4271 5206 6428 7528 8749 9493
1570.0 10000 9695 9282 8160 7859 9956 9551 8994 8098 6605
1610.0 4798 3321 2129 1369 891 577 392 260 197 139
1650.0 118 77 67 57 47 39 41 27 37 23
1690.0 29 28 28 28 35 35 32 38 29 24
1730.0 25 29 22 26 31 30 27 26 23 21
1770.0 19 18 19 18 18 20 15 15 19 16
1810.0 15 18 16 15 18 19 20 16 19 21
1850.0 19 15 15 16 11 15 8 12 9 8
1890.0 10 10 12 6 10 11 11 8 12 10
1930.0 9 11 11 16 15 16 14 16 14 19
1970.0 18 18 23 20 20 21 25 25 28 29
2010.0 31 30 32 36 35 37 35 35 35 35
2050.0 37 33 31 25 25 23 21 16 13 12
2090.0 11 8 7 9 7 10 4 7 7 4
2130.0 5 4 4 0 3 0 6 3 2 0
2170.0 3 2 1 5 7 12 11 15 14 15
2210.0 12 13 14 14 15 13 15 16 16 14
2250.0 16 17 16 20 19 25 23 27 31 32
2290.0 36 33 35 36 39 36 30 23 15 14
2330.0 9 13 16 14 40 23 0 2 30 38
2370.0 58 63 65 58 50 36 30 33 31 34
2410.0 35 40 43 48 50 56 59 66 73 80
2450.0 83 88 98 99 109 113 118 120 120 115
2490.0 111 100 106 113 105 104 96 86 77 67
2530.0 66 62 61 59 57 59 62 57 53 52
2570.0 49 48 41 42 43 43 40 41 37 36
2610.0 39 35 35 30 32 29 27 29 27 25
2650.0 24 27 21 23 23 27 27 25 33 35
2690.0 40 39 45 43 50 50 50 58 60 64
2730.0 72 79 83 97 100 104 103 116 125 114
2770.0 112 118 123 109 99 86 70 73 80 76
2810.0 66 59 55 57 57 59 58 60 66 69
2850.0 73 74 84 82 86 94 96 96 105 112
2890.0 117 131 136 153 170 189 208 229 253 278
2930.0 306 328 358 377 409 420 435 463 440 433
2970.0 406 417 346 299 293 278 256 220 190 165
3010.0 144 128 106 103 92 88 86 83 76 73
3050.0 69 63 65 64 63 65 67 64 60 56
3090.0 58 60 62 59 56 60 57 61 54 54
3130.0 50 55 48 55 47 47 46 40 44 40
3170.0 36 38 42 35 36 32 33 27 28 34
3210.0 33 33 29 30 28 31 27 29 28 26
3250.0 31 29 27 27 27 30 29 28 30 34
3290.0 31 30 34 30 29 36 31 32 38 23
3330.0 26 32 34 32 32 28 23 27 28 27
3370.0 26 22 21 27 33 29 30 22 25 28
3410.0 27 19 21 24 29 25 22 21 27 29
3450.0 30 21 19 23 27 27 28 27 21 18
3490.0 30 27 22 30 27 27 25 20 26 31
3530.0 20 21 24 11 29 27 27 27 23 21
3570.0 30 24 25 29 22 24 22 33 19 20
3610.0 31 21 31 36 33 36 37 22 29 29
3650.0 40 44 37 35 48 29 19 30 43 39
3690.0 35 42 32 25 37 27 45 44 37 33
3730.0 32 39 43 30 45 31 40 34 33 36
3770.0 42 51 48 52 33 41 46 33 41 50
3810.0 41 60 48 47 58 48 31 27 47 50
3850.0 26 37 70 43 30 41 36 44 37 28
3890.0 36 34 21 41 42 39 23 22 39 58
3930.0 55 35 23 27 41 25 27 21 40 27
##END=
