##TITLE=Trimethylamine
##JCAMP-DX=4.24
##DATA TYPE=INFRARED SPECTRUM
##ORIGIN=Sadtler Research Labs Under US-EPA Contract
##OWNER=NIST Standard Reference Data Program
##CAS REGISTRY NO=75-50-3
##MOLFORM=C 3 H 9 N
##XUNITS=1/CM
##YUNITS=ABSORBANCE
##XFACTOR=1.0
##YFACTOR=0.000188608
##DELTAX=4.0
##FIRSTX=450.0
##LASTX=3966.0
##FIRSTY=0.023576
##MAXX=3966
##MINX=450
##MAXY=1.88608
##MINY=0
##NPOINTS=880
##XYDATA=(X++(Y..Y))
450.0 125 86 72 86 46 71 49 45 65 50
490.0 67 65 54 43 62 60 46 61 42 33
530.0 46 49 44 36 27 19 1 17 18 31
570.0 27 17 22 24 35 10 19 7 11 10
610.0 1 19 18 26 19 18 14 22 22 14
650.0 15 7 31 19 19 14 25 20 16 7
690.0 10 22 23 25 28 20 15 18 17 17
730.0 9 10 11 16 16 23 20 17 27 29
770.0 44 65 108 156 216 309 383 461 514 552
810.0 534 706 1147 1840 1609 685 446 681 710 780
850.0 681 530 351 238 161 106 77 57 51 28
890.0 32 25 20 14 12 19 23 19 15 20
930.0 17 20 19 18 17 20 17 17 20 20
970.0 24 26 36 46 58 87 126 189 280 421
1010.0 605 850 1117 1424 1662 1842 1974 2143 2323 2228
1050.0 2005 2083 2162 1993 1671 1270 976 812 769 768
1090.0 754 727 714 829 839 770 773 780 681 528
1130.0 378 280 238 236 282 332 401 438 477 489
1170.0 581 884 1299 1621 1100 485 606 669 714 668
1210.0 546 406 271 198 142 150 167 230 307 436
1250.0 609 831 1103 1368 1584 1622 1544 1475 1452 1281
1290.0 1021 762 544 394 281 203 136 105 74 66
1330.0 50 44 34 31 35 31 36 34 56 57
1370.0 76 94 119 143 165 195 195 207 199 228
1410.0 253 325 411 546 701 879 1082 1255 1741 1773
1450.0 2076 2526 2717 2557 2147 1765 1678 1889 1899 1467
1490.0 1201 1006 860 722 609 486 385 299 230 181
1530.0 143 131 106 95 74 66 50 42 36 27
1570.0 26 19 23 18 17 17 22 22 25 31
1610.0 34 40 43 49 52 57 62 58 65 60
1650.0 60 53 53 45 46 44 46 40 40 40
1690.0 39 37 39 36 34 36 35 33 34 29
1730.0 28 31 26 26 24 19 22 22 19 19
1770.0 19 18 12 11 11 10 6 5 2 6
1810.0 8 10 16 16 23 26 34 41 49 56
1850.0 60 67 70 76 72 70 70 68 61 52
1890.0 40 29 24 18 17 16 16 12 15 16
1930.0 17 16 16 16 12 15 11 11 9 11
1970.0 15 17 19 22 26 28 36 42 44 45
2010.0 40 31 31 32 31 32 26 24 22 22
2050.0 26 33 41 52 65 79 94 108 117 125
2090.0 125 123 118 105 93 75 57 46 34 27
2130.0 23 18 15 11 10 8 7 5 6 5
2170.0 3 5 3 1 1 1 3 5 7 2
2210.0 2 1 2 3 2 3 7 3 7 9
2250.0 6 7 9 10 15 16 22 25 27 26
2290.0 26 31 36 39 35 34 37 32 32 36
2330.0 39 32 29 37 22 31 15 18 22 31
2370.0 22 32 24 20 17 16 15 15 14 15
2410.0 16 15 18 19 23 26 28 32 37 41
2450.0 45 49 54 61 67 71 78 85 94 102
2490.0 114 134 169 178 153 142 146 147 144 139
2530.0 133 125 120 113 101 97 95 93 89 89
2570.0 91 83 78 75 77 74 72 71 72 74
2610.0 71 69 69 71 71 74 84 92 89 76
2650.0 68 70 70 76 74 83 97 116 152 196
2690.0 258 347 457 590 740 902 1058 1221 1385 1610
2730.0 1930 2431 2917 3326 4073 5019 5719 5983 5816 5757
2770.0 6597 10000 9719 6511 5873 6030 6072 5864 5341 4712
2810.0 4087 3823 4397 6602 7135 4019 3096 3337 3531 3519
2850.0 3172 2706 2337 2166 2153 2337 2696 2389 2119 2242
2890.0 2341 2424 2542 2507 2397 2447 2606 2815 3166 3678
2930.0 4252 4645 4909 4888 5314 6223 6763 6906 7245 7403
2970.0 6955 6425 6168 5566 4568 4102 3894 3389 2609 1771
3010.0 1128 701 460 325 257 217 195 179 173 164
3050.0 159 152 147 143 140 139 137 143 140 143
3090.0 140 143 144 139 143 138 139 134 134 129
3130.0 126 123 119 114 116 106 108 106 106 105
3170.0 104 108 114 117 120 126 126 127 129 127
3210.0 123 121 113 108 97 92 87 78 65 60
3250.0 53 43 34 36 27 22 23 19 23 20
3290.0 19 18 15 19 16 16 17 18 18 22
3330.0 15 14 15 14 16 18 17 18 24 25
3370.0 27 28 33 34 36 34 39 44 53 52
3410.0 41 39 35 34 29 26 22 20 15 12
3450.0 11 8 10 9 9 14 12 12 9 7
3490.0 12 15 8 7 9 6 9 9 6 2
3530.0 3 11 15 11 6 3 10 8 9 6
3570.0 18 14 17 22 19 8 12 14 14 17
3610.0 14 10 16 7 17 11 16 10 8 12
3650.0 7 14 3 9 9 6 2 3 15 7
3690.0 10 1 8 10 9 12 9 1 7 3
3730.0 5 9 6 0 3 2 7 11 12 15
3770.0 8 17 23 20 23 23 27 18 26 26
3810.0 36 43 40 37 32 26 33 27 17 22
3850.0 18 19 22 23 18 22 24 19 10 17
3890.0 18 9 19 8 11 15 16 6 18 10
3930.0 15 2 15 16 15 22 22 14 7 23
##END=
