##TITLE=Propylene oxide
##JCAMP-DX=4.24
##DATA TYPE=INFRARED SPECTRUM
##ORIGIN=Sadtler Research Labs Under US-EPA Contract
##OWNER=NIST Standard Reference Data Program
##CAS REGISTRY NO=75-56-9
##MOLFORM=C 3 H 6 O
##XUNITS=1/CM
##YUNITS=ABSORBANCE
##XFACTOR=1.0
##YFACTOR=0.000074774
##DELTAX=4.0
##FIRSTX=450.0
##LASTX=3966.0
##FIRSTY=0.003215
##MAXX=3966
##MINX=450
##MAXY=0.74774
##MINY=0
##NPOINTS=880
##XYDATA=(X++(Y..Y))
450.0 43 80 76 94 77 100 116 72 48 63
490.0 48 60 13 62 72 55 88 6 106 50
530.0 70 65 42 24 50 78 53 10 18 54
570.0 119 56 76 72 96 82 96 80 74 61
610.0 62 75 69 68 83 110 38 74 51 45
650.0 79 56 65 62 58 92 61 79 86 104
690.0 84 101 118 135 147 184 193 252 334 386
730.0 524 646 783 913 1006 1100 1206 1164 1140 1455
770.0 1619 1618 1426 1248 1162 1242 1491 1861 2337 2965
810.0 3703 4471 5119 5439 5275 5250 5557 5712 5161 5357
850.0 5091 4367 3379 2482 1777 1427 1151 992 873 775
890.0 720 714 672 736 777 839 890 954 1067 1186
930.0 1343 1497 1613 1737 1807 1742 1588 1632 1917 1877
970.0 1731 1559 1371 1257 1162 1105 1125 1146 1212 1249
1010.0 1318 1327 1208 1094 1230 1367 1238 1093 955 817
1050.0 706 596 529 468 443 444 460 488 573 646
1090.0 729 827 942 1033 1172 1323 1505 1457 1421 1412
1130.0 1387 1318 1097 1028 967 794 717 722 630 554
1170.0 495 415 345 284 246 226 201 193 196 201
1210.0 213 227 242 275 313 369 439 526 622 711
1250.0 795 856 890 904 938 855 873 855 778 690
1290.0 583 488 427 354 299 263 233 218 200 208
1330.0 222 250 292 322 381 420 471 532 579 662
1370.0 956 1149 1192 1613 2108 2638 2947 3037 2845 3183
1410.0 4295 2556 2689 3327 3371 2897 2334 1851 1578 1369
1450.0 1238 1225 1265 1510 1427 1388 1371 1220 1198 1220
1490.0 1201 1035 1053 1071 988 838 765 629 580 608
1530.0 602 525 410 261 222 223 200 163 129 166
1570.0 177 191 176 186 196 208 187 207 211 201
1610.0 185 173 132 133 131 140 146 140 155 154
1650.0 154 136 157 166 169 170 153 175 163 122
1690.0 145 153 116 123 128 140 165 167 198 217
1730.0 232 233 254 252 239 237 235 229 247 237
1770.0 192 130 126 102 100 89 70 76 77 71
1810.0 69 54 61 49 50 37 56 50 39 31
1850.0 46 56 56 61 60 51 55 57 57 60
1890.0 63 60 67 70 66 59 67 72 65 64
1930.0 66 62 66 64 68 78 78 87 90 97
1970.0 97 91 98 90 89 74 81 74 76 75
2010.0 69 69 74 63 62 63 63 55 53 49
2050.0 51 29 42 39 42 42 42 48 40 45
2090.0 46 35 35 40 32 32 39 37 46 52
2130.0 59 66 78 86 91 107 99 114 125 122
2170.0 111 116 117 111 110 89 88 72 76 90
2210.0 81 81 87 108 106 106 120 127 148 160
2250.0 160 160 161 156 155 163 164 149 140 138
2290.0 120 119 97 98 90 96 88 90 74 71
2330.0 63 35 52 67 43 43 42 60 71 35
2370.0 48 33 27 21 21 30 21 15 22 15
2410.0 20 28 31 26 23 23 21 23 17 12
2450.0 7 7 6 12 11 6 3 15 8 16
2490.0 14 20 20 25 33 40 27 33 33 33
2530.0 41 35 35 35 22 27 32 22 29 29
2570.0 23 37 37 46 46 45 61 61 61 58
2610.0 65 58 64 57 65 59 57 53 53 45
2650.0 39 39 32 38 39 33 40 48 35 48
2690.0 57 63 68 75 91 96 101 108 115 116
2730.0 130 129 123 131 147 142 139 145 164 182
2770.0 235 225 230 258 292 298 298 299 298 312
2810.0 326 289 264 273 288 298 293 300 322 370
2850.0 406 457 536 646 792 876 920 992 1089 1285
2890.0 1467 1633 1860 2107 2283 2420 2742 3152 3493 3677
2930.0 3722 3686 4022 4508 4228 4657 5124 5383 5611 5885
2970.0 6128 6005 6472 7392 7793 7868 8211 9028 10000 7318
3010.0 7180 7053 6884 6572 6340 6094 5784 5370 4772 4812
3050.0 6980 3525 3489 3567 3290 2832 2334 1873 1484 1182
3090.0 896 688 519 402 322 260 206 182 174 150
3130.0 147 161 158 159 160 156 149 150 168 176
3170.0 143 148 136 127 100 84 88 66 53 41
3210.0 19 19 26 13 19 13 13 14 9 7
3250.0 9 11 6 9 14 15 9 9 16 16
3290.0 15 12 31 27 38 26 24 31 23 51
3330.0 46 44 56 49 51 51 63 62 56 38
3370.0 49 48 40 67 59 37 31 44 46 44
3410.0 39 41 47 27 21 30 44 24 23 26
3450.0 16 29 17 26 29 25 31 19 26 26
3490.0 20 8 21 20 27 7 19 23 37 3
3530.0 10 20 28 29 23 19 43 27 28 26
3570.0 37 0 18 10 20 21 40 33 33 33
3610.0 33 46 41 33 61 47 42 33 48 38
3650.0 38 29 35 39 53 43 47 53 42 36
3690.0 49 45 46 46 59 39 54 59 54 60
3730.0 63 78 70 86 72 72 72 100 80 79
3770.0 87 81 78 75 74 77 83 80 63 64
3810.0 57 58 60 81 79 65 67 66 61 47
3850.0 62 55 45 51 54 61 68 55 62 70
3890.0 57 66 67 61 60 62 49 65 72 86
3930.0 87 89 90 94 89 93 96 98 89 91
##END=
