##TITLE=Ethane, 1-chloro-1,1-difluoro-
##JCAMP-DX=4.24
##DATA TYPE=INFRARED SPECTRUM
##ORIGIN=Sadtler Research Labs Under US-EPA Contract
##OWNER=NIST Standard Reference Data Program
##CAS REGISTRY NO=75-68-3
##MOLFORM=C 2 H 3 Cl F 2
##XUNITS=1/CM
##YUNITS=ABSORBANCE
##XFACTOR=1.0
##YFACTOR=0.000107584
##DELTAX=4.0
##FIRSTX=450.0
##LASTX=3966.0
##FIRSTY=0.016998
##MAXX=3966
##MINX=450
##MAXY=1.07584
##MINY=0
##NPOINTS=880
##XYDATA=(X++(Y..Y))
450.0 158 100 88 65 39 114 29 77 39 19
490.0 32 65 52 61 110 47 118 91 215 263
530.0 382 394 443 654 701 502 439 459 340 282
570.0 142 136 91 62 42 39 71 21 76 32
610.0 72 19 85 49 57 61 68 84 68 195
650.0 199 406 504 946 1064 1532 1586 1573 2349 1504
690.0 1410 1676 1056 622 276 208 107 83 78 55
730.0 70 51 94 45 65 58 56 48 63 66
770.0 58 64 58 56 44 55 49 53 40 53
810.0 44 45 41 56 50 67 82 93 97 119
850.0 133 129 149 155 187 240 407 707 1339 2109
890.0 2895 3195 3722 5097 3882 3141 4080 3112 1716 692
930.0 370 297 420 638 945 1266 1481 1652 1919 2645
970.0 2140 1474 1351 1237 952 650 412 277 223 198
1010.0 208 207 202 186 180 133 116 95 89 87
1050.0 71 90 69 101 110 174 227 352 520 747
1090.0 1028 1272 1594 1837 2310 2573 3034 3811 4260 4305
1130.0 4971 6362 4715 4923 5516 3633 2102 1247 1273 1650
1170.0 2227 3010 3905 4782 6042 10000 9113 7223 7899 7672
1210.0 5600 4388 3315 2840 2545 2438 2149 1523 1088 897
1250.0 670 433 263 160 111 90 79 88 89 93
1290.0 85 79 76 67 64 57 66 64 83 94
1330.0 108 112 112 114 106 106 100 121 155 250
1370.0 383 570 755 877 964 1096 1646 1497 922 932
1410.0 837 569 345 188 162 158 182 169 204 256
1450.0 211 135 141 132 100 77 50 44 34 36
1490.0 21 30 27 35 35 26 34 29 34 30
1530.0 32 31 32 30 24 38 34 37 44 53
1570.0 54 61 62 66 62 50 52 40 39 30
1610.0 29 27 30 27 25 31 25 25 26 29
1650.0 27 28 30 27 32 29 30 27 27 29
1690.0 27 28 26 21 22 23 18 17 21 23
1730.0 21 18 19 23 18 17 19 18 22 22
1770.0 17 19 23 19 19 21 22 26 19 28
1810.0 29 30 32 29 27 29 30 31 31 30
1850.0 41 45 49 51 58 56 51 42 41 39
1890.0 31 26 24 25 26 27 26 32 34 37
1930.0 37 39 40 35 34 28 24 23 19 16
1970.0 17 16 14 16 16 15 15 17 17 15
2010.0 15 16 15 14 15 18 18 18 23 19
2050.0 21 22 25 26 29 34 40 47 53 62
2090.0 70 79 77 75 79 68 63 55 51 48
2130.0 49 47 43 43 42 40 38 35 36 32
2170.0 32 32 27 28 26 27 26 23 22 17
2210.0 18 16 14 11 12 12 8 12 10 14
2250.0 11 15 13 14 12 16 18 21 19 22
2290.0 26 31 32 27 26 27 27 27 27 29
2330.0 19 28 36 37 29 35 34 36 35 24
2370.0 32 26 28 19 18 18 18 18 19 17
2410.0 16 13 14 13 10 9 9 6 4 3
2450.0 6 4 5 6 2 0 5 5 4 6
2490.0 5 4 3 9 6 9 6 6 5 5
2530.0 11 11 10 5 6 6 10 9 6 8
2570.0 14 12 12 13 17 21 23 24 26 28
2610.0 23 25 23 23 21 17 18 14 17 12
2650.0 12 14 9 8 11 8 6 9 4 6
2690.0 5 6 8 8 8 5 11 8 10 4
2730.0 10 3 8 5 4 3 3 6 4 10
2770.0 10 5 5 5 5 6 9 4 5 10
2810.0 11 9 12 11 15 16 15 19 16 19
2850.0 19 21 18 18 15 18 16 21 19 19
2890.0 26 21 16 16 17 13 14 11 11 15
2930.0 13 16 21 38 50 70 54 89 96 71
2970.0 66 69 53 35 28 19 23 34 69 110
3010.0 155 172 172 352 185 194 300 210 128 85
3050.0 75 55 32 25 16 15 10 16 12 13
3090.0 10 12 14 13 15 11 13 12 11 5
3130.0 13 13 11 11 13 15 12 15 10 11
3170.0 13 12 9 12 12 16 15 12 19 10
3210.0 14 14 13 16 9 15 12 16 14 21
3250.0 17 19 18 19 12 21 15 18 15 14
3290.0 17 12 16 16 15 14 22 16 19 23
3330.0 15 17 19 21 15 17 12 19 10 17
3370.0 11 13 11 11 17 13 15 16 10 8
3410.0 12 13 9 8 13 17 15 12 11 12
3450.0 15 12 14 12 15 16 13 21 13 13
3490.0 16 10 9 9 10 13 4 8 8 0
3530.0 10 5 10 9 12 11 14 9 13 9
3570.0 15 12 9 4 6 4 12 15 18 26
3610.0 15 6 12 11 12 5 17 11 17 11
3650.0 12 12 10 9 13 17 13 14 19 24
3690.0 19 15 11 16 13 24 11 12 9 9
3730.0 21 12 22 11 16 3 11 14 17 12
3770.0 16 15 12 22 6 14 14 19 18 21
3810.0 12 11 15 15 23 9 17 21 22 24
3850.0 15 17 13 9 14 9 22 21 14 8
3890.0 18 13 9 4 17 24 21 11 15 13
3930.0 15 8 13 19 8 18 1 10 15 13
##END=
