##TITLE=Methane, bromotrichloro-
##JCAMP-DX=4.24
##DATA TYPE=INFRARED SPECTRUM
##ORIGIN=Sadtler Research Labs Under US-EPA Contract
##OWNER=NIST Standard Reference Data Program
##CAS REGISTRY NO=75-62-7
##MOLFORM=C Br Cl 3
##XUNITS=1/CM
##YUNITS=ABSORBANCE
##XFACTOR=1.0
##YFACTOR=0.000186713
##DELTAX=4.0
##FIRSTX=450.0
##LASTX=3966.0
##FIRSTY=0.011016
##MAXX=3966
##MINX=450
##MAXY=1.86713
##MINY=0
##NPOINTS=880
##XYDATA=(X++(Y..Y))
450.0 59 77 2 15 92 17 86 54 123 59
490.0 122 91 69 56 48 58 19 53 20 42
530.0 26 45 41 31 47 26 55 23 55 31
570.0 49 42 43 39 37 71 33 38 38 57
610.0 38 56 54 52 57 45 57 49 72 77
650.0 126 149 208 213 217 203 188 130 118 146
690.0 150 213 270 387 543 854 1408 2140 3108 4109
730.0 5294 5299 4994 2028 563 426 450 636 1004 1632
770.0 2826 4473 8081 8550 10000 6520 2644 1152 468 175
810.0 103 87 74 79 76 74 66 73 68 58
850.0 57 54 52 45 50 46 48 47 51 52
890.0 54 56 58 71 69 74 73 70 61 55
930.0 51 45 45 47 51 50 59 61 73 77
970.0 78 77 78 72 60 51 46 47 46 46
1010.0 44 47 47 46 43 42 43 42 44 42
1050.0 42 40 41 42 39 41 43 43 43 42
1090.0 44 41 41 39 39 38 40 38 41 43
1130.0 43 44 49 50 55 58 59 54 48 43
1170.0 42 42 42 43 48 52 59 66 67 65
1210.0 58 51 47 47 46 46 50 51 51 53
1250.0 52 47 43 45 40 42 41 39 41 41
1290.0 42 40 40 39 39 38 36 36 37 36
1330.0 36 36 36 34 35 35 34 34 36 34
1370.0 36 34 35 33 34 33 34 32 32 34
1410.0 33 33 33 33 35 37 37 38 40 41
1450.0 40 39 35 37 38 36 39 39 43 45
1490.0 51 61 66 73 74 75 80 70 57 43
1530.0 39 38 42 46 49 56 58 63 60 64
1570.0 59 56 52 49 48 44 42 39 38 35
1610.0 32 29 31 25 27 25 28 24 24 24
1650.0 26 21 28 24 26 25 25 21 26 22
1690.0 25 25 21 23 25 26 24 25 25 24
1730.0 24 24 23 24 23 20 22 23 24 24
1770.0 23 21 23 22 22 22 23 22 21 23
1810.0 23 23 23 24 22 24 23 23 22 22
1850.0 21 23 22 21 21 19 21 19 20 19
1890.0 20 20 19 20 20 19 18 21 20 19
1930.0 20 18 19 19 18 18 19 18 16 18
1970.0 16 17 16 16 16 16 16 16 17 15
2010.0 16 16 15 16 18 17 16 17 16 15
2050.0 17 16 14 16 15 15 17 16 16 14
2090.0 17 17 17 15 14 15 15 15 14 14
2130.0 15 13 12 13 13 13 11 13 12 12
2170.0 14 12 13 14 13 13 13 12 12 11
2210.0 13 13 12 14 12 13 13 13 12 13
2250.0 11 13 11 12 12 11 13 12 12 10
2290.0 11 11 8 8 7 5 5 7 5 9
2330.0 8 3 7 9 4 8 4 6 6 6
2370.0 6 7 7 7 7 6 6 7 5 7
2410.0 6 8 6 6 5 5 5 6 4 5
2450.0 5 5 6 5 5 5 5 5 5 5
2490.0 5 6 4 4 5 5 5 4 5 4
2530.0 3 5 4 3 2 4 2 3 3 3
2570.0 3 3 3 1 1 1 1 0 0 2
2610.0 0 1 1 2 1 2 2 2 1 3
2650.0 3 3 4 2 4 2 3 4 5 3
2690.0 4 3 3 5 4 5 3 3 3 4
2730.0 3 1 3 1 3 2 2 2 1 1
2770.0 0 1 1 2 1 3 3 4 3 4
2810.0 2 3 5 3 2 1 2 3 3 2
2850.0 4 3 6 5 4 4 6 5 3 3
2890.0 3 5 4 5 6 4 6 4 5 4
2930.0 7 7 6 8 7 5 4 6 5 6
2970.0 7 6 6 5 3 4 5 5 4 3
3010.0 6 4 4 4 4 4 3 3 5 5
3050.0 5 6 4 6 4 3 4 4 4 4
3090.0 4 4 3 3 5 4 3 4 2 2
3130.0 3 1 4 1 3 4 2 5 3 4
3170.0 2 5 3 2 5 4 3 3 3 5
3210.0 3 4 6 5 5 2 4 6 5 4
3250.0 7 4 4 5 3 4 7 6 6 8
3290.0 6 6 6 4 5 5 3 6 5 3
3330.0 6 5 4 6 5 8 6 5 7 8
3370.0 8 6 4 3 7 7 5 4 3 5
3410.0 7 5 8 7 7 5 4 5 7 8
3450.0 7 7 4 6 6 8 8 7 7 6
3490.0 4 8 5 5 5 7 6 5 7 6
3530.0 5 7 5 4 3 8 7 8 5 5
3570.0 4 6 5 7 6 7 7 6 9 5
3610.0 5 7 11 6 6 13 7 6 5 6
3650.0 8 5 8 2 5 8 3 8 1 8
3690.0 3 3 7 9 4 6 7 7 3 5
3730.0 4 12 3 12 5 7 8 8 7 6
3770.0 9 6 6 8 5 8 7 1 8 6
3810.0 3 2 7 10 8 7 10 10 8 9
3850.0 4 12 4 7 11 6 10 4 10 7
3890.0 13 11 16 14 10 3 6 9 6 8
3930.0 9 6 4 8 6 11 10 9 9 1
##END=
