##TITLE=Methane, bromotrifluoro-
##JCAMP-DX=4.24
##DATA TYPE=INFRARED SPECTRUM
##ORIGIN=Sadtler Research Labs Under US-EPA Contract
##OWNER=NIST Standard Reference Data Program
##CAS REGISTRY NO=75-63-8
##MOLFORM=C Br F 3
##XUNITS=1/CM
##YUNITS=ABSORBANCE
##XFACTOR=1.0
##YFACTOR=0.000163953
##DELTAX=4.0
##FIRSTX=450.0
##LASTX=3966.0
##FIRSTY=0.000000
##MAXX=3966
##MINX=450
##MAXY=1.63953
##MINY=0
##NPOINTS=880
##XYDATA=(X++(Y..Y))
450.0 0 57 60 60 69 67 77 89 81 79
490.0 90 96 96 91 68 98 78 83 86 97
530.0 101 93 116 121 119 108 109 106 100 103
570.0 96 91 99 91 95 103 92 85 88 87
610.0 95 83 94 88 90 90 87 97 85 83
650.0 80 86 88 94 92 97 105 108 119 126
690.0 129 131 129 105 121 102 107 111 119 124
730.0 126 143 118 199 231 405 431 536 532 562
770.0 534 504 276 178 85 107 80 87 78 89
810.0 95 77 94 81 93 78 101 89 92 97
850.0 98 97 85 101 82 83 73 89 77 78
890.0 78 80 83 81 89 74 88 83 88 80
930.0 86 82 79 81 77 83 73 87 81 85
970.0 79 87 86 79 87 77 86 73 86 70
1010.0 76 78 82 83 87 105 104 132 149 212
1050.0 269 466 835 1552 2704 3956 5016 5367 6547 5692
1090.0 6748 4512 1915 1039 1136 1025 1018 1127 1117 1114
1130.0 999 414 159 93 101 104 106 131 155 198
1170.0 252 334 408 647 1210 2282 4013 6280 8660 10000
1210.0 8047 4479 2624 1136 443 181 118 103 98 106
1250.0 95 102 96 103 97 106 107 113 119 125
1290.0 137 135 145 142 144 133 130 123 111 105
1330.0 98 92 87 87 79 81 79 82 81 80
1370.0 88 83 88 83 87 78 79 79 80 79
1410.0 81 86 83 87 86 91 85 78 76 77
1450.0 73 75 76 71 80 74 78 75 80 75
1490.0 80 79 80 83 80 83 79 82 75 76
1530.0 73 77 73 74 75 75 74 71 72 72
1570.0 74 73 72 73 70 72 72 75 74 76
1610.0 76 76 74 77 75 76 75 77 75 74
1650.0 74 73 71 74 72 73 71 74 72 76
1690.0 71 73 72 73 72 74 75 74 74 72
1730.0 77 76 78 76 79 81 75 76 73 72
1770.0 69 70 65 67 61 66 67 70 71 69
1810.0 69 71 72 71 75 77 77 77 80 79
1850.0 81 77 71 70 70 72 69 71 70 71
1890.0 69 71 69 68 69 67 68 67 69 69
1930.0 67 69 69 72 72 74 76 80 82 81
1970.0 76 71 67 67 67 67 66 66 66 64
2010.0 66 66 66 65 66 64 65 68 66 66
2050.0 65 66 67 66 67 65 66 64 67 63
2090.0 65 65 65 64 63 64 62 65 65 63
2130.0 65 65 66 66 68 68 71 70 71 69
2170.0 69 66 64 63 63 63 64 65 64 66
2210.0 64 65 62 62 63 63 63 63 65 66
2250.0 68 69 73 80 89 98 109 119 125 126
2290.0 108 96 85 76 74 80 81 83 86 85
2330.0 81 86 83 82 87 78 82 87 86 79
2370.0 83 85 83 83 88 90 91 91 89 88
2410.0 83 76 74 70 73 70 71 69 68 68
2450.0 68 68 66 62 61 63 61 60 63 61
2490.0 61 61 60 59 61 61 62 60 61 60
2530.0 59 59 60 60 58 60 60 58 59 61
2570.0 59 60 59 57 60 58 58 58 58 58
2610.0 58 59 58 59 59 58 57 58 59 56
2650.0 57 59 57 58 57 58 60 57 58 58
2690.0 58 59 58 59 55 57 56 57 58 55
2730.0 58 56 56 56 57 56 56 55 58 58
2770.0 56 58 56 56 58 56 57 58 56 56
2810.0 57 57 55 55 59 58 57 55 56 56
2850.0 55 57 57 55 56 57 56 58 58 56
2890.0 55 59 57 57 58 56 58 56 56 56
2930.0 55 56 59 56 55 57 56 58 55 59
2970.0 56 58 57 56 57 58 60 59 57 57
3010.0 59 59 59 57 55 55 57 56 58 57
3050.0 57 58 57 60 57 58 59 58 57 59
3090.0 58 55 58 57 56 60 57 56 57 59
3130.0 58 58 57 59 57 58 56 56 60 59
3170.0 58 56 58 58 59 57 60 56 60 60
3210.0 57 58 58 59 60 56 56 58 59 59
3250.0 59 57 56 58 57 57 56 57 59 56
3290.0 58 59 59 60 60 58 57 60 58 58
3330.0 58 57 59 57 59 60 63 61 59 60
3370.0 60 59 60 59 57 57 59 59 57 58
3410.0 64 60 58 59 61 60 61 58 55 59
3450.0 63 60 59 65 61 57 61 59 57 61
3490.0 62 61 57 61 61 60 58 59 57 59
3530.0 59 57 60 60 58 64 63 65 63 58
3570.0 60 63 62 65 61 59 55 66 58 65
3610.0 61 62 63 62 59 58 62 65 59 62
3650.0 57 59 60 58 68 61 64 62 62 57
3690.0 60 58 58 61 63 67 64 62 63 63
3730.0 61 59 59 70 55 60 61 64 71 59
3770.0 62 55 62 67 65 60 62 55 66 60
3810.0 64 61 59 66 63 64 65 66 67 70
3850.0 63 60 64 60 66 59 61 59 63 65
3890.0 65 57 60 55 60 61 65 63 60 65
3930.0 64 67 57 61 58 63 62 70 62 61
##END=
