##TITLE=2-Propanol, 2-methyl-
##JCAMP-DX=4.24
##DATA TYPE=INFRARED SPECTRUM
##ORIGIN=Sadtler Research Labs Under US-EPA Contract
##OWNER=NIST Standard Reference Data Program
##CAS REGISTRY NO=75-65-0
##MOLFORM=C 4 H 10 O
##XUNITS=1/CM
##YUNITS=ABSORBANCE
##XFACTOR=1.0
##YFACTOR=0.000141583
##DELTAX=4.0
##FIRSTX=450.0
##LASTX=3966.0
##FIRSTY=0.019963
##MAXX=3966
##MINX=450
##MAXY=1.41583
##MINY=0
##NPOINTS=880
##XYDATA=(X++(Y..Y))
450.0 141 242 394 325 427 446 384 419 358 342
490.0 176 267 238 169 122 126 71 97 71 66
530.0 50 63 58 58 55 67 58 57 97 76
570.0 41 64 78 65 92 59 84 92 85 98
610.0 108 102 112 101 113 97 137 105 121 118
650.0 119 121 97 129 99 134 83 126 90 118
690.0 102 99 95 92 100 88 100 113 132 144
730.0 176 187 181 192 337 267 152 178 196 170
770.0 140 118 98 105 113 152 172 191 212 212
810.0 224 228 239 214 224 232 207 192 132 136
850.0 101 115 99 116 115 137 175 211 326 457
890.0 696 932 1229 1436 1624 1849 2402 3071 2297 1901
930.0 2213 2171 1929 1565 1309 1220 1158 1105 997 1007
970.0 921 783 576 466 374 333 331 337 365 373
1010.0 419 451 409 404 399 399 392 406 429 464
1050.0 532 589 672 719 814 889 935 930 949 971
1090.0 1004 1004 1018 1037 1125 1264 1469 1713 1980 2261
1130.0 2485 2754 3089 3332 3056 2971 2920 2744 2504 2224
1170.0 2008 1843 1793 1784 1852 1951 2124 2340 2602 2903
1210.0 3124 3330 3104 2836 2766 2524 2148 1812 1582 1445
1250.0 1364 1291 1209 1139 1077 1002 908 826 760 710
1290.0 688 694 718 773 829 920 964 1034 1066 1174
1330.0 1271 1229 1180 1254 1409 1653 1990 2311 2537 2744
1370.0 3688 3970 3184 3145 3092 2614 2235 1633 1190 955
1410.0 767 613 503 437 395 402 417 469 502 567
1450.0 617 689 751 794 813 910 898 719 630 606
1490.0 544 493 396 327 252 200 154 122 104 75
1530.0 77 61 66 52 54 46 43 38 39 24
1570.0 22 18 16 3 5 3 0 11 7 21
1610.0 14 40 26 42 29 48 42 49 50 56
1650.0 56 69 66 63 65 63 59 61 51 54
1690.0 45 42 50 41 50 40 55 50 55 53
1730.0 59 63 61 63 59 64 63 57 58 51
1770.0 50 48 41 44 38 44 35 42 40 49
1810.0 49 55 60 57 67 62 61 51 49 44
1850.0 41 36 34 29 27 27 33 26 29 23
1890.0 31 19 26 22 21 22 16 25 12 18
1930.0 6 11 8 11 6 10 7 7 6 8
1970.0 4 10 3 10 6 3 14 10 22 8
2010.0 22 11 22 14 19 22 22 20 22 25
2050.0 32 33 32 27 27 22 20 25 21 29
2090.0 28 36 30 43 36 48 48 52 51 52
2130.0 53 52 49 47 44 39 36 39 44 41
2170.0 41 35 39 26 32 22 29 21 22 21
2210.0 20 23 17 22 18 22 24 27 28 32
2250.0 35 41 45 48 48 61 59 71 66 70
2290.0 65 61 58 51 45 36 37 27 31 27
2330.0 28 34 35 26 59 34 25 41 79 86
2370.0 122 110 105 90 81 79 68 73 61 73
2410.0 64 67 66 67 67 71 70 72 70 78
2450.0 68 76 75 81 74 81 78 80 81 74
2490.0 77 71 79 73 80 73 71 70 69 68
2530.0 71 63 71 65 72 64 61 62 62 68
2570.0 64 81 79 97 90 109 106 112 117 120
2610.0 127 134 137 143 142 147 147 159 149 146
2650.0 148 161 171 163 164 140 147 133 137 138
2690.0 156 163 168 179 184 190 194 195 198 210
2730.0 210 215 217 226 208 228 212 228 204 219
2770.0 204 215 213 223 233 225 242 249 258 265
2810.0 275 288 318 339 351 373 408 424 496 535
2850.0 651 756 940 1122 1276 1436 1592 1873 2069 2184
2890.0 2289 2424 2392 2350 2349 2416 2484 2544 2529 2634
2930.0 2729 2865 3036 3327 3680 4139 4788 5619 6481 7470
2970.0 8334 8766 9669 10000 8536 6849 5867 5143 4046 2846
3010.0 1800 1072 643 356 249 159 134 87 84 84
3050.0 59 68 55 78 46 64 68 73 60 75
3090.0 64 65 78 92 65 83 66 83 74 73
3130.0 88 77 99 76 93 72 108 82 116 102
3170.0 116 123 126 117 123 110 115 118 120 99
3210.0 118 114 111 118 109 122 99 134 81 85
3250.0 58 71 35 35 45 26 27 17 30 41
3290.0 37 43 42 61 72 54 64 38 83 44
3330.0 44 36 74 36 42 42 31 50 53 53
3370.0 55 68 47 68 71 65 54 71 64 87
3410.0 83 110 87 115 100 116 114 116 127 109
3450.0 117 98 110 109 102 92 87 71 81 65
3490.0 88 75 91 67 99 67 95 74 74 82
3530.0 96 69 90 109 82 93 87 99 80 96
3570.0 92 81 87 105 102 127 90 115 118 138
3610.0 172 216 263 347 452 527 615 677 854 998
3650.0 823 731 765 716 654 539 473 373 311 236
3690.0 208 167 143 129 121 130 110 135 97 127
3730.0 92 130 108 107 123 114 134 99 116 130
3770.0 121 135 132 128 135 145 129 131 156 146
3810.0 141 162 174 155 174 146 163 175 153 148
3850.0 138 183 187 173 197 175 155 172 184 174
3890.0 165 182 157 176 168 181 147 154 160 138
3930.0 186 149 160 129 145 171 150 170 195 182
##END=
