##TITLE=2-Propanamine, 2-methyl-
##JCAMP-DX=4.24
##DATA TYPE=INFRARED SPECTRUM
##ORIGIN=Sadtler Research Labs Under US-EPA Contract
##OWNER=NIST Standard Reference Data Program
##CAS REGISTRY NO=75-64-9
##MOLFORM=C 4 H 11 N
##SOURCE REFERENCE=No.223434 (NIST/EPA/NIH MS Database)
##XUNITS=1/CM
##YUNITS=ABSORBANCE
##XFACTOR=1.0
##YFACTOR=0.000053076
##DELTAX=4.0
##FIRSTX=450.0
##LASTX=3966.0
##FIRSTY=0.019107
##MAXX=3966
##MINX=450
##MAXY=0.53076
##MINY=0
##NPOINTS=880
##XYDATA=(X++(Y..Y))
450.0 360 405 376 348 323 273 219 175 124 88
490.0 84 68 70 40 30 39 27 45 43 38
530.0 50 63 70 61 78 82 89 89 80 93
570.0 86 92 79 116 115 106 116 119 103 102
610.0 131 142 131 132 150 152 164 155 178 175
650.0 187 241 228 240 249 251 308 296 327 327
690.0 347 354 404 420 439 471 501 570 620 669
730.0 680 715 803 895 687 776 867 897 934 1027
770.0 1183 1411 1752 2135 2637 3152 3631 3900 3985 4141
810.0 5076 4607 3406 3180 2911 2382 1793 1226 874 630
850.0 506 419 359 319 289 252 232 212 193 172
890.0 173 173 156 152 154 164 175 190 210 224
930.0 232 251 281 280 181 168 185 153 119 96
970.0 63 61 55 60 61 52 72 90 85 113
1010.0 125 152 167 154 175 211 217 172 152 152
1050.0 132 121 92 72 56 52 36 47 40 55
1090.0 75 76 96 126 147 163 132 146 155 171
1130.0 160 134 129 119 115 118 146 167 187 207
1170.0 240 282 340 395 464 544 615 736 856 1003
1210.0 1174 1387 1747 1944 2095 2177 2294 2303 2123 1839
1250.0 1489 1149 954 765 565 437 330 272 236 219
1290.0 220 210 215 230 196 184 173 165 144 115
1330.0 119 163 230 407 658 1029 1349 1514 1524 2355
1370.0 2831 2027 1699 1872 1585 1157 989 399 276 293
1410.0 294 224 145 139 149 179 210 256 376 473
1450.0 584 657 643 700 762 982 911 771 732 691
1490.0 591 551 474 422 319 271 257 210 177 193
1530.0 202 183 193 126 169 214 197 151 181 226
1570.0 211 243 236 290 311 370 420 492 584 684
1610.0 778 847 881 952 1023 965 856 743 673 553
1650.0 453 293 263 207 174 119 114 91 96 33
1690.0 55 77 37 8 25 59 45 18 60 63
1730.0 57 34 55 46 58 40 49 38 29 39
1770.0 18 0 23 16 10 17 9 20 13 23
1810.0 22 22 22 34 22 19 30 22 19 10
1850.0 24 35 25 24 24 6 24 16 27 26
1890.0 9 17 17 17 18 26 18 8 17 19
1930.0 8 28 29 18 8 16 19 19 19 10
1970.0 10 30 29 28 21 25 20 22 27 31
2010.0 21 30 31 31 31 31 41 42 34 37
2050.0 43 31 44 37 35 34 34 35 24 36
2090.0 24 36 36 36 37 42 46 36 37 27
2130.0 27 28 28 19 25 19 22 24 20 20
2170.0 20 19 19 19 21 20 20 20 20 20
2210.0 20 20 21 21 21 21 21 21 20 20
2250.0 30 30 30 29 29 41 41 41 41 41
2290.0 41 41 30 30 29 27 21 21 20 20
2330.0 15 12 12 9 21 21 9 10 13 10
2370.0 21 21 20 30 29 29 42 40 29 30
2410.0 30 30 30 30 30 30 30 30 30 30
2450.0 20 21 21 29 30 28 31 23 30 30
2490.0 30 30 30 30 33 33 31 31 31 31
2530.0 41 33 43 43 45 40 43 43 43 43
2570.0 44 44 44 44 44 44 44 44 48 56
2610.0 56 56 55 56 56 56 56 56 52 47
2650.0 47 58 58 58 58 58 67 67 78 77
2690.0 89 80 87 92 99 104 106 119 126 136
2730.0 147 127 139 139 137 137 134 113 104 101
2770.0 101 101 110 110 111 121 141 153 162 179
2810.0 193 209 231 254 283 294 333 373 414 497
2850.0 623 822 1064 1299 1486 1710 2057 2371 2311 2258
2890.0 2354 2473 2513 2520 2521 2487 2519 2646 2777 2906
2930.0 3096 3411 3979 4817 5638 6415 7119 8001 8480 10000
2970.0 9167 7425 7402 7785 6427 4217 3143 2304 1573 984
3010.0 577 332 203 151 121 111 106 91 91 91
3050.0 83 84 83 84 84 84 86 93 93 93
3090.0 94 94 94 94 94 96 96 97 105 105
3130.0 106 106 111 115 116 123 125 125 135 145
3170.0 145 146 148 155 156 146 146 146 147 147
3210.0 147 148 148 157 158 158 158 148 137 134
3250.0 124 121 103 94 82 82 73 82 82 82
3290.0 97 105 128 141 167 179 191 197 228 277
3330.0 237 199 190 179 160 129 115 99 85 79
3370.0 85 78 77 86 87 97 98 86 98 98
3410.0 98 91 88 89 79 79 70 70 60 60
3450.0 60 61 61 49 56 63 51 51 51 51
3490.0 52 54 55 51 52 52 55 55 55 43
3530.0 55 55 55 55 44 46 44 56 52 43
3570.0 29 46 57 56 50 35 47 46 47 48
3610.0 38 38 46 33 41 16 47 48 49 49
3650.0 21 40 49 60 60 35 38 35 50 52
3690.0 41 57 61 50 70 50 52 61 59 52
3730.0 52 37 39 56 33 44 42 64 73 73
3770.0 73 73 73 73 73 72 79 75 73 76
3810.0 76 76 76 76 76 76 76 76 77 77
3850.0 77 65 77 79 78 78 78 88 78 78
3890.0 78 78 90 84 88 88 88 80 89 89
3930.0 89 82 89 90 90 96 27 33 33 33
##END=
