##TITLE=Trichloromonofluoromethane
##JCAMP-DX=4.24
##DATA TYPE=INFRARED SPECTRUM
##ORIGIN=Sadtler Research Labs Under US-EPA Contract
##OWNER=NIST Standard Reference Data Program
##CAS REGISTRY NO=75-69-4
##MOLFORM=C Cl 3 F
##XUNITS=1/CM
##YUNITS=ABSORBANCE
##XFACTOR=1.0
##YFACTOR=0.000049799
##DELTAX=4.0
##FIRSTX=450.0
##LASTX=3966.0
##FIRSTY=0.006623
##MAXX=3966
##MINX=450
##MAXY=0.49799
##MINY=0
##NPOINTS=880
##XYDATA=(X++(Y..Y))
450.0 133 133 123 82 6 70 18 51 83 63
490.0 75 92 67 93 119 111 108 35 70 70
530.0 102 127 138 118 102 85 94 118 71 69
570.0 70 89 32 72 86 98 98 108 104 100
610.0 83 71 90 81 69 62 94 84 65 96
650.0 94 69 89 74 98 96 80 76 63 81
690.0 74 83 73 62 53 84 75 81 78 87
730.0 83 94 99 119 112 104 89 87 103 85
770.0 96 135 149 149 179 198 211 223 218 265
810.0 307 454 632 991 1603 2636 4197 6597 9436 10000
850.0 7905 4536 1851 827 314 168 104 103 85 82
890.0 110 89 108 90 96 93 123 170 257 345
930.0 369 397 344 290 195 137 84 77 71 78
970.0 69 57 67 57 65 63 83 66 72 70
1010.0 76 75 64 65 74 96 100 127 141 220
1050.0 305 502 774 1140 1518 1781 1977 2291 2832 2360
1090.0 1377 1240 999 711 441 216 124 80 78 61
1130.0 74 66 73 65 68 63 56 62 61 67
1170.0 61 77 72 79 85 101 110 103 113 113
1210.0 112 120 125 104 114 122 120 105 91 82
1250.0 76 74 65 65 59 58 60 60 61 58
1290.0 52 56 59 63 65 61 62 60 65 67
1330.0 72 74 70 79 96 102 101 106 115 128
1370.0 133 136 132 127 110 88 76 63 63 62
1410.0 62 66 60 63 61 66 59 62 65 68
1450.0 59 63 64 61 66 58 59 54 59 53
1490.0 48 49 53 57 56 55 49 49 48 50
1530.0 48 48 51 54 47 53 50 61 56 55
1570.0 55 58 52 51 47 44 47 50 44 44
1610.0 48 45 49 54 53 50 49 53 52 50
1650.0 55 59 59 62 63 62 68 68 63 78
1690.0 72 76 87 88 93 99 104 115 120 119
1730.0 124 129 139 131 129 127 122 106 94 89
1770.0 75 74 65 58 54 57 51 50 51 47
1810.0 41 43 39 40 47 39 39 40 43 38
1850.0 34 39 41 40 37 36 40 42 38 38
1890.0 36 37 38 37 40 43 34 37 36 38
1930.0 36 37 40 34 31 40 36 36 32 39
1970.0 31 38 38 38 39 33 38 37 38 35
2010.0 38 34 36 39 36 37 37 31 30 33
2050.0 33 30 33 37 29 39 34 38 30 34
2090.0 35 35 39 36 37 39 40 47 48 54
2130.0 58 65 70 73 66 58 54 46 42 43
2170.0 37 37 30 30 32 30 29 31 31 29
2210.0 31 28 29 29 27 27 28 29 27 27
2250.0 28 29 27 29 23 31 30 29 24 29
2290.0 28 34 34 37 39 38 47 43 38 36
2330.0 41 46 46 47 40 44 59 53 38 28
2370.0 15 27 24 25 18 25 22 20 24 23
2410.0 23 19 27 21 20 22 21 21 17 21
2450.0 21 21 23 17 21 22 19 18 21 22
2490.0 22 21 19 23 23 18 19 22 23 16
2530.0 18 17 18 18 12 21 16 15 15 19
2570.0 13 19 20 18 12 13 15 10 10 9
2610.0 12 17 11 13 8 14 17 15 11 15
2650.0 15 10 10 7 12 11 10 8 8 7
2690.0 5 13 10 10 6 9 7 9 9 9
2730.0 14 8 11 9 12 6 7 8 10 9
2770.0 8 2 7 7 4 7 4 1 4 6
2810.0 13 11 5 8 8 12 15 9 11 5
2850.0 13 13 13 8 13 12 9 11 16 12
2890.0 13 6 7 8 10 13 16 18 17 12
2930.0 17 18 12 21 11 24 16 21 18 21
2970.0 32 23 18 21 16 15 16 22 19 22
3010.0 19 15 20 19 17 21 19 14 18 15
3050.0 16 21 16 17 16 15 17 10 21 23
3090.0 20 13 17 10 6 12 16 10 9 9
3130.0 13 15 12 13 14 7 10 8 9 13
3170.0 11 11 16 18 21 9 12 13 3 10
3210.0 24 8 7 18 14 12 15 12 16 16
3250.0 13 11 8 10 12 6 28 17 12 10
3290.0 14 16 20 13 13 16 7 15 14 16
3330.0 4 17 17 24 15 13 15 12 14 13
3370.0 26 16 17 19 16 27 11 20 17 17
3410.0 15 15 1 17 23 21 10 19 23 10
3450.0 19 17 21 12 20 23 27 9 27 18
3490.0 13 16 26 25 17 7 20 19 9 25
3530.0 24 22 21 10 13 18 29 17 17 10
3570.0 10 32 28 26 11 8 19 20 24 13
3610.0 12 21 16 0 10 16 20 22 21 20
3650.0 32 14 16 13 32 2 18 10 15 22
3690.0 29 19 22 21 13 24 15 24 6 8
3730.0 28 33 16 22 30 29 24 34 35 20
3770.0 16 26 22 20 29 25 15 28 26 19
3810.0 3 24 39 35 19 16 30 28 18 18
3850.0 16 18 9 19 11 28 42 35 39 29
3890.0 20 8 26 5 30 44 26 25 18 8
3930.0 22 28 32 17 38 16 34 48 36 12
##END=
