##TITLE=Carbon tetrafluoride
##JCAMP-DX=4.24
##DATA TYPE=INFRARED SPECTRUM
##ORIGIN=Sadtler Research Labs Under US-EPA Contract
##OWNER=NIST Standard Reference Data Program
##CAS REGISTRY NO=75-73-0
##MOLFORM=C F 4
##XUNITS=1/CM
##YUNITS=ABSORBANCE
##XFACTOR=1.0
##YFACTOR=0.000089767
##DELTAX=4.0
##FIRSTX=450.0
##LASTX=3966.0
##FIRSTY=0.001526
##MAXX=3966
##MINX=450
##MAXY=0.89767
##MINY=0
##NPOINTS=880
##XYDATA=(X++(Y..Y))
450.0 17 22 29 23 35 38 30 23 23 23
490.0 28 23 22 23 18 23 22 22 21 14
530.0 23 7 23 33 23 24 28 22 17 22
570.0 22 21 36 30 35 43 24 40 55 49
610.0 40 50 50 43 43 144 68 50 43 62
650.0 58 55 71 54 47 30 46 26 21 29
690.0 18 20 23 34 30 37 31 19 30 26
730.0 26 30 29 31 19 13 31 28 23 28
770.0 31 26 31 27 20 20 26 32 24 23
810.0 32 34 26 30 20 26 19 26 28 32
850.0 23 27 23 35 29 23 23 31 23 23
890.0 24 23 20 30 30 30 29 29 29 29
930.0 26 29 24 23 30 20 28 28 31 26
970.0 22 24 28 30 22 23 29 23 22 19
1010.0 19 19 19 19 19 22 21 22 22 23
1050.0 23 29 22 22 26 22 26 21 18 21
1090.0 23 27 22 28 28 21 22 26 23 24
1130.0 21 28 28 21 21 22 22 28 28 22
1170.0 21 21 20 18 21 16 16 16 17 17
1210.0 21 20 28 33 40 69 118 195 236 239
1250.0 356 589 801 1136 1931 3052 5789 10000 8917 4776
1290.0 822 194 70 28 20 14 15 13 19 20
1330.0 23 19 15 23 21 19 18 18 17 17
1370.0 19 18 18 18 17 18 17 15 17 17
1410.0 13 18 10 17 21 22 21 18 16 21
1450.0 17 20 11 16 16 22 15 16 17 22
1490.0 15 28 24 22 31 21 35 36 30 27
1530.0 26 37 79 35 18 27 32 28 31 34
1570.0 27 20 20 21 16 15 21 16 17 15
1610.0 22 16 14 16 18 15 15 20 15 19
1650.0 17 13 14 14 15 16 17 16 18 17
1690.0 20 19 16 13 17 20 18 14 18 15
1730.0 17 17 18 15 17 12 14 14 13 14
1770.0 7 13 11 7 11 12 7 14 13 15
1810.0 13 19 15 14 13 12 14 17 18 12
1850.0 13 15 18 18 19 11 15 17 20 18
1890.0 18 18 18 19 19 19 19 18 17 19
1930.0 19 19 19 17 19 16 13 19 14 13
1970.0 12 18 13 12 19 12 12 12 12 12
2010.0 12 12 12 12 13 12 12 12 12 16
2050.0 13 13 13 11 12 17 11 12 11 11
2090.0 11 17 12 12 15 11 16 18 17 11
2130.0 18 17 17 17 17 17 17 17 19 21
2170.0 33 44 51 68 69 32 16 11 14 11
2210.0 13 9 13 11 10 10 16 10 11 9
2250.0 10 15 14 14 12 12 13 14 5 6
2290.0 5 9 12 5 7 15 11 15 20 22
2330.0 23 23 30 33 21 19 33 29 32 12
2370.0 28 22 16 14 10 14 9 14 9 9
2410.0 10 10 7 11 6 12 13 13 12 9
2450.0 9 15 14 9 9 7 14 14 13 10
2490.0 14 13 14 13 13 14 13 14 15 14
2530.0 12 17 19 19 18 14 19 19 18 14
2570.0 19 19 18 18 18 19 19 13 13 14
2610.0 14 14 6 14 13 13 10 13 13 11
2650.0 7 7 13 12 6 7 14 7 13 7
2690.0 14 11 12 11 6 6 13 12 6 7
2730.0 13 12 12 9 9 6 6 10 7 6
2770.0 6 7 7 7 6 6 6 6 12 10
2810.0 6 6 7 11 12 6 6 7 5 6
2850.0 7 4 11 9 9 6 5 7 11 5
2890.0 5 5 5 5 5 12 5 5 10 6
2930.0 6 12 5 5 5 6 11 12 5 10
2970.0 9 9 10 5 5 6 6 12 6 6
3010.0 5 5 11 9 2 6 5 5 7 6
3050.0 6 6 5 12 5 11 11 7 9 13
3090.0 10 4 4 5 5 12 5 4 4 5
3130.0 10 5 9 3 6 6 4 5 12 12
3170.0 5 4 10 3 5 4 4 6 12 9
3210.0 5 5 10 11 4 1 5 1 4 2
3250.0 3 0 0 4 0 5 4 5 5 4
3290.0 11 5 1 4 4 4 4 5 5 4
3330.0 0 5 5 11 2 0 2 9 3 3
3370.0 5 4 10 4 4 4 0 11 3 1
3410.0 14 5 3 0 0 0 10 4 3 10
3450.0 5 3 11 10 4 3 9 9 3 3
3490.0 9 9 10 0 6 1 4 1 12 0
3530.0 1 6 9 9 4 10 9 5 1 6
3570.0 5 3 1 10 4 0 4 4 3 16
3610.0 4 9 11 7 11 6 3 9 11 4
3650.0 0 3 4 3 9 7 5 2 4 7
3690.0 3 5 4 3 3 9 10 10 3 1
3730.0 5 7 5 1 3 5 0 10 9 4
3770.0 5 0 3 3 3 0 1 2 0 4
3810.0 4 2 0 4 3 7 4 3 4 10
3850.0 7 4 4 2 5 0 0 2 0 1
3890.0 3 2 1 0 0 0 3 4 3 2
3930.0 0 0 0 0 2 2 2 2 2 9
##END=
