##TITLE=Dichlorodifluoromethane
##JCAMP-DX=4.24
##DATA TYPE=INFRARED SPECTRUM
##ORIGIN=Sadtler Research Labs Under US-EPA Contract
##OWNER=NIST Standard Reference Data Program
##CAS REGISTRY NO=75-71-8
##MOLFORM=C Cl 2 F 2
##XUNITS=1/CM
##YUNITS=ABSORBANCE
##XFACTOR=1.0
##YFACTOR=0.000118466
##DELTAX=4.0
##FIRSTX=450.0
##LASTX=3966.0
##FIRSTY=0.001185
##MAXX=3966
##MINX=450
##MAXY=1.18466
##MINY=0
##NPOINTS=880
##XYDATA=(X++(Y..Y))
450.0 10 43 66 157 0 34 37 70 58 60
490.0 42 78 77 38 63 60 62 33 67 46
530.0 33 44 51 51 44 58 39 43 54 57
570.0 25 42 34 35 35 40 54 30 44 42
610.0 57 47 46 45 35 58 82 84 80 128
650.0 185 243 276 328 378 365 314 297 255 162
690.0 102 71 48 43 49 44 49 55 58 55
730.0 49 50 44 48 52 49 47 45 55 48
770.0 49 38 44 32 42 32 30 42 42 39
810.0 27 47 56 69 70 88 91 135 176 220
850.0 323 475 702 985 1338 1721 2080 2407 2544 2586
890.0 2642 2380 2378 3151 4478 6474 7190 8172 10000 8019
930.0 8136 6882 2867 774 160 57 48 47 49 45
970.0 45 44 40 46 40 40 34 41 34 39
1010.0 38 36 36 38 49 39 51 50 62 63
1050.0 97 128 202 330 555 956 1578 2516 3660 4992
1090.0 6074 7099 7817 8417 6953 6290 5370 3541 2311 1773
1130.0 1850 2178 3016 3901 4810 4853 4880 6386 4652 2645
1170.0 2692 2039 1360 709 344 172 119 118 87 100
1210.0 78 89 75 96 96 105 114 141 136 90
1250.0 84 76 62 40 38 31 31 32 29 34
1290.0 31 38 35 36 36 43 39 44 46 45
1330.0 48 49 56 50 57 55 61 56 60 62
1370.0 68 70 68 68 64 55 44 40 34 29
1410.0 33 29 24 23 26 29 28 17 21 23
1450.0 24 25 21 24 30 26 31 30 28 28
1490.0 28 25 26 24 27 22 33 29 29 27
1530.0 26 37 26 32 23 25 21 32 29 37
1570.0 35 43 42 45 49 48 44 44 36 26
1610.0 27 23 25 23 19 28 21 28 23 26
1650.0 23 24 16 24 22 18 21 18 19 24
1690.0 21 22 24 22 22 24 23 24 21 24
1730.0 24 23 29 32 36 37 35 39 36 38
1770.0 30 34 33 30 25 34 30 35 32 32
1810.0 32 33 29 32 31 30 32 31 33 24
1850.0 28 23 23 18 18 17 15 22 17 21
1890.0 18 22 16 16 16 17 18 15 16 16
1930.0 16 17 17 18 18 19 19 17 16 18
1970.0 15 14 17 16 15 17 16 16 17 17
2010.0 20 16 20 15 18 14 18 16 15 16
2050.0 17 15 14 14 13 15 12 15 15 13
2090.0 13 13 13 13 13 11 14 14 16 14
2130.0 13 15 14 16 14 17 15 19 19 27
2170.0 29 33 41 44 52 56 60 55 55 54
2210.0 44 48 52 64 72 84 84 95 96 100
2250.0 96 61 47 46 29 23 21 22 24 25
2290.0 30 38 45 47 52 59 54 48 41 36
2330.0 29 24 14 12 15 23 23 16 19 22
2370.0 18 18 19 20 18 19 16 16 11 15
2410.0 15 15 13 12 10 11 11 12 11 8
2450.0 10 9 11 11 8 10 10 9 12 10
2490.0 8 8 8 11 10 8 10 10 7 8
2530.0 12 9 11 8 9 8 10 9 8 8
2570.0 5 9 5 9 6 10 8 9 6 6
2610.0 9 7 7 9 7 7 8 11 6 5
2650.0 4 5 8 5 6 6 7 8 9 5
2690.0 4 6 8 6 5 6 5 7 7 8
2730.0 8 6 6 4 5 2 5 5 7 6
2770.0 4 6 4 4 7 2 7 6 8 6
2810.0 5 5 8 6 5 8 8 6 6 8
2850.0 5 7 7 7 9 6 7 7 6 6
2890.0 7 5 6 8 10 10 8 5 9 8
2930.0 10 8 5 9 9 7 6 10 7 6
2970.0 6 8 11 7 10 10 9 10 8 10
3010.0 8 9 10 12 9 12 9 8 8 9
3050.0 10 11 11 12 11 8 11 12 8 12
3090.0 11 10 8 13 12 10 11 11 8 14
3130.0 13 11 11 10 14 11 12 13 14 12
3170.0 11 12 6 15 13 12 12 9 14 15
3210.0 14 13 12 15 15 10 11 11 13 14
3250.0 14 13 12 14 17 13 13 17 11 12
3290.0 14 18 19 13 19 16 14 15 12 16
3330.0 15 10 13 15 17 18 15 17 18 21
3370.0 17 20 15 15 16 16 15 16 18 18
3410.0 17 15 15 16 17 16 17 19 22 21
3450.0 18 17 15 17 15 18 21 19 12 18
3490.0 15 14 14 18 16 11 18 25 11 16
3530.0 19 19 9 16 15 18 14 21 17 10
3570.0 18 21 20 17 8 12 3 21 13 28
3610.0 10 25 21 19 21 2 19 16 18 25
3650.0 14 21 22 18 34 16 21 11 19 19
3690.0 20 18 13 17 23 21 22 20 16 20
3730.0 22 21 15 27 2 21 13 26 21 18
3770.0 26 29 25 22 24 19 30 15 30 18
3810.0 29 31 26 14 23 29 34 29 27 25
3850.0 31 13 18 22 31 18 17 24 30 20
3890.0 28 22 30 13 24 35 29 15 25 26
3930.0 11 23 21 33 24 37 20 25 15 19
##END=
