##TITLE=Silane, tetramethyl-
##JCAMP-DX=4.24
##DATA TYPE=INFRARED SPECTRUM
##ORIGIN=Sadtler Research Labs Under US-EPA Contract
##OWNER=NIST Standard Reference Data Program
##CAS REGISTRY NO=75-76-3
##MOLFORM=C 4 H 12 Si
##XUNITS=1/CM
##YUNITS=ABSORBANCE
##XFACTOR=1.0
##YFACTOR=0.000160074
##DELTAX=4.0
##FIRSTX=450.0
##LASTX=3966.0
##FIRSTY=0.000480
##MAXX=3966
##MINX=450
##MAXY=1.60074
##MINY=0
##NPOINTS=880
##XYDATA=(X++(Y..Y))
450.0 3 21 24 40 32 6 8 29 19 22
490.0 27 31 25 25 34 26 30 22 37 27
530.0 33 32 31 29 45 59 42 35 24 31
570.0 28 42 23 32 33 31 34 23 41 40
610.0 47 39 58 56 54 54 77 89 107 144
650.0 219 344 249 275 349 438 506 588 804 967
690.0 1298 1661 1420 1260 1334 1117 913 915 1230 1988
730.0 3189 5085 7117 10000 9268 8363 4096 2035 1079 620
770.0 412 299 248 215 214 242 276 292 310 347
810.0 390 451 511 598 684 824 983 1246 1628 2212
850.0 3118 4538 6469 7831 9086 8873 7260 5733 4036 2844
890.0 2344 2207 2474 3201 4516 6920 7499 4550 2745 1665
930.0 956 521 290 181 135 111 101 88 78 73
970.0 68 62 58 59 56 58 55 57 51 58
1010.0 52 52 44 44 46 39 40 36 37 32
1050.0 39 33 32 31 33 29 28 35 29 39
1090.0 42 55 61 72 69 60 45 33 30 20
1130.0 25 18 24 17 22 23 20 26 27 33
1170.0 26 37 28 34 25 31 29 28 39 41
1210.0 62 65 121 152 257 405 707 1109 1568 1864
1250.0 1875 2780 2907 1716 2088 1781 1292 929 814 826
1290.0 676 578 518 406 236 145 86 75 66 59
1330.0 58 55 64 56 70 71 77 73 81 88
1370.0 92 104 112 134 148 167 166 175 179 181
1410.0 197 213 227 225 250 283 245 180 179 151
1450.0 131 103 92 88 86 96 94 101 103 113
1490.0 106 93 86 87 77 67 62 47 48 39
1530.0 37 35 35 35 34 33 29 32 31 30
1570.0 27 28 23 22 21 18 20 17 20 17
1610.0 20 19 19 19 22 23 19 23 20 24
1650.0 23 23 22 23 20 20 21 18 17 15
1690.0 16 14 15 13 15 13 12 14 13 12
1730.0 12 12 12 13 13 13 13 13 13 12
1770.0 14 13 16 15 18 17 21 22 24 26
1810.0 25 30 30 35 36 42 43 42 49 49
1850.0 41 37 36 28 26 23 23 22 22 20
1890.0 20 18 16 18 18 21 22 29 34 39
1930.0 46 52 58 61 68 62 58 55 54 47
1970.0 42 38 36 33 29 27 23 23 18 17
2010.0 15 15 16 13 14 15 16 14 17 18
2050.0 17 17 19 20 19 20 19 21 20 22
2090.0 20 20 21 22 22 21 22 24 27 28
2130.0 32 34 35 32 29 26 23 21 17 17
2170.0 15 16 14 13 16 14 14 13 16 14
2210.0 14 15 15 13 14 14 12 13 12 12
2250.0 12 13 12 14 16 13 15 14 15 14
2290.0 17 19 18 17 18 19 18 16 15 14
2330.0 10 18 12 12 18 19 11 9 18 13
2370.0 20 12 16 15 12 7 7 6 5 7
2410.0 7 7 5 7 6 5 7 5 5 5
2450.0 7 3 4 5 6 7 7 8 9 10
2490.0 10 13 13 13 11 10 10 9 6 5
2530.0 5 4 4 0 3 3 2 2 3 3
2570.0 0 1 2 3 1 3 2 2 4 4
2610.0 4 1 5 3 5 3 5 5 7 6
2650.0 9 9 9 13 11 12 12 13 10 11
2690.0 12 12 14 15 16 17 21 20 21 16
2730.0 17 15 13 13 13 18 19 25 27 33
2770.0 37 42 48 55 64 70 88 97 115 130
2810.0 148 164 176 186 190 192 189 191 179 181
2850.0 175 176 173 178 195 213 251 297 365 425
2890.0 500 560 619 647 645 624 573 527 465 431
2930.0 405 468 616 923 1348 1798 2057 2215 3260 2829
2970.0 1978 2030 1651 1115 651 363 237 172 156 126
3010.0 131 123 130 128 137 148 152 160 166 176
3050.0 171 178 168 168 162 162 161 157 158 149
3090.0 146 137 132 124 122 113 112 103 98 94
3130.0 87 83 73 71 67 65 61 49 42 38
3170.0 36 30 28 26 30 35 41 46 53 54
3210.0 45 41 35 31 20 13 10 8 6 7
3250.0 5 3 6 4 4 5 4 6 2 4
3290.0 5 4 1 1 1 5 1 4 4 4
3330.0 3 3 5 2 5 6 4 2 0 2
3370.0 3 6 6 5 1 1 4 5 4 3
3410.0 4 0 3 3 10 5 5 3 7 5
3450.0 3 7 7 7 7 4 7 10 9 4
3490.0 8 9 11 11 10 11 10 10 13 11
3530.0 10 16 11 13 16 15 18 17 18 23
3570.0 24 26 28 23 26 25 28 29 28 29
3610.0 32 36 28 30 29 33 32 36 35 29
3650.0 31 30 22 26 25 28 24 23 27 28
3690.0 31 35 33 39 37 34 40 40 38 43
3730.0 42 40 35 39 41 40 46 50 53 48
3770.0 51 58 46 42 39 40 29 31 26 27
3810.0 24 33 30 32 31 29 33 25 26 19
3850.0 13 16 15 6 11 6 9 11 11 11
3890.0 12 17 7 3 4 11 6 4 10 17
3930.0 15 12 13 11 19 19 12 13 2 12
##END=
