##TITLE=Methane, chlorotrifluoro-
##JCAMP-DX=4.24
##DATA TYPE=INFRARED SPECTRUM
##ORIGIN=Sadtler Research Labs Under US-EPA Contract
##OWNER=NIST Standard Reference Data Program
##CAS REGISTRY NO=75-72-9
##MOLFORM=C Cl F 3
##XUNITS=1/CM
##YUNITS=ABSORBANCE
##XFACTOR=1.0
##YFACTOR=0.000075754
##DELTAX=4.0
##FIRSTX=450.0
##LASTX=3966.0
##FIRSTY=0.000000
##MAXX=3966
##MINX=450
##MAXY=0.75754
##MINY=0
##NPOINTS=880
##XYDATA=(X++(Y..Y))
450.0 0 14 21 54 58 40 45 57 29 83
490.0 39 62 43 57 51 66 47 65 69 50
530.0 76 60 86 74 79 71 73 90 58 89
570.0 63 77 74 81 67 67 68 47 62 45
610.0 48 30 80 62 57 60 54 65 51 57
650.0 42 38 37 56 54 35 64 55 60 46
690.0 48 48 56 37 50 47 47 58 36 60
730.0 46 54 40 46 47 54 64 90 186 231
770.0 324 281 383 532 367 270 467 285 184 70
810.0 78 49 47 58 45 58 27 61 27 52
850.0 39 56 36 39 52 35 42 36 60 31
890.0 43 49 54 50 40 58 47 65 47 67
930.0 50 62 60 54 56 53 58 43 68 51
970.0 59 42 54 46 44 48 39 45 19 38
1010.0 15 31 16 27 18 17 38 20 47 29
1050.0 74 56 90 99 161 233 417 744 1210 2046
1090.0 2806 3589 3765 5105 6758 4051 5351 6534 3796 1252
1130.0 332 451 308 235 102 87 67 64 79 96
1170.0 139 169 244 342 539 932 1715 3067 4962 7288
1210.0 9273 10000 8913 5064 2518 1397 735 402 233 167
1250.0 152 127 140 94 104 84 80 84 87 63
1290.0 42 53 43 53 50 58 51 61 64 72
1330.0 81 84 95 86 92 83 82 67 63 59
1370.0 52 46 40 38 35 37 31 34 31 35
1410.0 36 32 38 34 40 42 46 41 43 43
1450.0 43 37 35 36 31 38 32 31 30 33
1490.0 30 33 35 32 35 31 31 33 32 34
1530.0 35 37 42 35 38 39 41 45 45 43
1570.0 46 44 47 41 39 36 37 37 37 31
1610.0 35 32 36 30 34 33 37 40 37 39
1650.0 37 37 41 34 31 35 32 30 35 35
1690.0 33 33 35 34 31 31 33 31 33 30
1730.0 32 36 35 36 29 29 35 31 30 28
1770.0 27 25 26 21 23 22 30 30 30 31
1810.0 28 32 27 28 27 31 27 30 29 28
1850.0 32 28 36 36 35 35 39 39 43 44
1890.0 40 43 45 35 29 27 30 31 31 31
1930.0 32 30 30 29 32 31 30 29 31 29
1970.0 33 34 36 46 47 47 42 37 34 28
2010.0 27 30 28 24 28 26 29 29 29 31
2050.0 28 28 28 29 28 26 25 25 26 25
2090.0 22 26 24 23 24 26 26 29 25 23
2130.0 29 26 28 27 26 23 23 24 23 24
2170.0 24 22 23 21 21 20 23 24 20 21
2210.0 23 28 24 21 20 19 22 23 21 25
2250.0 27 28 23 23 26 24 28 26 28 25
2290.0 31 33 40 51 63 74 80 80 75 55
2330.0 42 56 44 34 47 29 33 24 40 27
2370.0 41 32 38 27 27 32 30 37 43 41
2410.0 44 42 39 41 36 34 33 31 31 31
2450.0 33 33 32 26 25 24 24 21 23 21
2490.0 23 23 21 19 17 20 18 19 20 21
2530.0 18 18 23 21 20 18 20 16 19 21
2570.0 18 20 20 19 15 18 19 20 17 16
2610.0 19 17 16 15 25 19 17 15 19 17
2650.0 18 18 15 20 16 18 17 20 19 20
2690.0 18 18 19 23 18 20 15 17 20 17
2730.0 22 17 17 18 18 18 18 18 18 17
2770.0 18 19 18 17 18 16 22 19 19 18
2810.0 20 21 21 20 22 18 18 19 19 21
2850.0 19 21 25 25 21 20 22 19 23 18
2890.0 23 22 20 19 24 20 22 21 21 18
2930.0 15 17 22 15 20 23 21 24 23 27
2970.0 23 20 20 19 21 23 25 23 21 20
3010.0 21 25 26 23 19 18 19 20 26 22
3050.0 20 20 25 26 27 24 24 22 19 27
3090.0 24 25 23 22 18 24 21 23 19 24
3130.0 25 26 25 19 24 29 21 19 22 25
3170.0 26 23 22 23 22 21 28 22 25 25
3210.0 26 23 25 25 28 23 29 23 25 25
3250.0 25 24 29 27 21 24 26 26 27 25
3290.0 24 24 26 22 26 24 24 23 22 21
3330.0 25 20 30 26 24 27 23 29 27 29
3370.0 28 31 21 18 20 25 27 27 24 26
3410.0 35 29 28 25 28 28 22 25 19 23
3450.0 23 21 29 40 16 21 32 32 30 27
3490.0 25 29 24 35 31 30 25 26 24 27
3530.0 25 24 33 35 22 35 27 25 27 25
3570.0 35 33 25 32 37 34 26 29 29 37
3610.0 42 35 39 35 30 44 33 37 34 30
3650.0 30 32 34 32 32 38 37 45 24 31
3690.0 36 39 30 44 32 36 34 34 35 38
3730.0 42 33 39 46 46 24 46 40 32 31
3770.0 34 32 30 49 23 32 16 27 47 41
3810.0 38 46 37 42 35 29 38 50 53 50
3850.0 48 57 46 39 43 23 32 28 31 34
3890.0 43 42 39 23 43 52 21 30 31 27
3930.0 38 33 33 33 34 37 29 51 27 29
##END=
