##TITLE=Ethanol, 2,2,2-trifluoro-
##JCAMP-DX=4.24
##DATA TYPE=INFRARED SPECTRUM
##ORIGIN=Sadtler Research Labs Under US-EPA Contract
##OWNER=NIST Standard Reference Data Program
##CAS REGISTRY NO=75-89-8
##MOLFORM=C 2 H 3 F 3 O
##XUNITS=1/CM
##YUNITS=ABSORBANCE
##XFACTOR=1.0
##YFACTOR=0.000055933
##DELTAX=4.0
##FIRSTX=450.0
##LASTX=3966.0
##FIRSTY=0.000671
##MAXX=3966
##MINX=450
##MAXY=0.55933
##MINY=0
##NPOINTS=880
##XYDATA=(X++(Y..Y))
450.0 12 20 10 13 20 21 11 23 27 25
490.0 31 22 32 44 52 61 71 102 130 169
530.0 225 273 287 298 357 370 314 263 188 118
570.0 74 42 64 10 2 55 5 5 18 7
610.0 9 24 45 80 79 161 189 265 364 478
650.0 642 772 863 961 1010 780 706 608 435 283
690.0 134 62 26 24 21 7 10 7 16 19
730.0 10 12 22 12 15 8 8 6 16 17
770.0 16 16 18 11 26 29 48 80 117 172
810.0 232 300 361 432 465 492 463 417 349 294
850.0 218 163 123 90 82 80 80 71 71 72
890.0 82 84 92 124 163 237 337 485 687 918
930.0 1126 1291 1508 1685 1552 1401 1258 1066 835 632
970.0 457 338 262 211 185 172 164 157 156 167
1010.0 176 185 208 245 283 325 386 459 560 677
1050.0 815 985 1228 1540 1952 2488 3059 3520 3587 3818
1090.0 3986 3367 3054 2617 2019 1489 1223 1244 1457 1795
1130.0 2217 2736 3405 3970 4238 4713 5469 6307 7127 8076
1170.0 8753 9512 10000 9728 8115 7018 5498 3670 2352 1662
1210.0 1346 1189 1026 952 940 990 1157 1432 1820 2292
1250.0 2806 3368 4130 5093 5637 6118 6805 7133 7017 6498
1290.0 5874 4648 3604 2891 2146 1494 1033 751 598 539
1330.0 545 605 722 873 1052 1207 1324 1393 1413 1413
1370.0 1236 1077 941 795 676 592 555 558 575 590
1410.0 602 613 566 498 434 363 295 240 214 217
1450.0 221 226 272 245 224 221 200 166 136 115
1490.0 99 89 75 59 67 42 40 38 21 24
1530.0 15 17 22 16 3 10 15 19 10 10
1570.0 9 9 13 4 13 12 13 11 14 12
1610.0 12 12 19 12 9 14 16 10 11 19
1650.0 13 23 10 11 11 16 5 6 8 14
1690.0 7 11 13 14 9 5 11 13 6 15
1730.0 9 15 10 11 10 16 19 11 21 14
1770.0 19 19 17 11 13 12 11 11 10 15
1810.0 14 13 24 23 24 29 26 23 22 20
1850.0 24 15 15 15 13 12 7 14 7 11
1890.0 15 5 7 6 7 6 7 6 5 7
1930.0 7 8 8 10 15 15 15 17 24 25
1970.0 25 25 25 25 25 23 24 26 27 22
2010.0 26 16 16 17 9 8 9 8 8 8
2050.0 8 8 8 8 7 8 8 17 17 25
2090.0 35 35 40 34 35 35 35 35 25 25
2130.0 27 26 35 35 35 37 39 44 44 44
2170.0 44 37 37 37 26 27 18 17 19 15
2210.0 16 26 25 25 35 35 35 35 34 26
2250.0 24 23 16 14 14 14 13 11 11 8
2290.0 3 7 1 8 11 1 16 18 22 32
2330.0 41 37 39 42 32 23 43 42 30 8
2370.0 11 5 0 1 6 15 19 19 19 19
2410.0 19 19 18 12 11 15 17 12 19 11
2450.0 11 11 11 12 12 12 12 12 12 12
2490.0 12 12 13 13 13 13 12 12 12 12
2530.0 14 13 13 13 13 13 13 13 15 15
2570.0 14 14 14 14 14 14 14 14 14 14
2610.0 16 16 16 25 15 15 15 15 15 15
2650.0 15 15 15 15 17 17 7 8 7 7
2690.0 9 10 16 16 16 16 16 18 18 17
2730.0 18 18 9 17 17 17 17 17 17 17
2770.0 17 17 17 17 18 19 26 26 26 26
2810.0 28 28 27 27 26 29 28 39 28 29
2850.0 28 38 37 51 54 65 79 104 125 142
2890.0 170 189 207 179 168 160 144 148 162 181
2930.0 226 290 344 416 490 563 578 553 529 494
2970.0 443 400 348 318 304 299 288 278 270 222
3010.0 178 152 104 71 50 26 24 12 16 6
3050.0 4 14 13 14 14 14 4 14 10 12
3090.0 5 5 5 5 6 5 6 7 13 9
3130.0 11 7 7 7 13 6 7 6 6 8
3170.0 6 7 7 10 6 6 6 17 6 5
3210.0 9 8 8 16 8 6 14 17 16 16
3250.0 16 7 14 7 8 8 8 7 8 8
3290.0 10 16 17 5 10 17 17 17 17 17
3330.0 16 16 15 19 18 18 18 22 25 27
3370.0 26 26 37 27 27 27 26 26 26 32
3410.0 27 27 27 35 37 35 26 26 37 27
3450.0 27 35 28 28 27 34 34 27 27 27
3490.0 28 28 28 28 28 28 27 27 27 27
3530.0 27 27 27 27 29 29 37 37 35 29
3570.0 29 28 27 32 37 38 39 29 38 37
3610.0 39 46 58 74 102 168 259 387 561 735
3650.0 893 1059 1250 1260 1159 1050 915 742 544 383
3690.0 249 173 117 89 62 44 45 38 39 40
3730.0 40 41 41 42 43 45 46 47 49 50
3770.0 49 44 45 47 44 41 42 44 46 38
3810.0 41 32 43 45 39 39 42 44 46 48
3850.0 50 58 63 57 58 60 72 74 74 78
3890.0 70 66 69 71 68 68 70 65 66 60
3930.0 63 57 52 55 58 60 64 61 61 64
##END=
