##TITLE=Amylene Hydrate
##JCAMP-DX=4.24
##DATA TYPE=INFRARED SPECTRUM
##ORIGIN=Sadtler Research Labs Under US-EPA Contract
##OWNER=NIST Standard Reference Data Program
##CAS REGISTRY NO=75-85-4
##MOLFORM=C 5 H 12 O
##XUNITS=1/CM
##YUNITS=ABSORBANCE
##XFACTOR=1.0
##YFACTOR=0.000078958
##DELTAX=4.0
##FIRSTX=450.0
##LASTX=3966.0
##FIRSTY=0.029372
##MAXX=3966
##MINX=450
##MAXY=0.78958
##MINY=0
##NPOINTS=880
##XYDATA=(X++(Y..Y))
450.0 372 400 386 353 319 285 241 204 165 160
490.0 129 110 97 101 102 105 129 134 126 139
530.0 111 116 83 70 39 35 19 20 40 44
570.0 13 47 27 34 37 13 25 36 30 42
610.0 30 43 37 30 36 24 30 35 42 42
650.0 40 40 44 34 22 48 45 52 56 52
690.0 59 60 82 98 115 137 150 174 207 204
730.0 168 143 122 94 64 45 39 36 38 38
770.0 50 57 76 76 101 74 71 59 56 51
810.0 31 35 37 46 29 33 33 53 72 90
850.0 142 222 328 501 648 802 964 1124 1220 1080
890.0 919 870 735 567 504 562 729 1001 1298 1600
930.0 1868 2125 2344 2235 1816 1517 1279 954 631 401
970.0 278 227 229 250 274 314 346 378 431 472
1010.0 481 497 529 547 565 622 689 772 856 932
1050.0 977 988 938 829 709 606 512 430 384 371
1090.0 390 427 497 598 734 903 1104 1323 1539 1752
1130.0 1930 2025 2081 2056 2003 1943 1910 1916 1963 2069
1170.0 2211 2373 2516 2638 2741 2725 2558 2312 2080 1824
1210.0 1568 1357 1206 1107 1033 978 930 908 899 903
1250.0 916 934 954 972 979 964 952 934 928 916
1290.0 907 893 903 904 905 890 900 911 926 921
1330.0 911 908 918 960 1036 1150 1336 1567 1819 2076
1370.0 2463 2733 2552 2465 2415 2029 1594 1186 864 623
1410.0 451 364 316 303 319 369 420 517 615 768
1450.0 944 1108 1253 1316 1395 1397 1256 1074 924 755
1490.0 581 416 297 204 177 117 101 91 79 70
1530.0 57 80 68 56 56 64 64 75 55 61
1570.0 65 57 64 47 53 49 46 43 45 43
1610.0 42 43 40 35 31 39 41 42 41 51
1650.0 39 65 36 49 41 54 34 43 26 35
1690.0 29 25 18 31 19 26 22 24 20 26
1730.0 22 25 23 23 13 14 15 16 17 8
1770.0 13 17 5 11 19 16 26 22 31 32
1810.0 37 36 45 37 41 34 26 28 15 20
1850.0 13 21 14 14 16 18 12 15 14 10
1890.0 9 8 6 7 7 6 6 12 3 5
1930.0 7 6 7 7 4 7 4 0 7 5
1970.0 5 6 5 5 5 5 7 5 5 4
2010.0 6 5 3 4 5 4 4 4 8 6
2050.0 11 10 14 15 15 16 16 16 16 16
2090.0 14 16 18 16 20 16 16 22 14 14
2130.0 14 13 13 13 13 11 15 10 12 12
2170.0 12 13 13 13 13 6 6 5 5 5
2210.0 6 6 9 11 12 12 17 17 18 18
2250.0 23 23 30 30 29 29 25 31 29 28
2290.0 30 30 31 32 25 25 23 26 26 26
2330.0 27 32 20 20 26 19 14 21 28 27
2370.0 33 34 36 32 29 28 33 33 28 27
2410.0 27 27 26 28 27 35 31 31 33 33
2450.0 33 34 34 33 27 27 27 27 27 27
2490.0 27 26 26 26 26 26 27 27 27 20
2530.0 24 20 20 19 19 22 20 25 25 25
2570.0 25 25 32 32 31 38 38 36 37 42
2610.0 43 44 44 44 44 43 48 48 55 55
2650.0 58 62 59 59 60 61 61 55 55 55
2690.0 53 60 62 66 76 78 89 90 108 115
2730.0 122 128 133 135 134 140 133 137 139 135
2770.0 133 138 139 144 144 153 170 177 197 216
2810.0 227 247 266 289 314 346 395 459 542 642
2850.0 764 897 1064 1238 1394 1553 1777 2058 2321 2475
2890.0 2631 2809 2764 2816 2877 2930 3042 3241 3536 3878
2930.0 4258 4557 4646 4635 4633 4745 5038 5587 6479 7597
2970.0 8530 9320 10000 9718 8829 7358 5813 4233 2859 1810
3010.0 1111 705 472 350 288 254 227 211 201 195
3050.0 195 195 200 202 201 213 219 225 223 206
3090.0 196 176 165 151 132 125 119 113 105 101
3130.0 101 93 90 94 93 101 98 106 106 112
3170.0 117 124 124 118 130 127 128 123 123 118
3210.0 116 111 110 103 96 93 90 78 69 64
3250.0 49 47 44 34 35 28 28 27 22 23
3290.0 26 22 24 29 17 28 28 26 33 33
3330.0 39 40 38 44 32 42 45 37 37 32
3370.0 38 32 43 43 45 49 38 48 47 44
3410.0 54 46 42 46 54 43 42 41 41 47
3450.0 40 40 34 38 42 33 36 41 33 32
3490.0 33 34 20 21 35 25 30 23 19 27
3530.0 20 13 12 13 15 9 12 9 16 15
3570.0 19 9 17 20 14 29 28 31 37 33
3610.0 67 104 142 218 311 431 513 595 679 692
3650.0 668 583 498 385 287 206 140 104 71 52
3690.0 51 51 33 30 26 28 35 28 24 21
3730.0 21 13 20 9 29 9 21 19 20 15
3770.0 12 15 10 12 14 22 28 36 39 43
3810.0 39 35 38 40 59 61 64 62 52 55
3850.0 52 54 52 49 48 43 43 40 34 35
3890.0 21 32 34 37 34 40 36 27 25 26
3930.0 32 29 25 24 25 29 39 40 46 47
##END=
