##TITLE=Propanoic acid, 2,2-dimethyl-
##JCAMP-DX=4.24
##DATA TYPE=INFRARED SPECTRUM
##ORIGIN=Sadtler Research Labs Under US-EPA Contract
##OWNER=NIST Standard Reference Data Program
##CAS REGISTRY NO=75-98-9
##MOLFORM=C 5 H 10 O 2
##XUNITS=1/CM
##YUNITS=ABSORBANCE
##XFACTOR=1.0
##YFACTOR=0.000088754
##DELTAX=4.0
##FIRSTX=450.0
##LASTX=3966.0
##FIRSTY=0.013136
##MAXX=3966
##MINX=450
##MAXY=0.88754
##MINY=0
##NPOINTS=880
##XYDATA=(X++(Y..Y))
450.0 148 255 236 328 17 147 135 180 122 358
490.0 425 452 488 447 540 750 841 911 785 778
530.0 719 742 873 944 979 1212 1370 1858 2241 2441
570.0 2865 3309 3079 2960 2767 2336 2055 1648 1418 1246
610.0 986 963 889 681 584 429 386 329 215 247
650.0 180 168 166 130 117 1 165 95 107 159
690.0 110 187 269 367 565 580 681 852 793 745
730.0 610 646 439 214 118 325 282 359 480 469
770.0 623 909 745 617 590 578 481 419 356 324
810.0 271 204 185 181 187 146 165 201 258 255
850.0 314 348 367 287 302 247 180 125 111 110
890.0 125 98 113 112 103 117 110 125 120 143
930.0 162 167 184 192 185 163 159 141 120 116
970.0 134 116 117 128 146 157 183 197 236 304
1010.0 401 528 643 718 843 876 787 757 656 532
1050.0 466 434 442 470 527 601 698 850 1069 1392
1090.0 1920 2729 3959 5568 7137 8485 9387 10000 9242 8257
1130.0 7193 5375 3591 2369 1747 1420 1176 967 787 652
1170.0 570 510 459 429 436 457 498 539 590 606
1210.0 619 596 555 498 449 431 400 376 347 332
1250.0 315 289 265 238 222 228 245 269 310 371
1290.0 438 541 658 785 908 988 1039 1046 991 884
1330.0 784 659 506 413 402 438 503 586 655 786
1370.0 908 941 823 776 722 657 612 566 643 611
1410.0 556 588 475 355 268 244 265 290 366 420
1450.0 487 574 646 725 825 915 1072 1136 1198 1287
1490.0 1173 949 856 628 378 214 124 122 110 102
1530.0 94 112 120 142 115 113 130 121 146 91
1570.0 89 96 69 87 56 63 51 56 67 51
1610.0 63 50 84 67 59 63 53 58 64 46
1650.0 76 66 76 66 78 93 82 118 118 170
1690.0 162 197 259 309 390 480 616 757 865 1003
1730.0 1161 1383 1718 2107 2811 3910 5358 6784 7534 8323
1770.0 9454 8908 8126 7451 5613 3707 2419 1797 1391 1060
1810.0 810 603 468 361 286 222 179 140 116 92
1850.0 77 64 45 46 40 36 45 33 43 42
1890.0 41 37 32 25 28 23 26 20 25 26
1930.0 38 42 39 51 56 64 56 56 57 55
1970.0 55 50 39 34 29 27 24 21 20 20
2010.0 27 29 23 27 32 37 36 29 30 25
2050.0 26 22 18 22 19 25 26 23 26 28
2090.0 25 26 23 24 23 21 24 19 24 25
2130.0 33 37 37 40 38 38 41 33 34 27
2170.0 25 30 25 21 16 22 30 32 35 43
2210.0 50 61 63 68 63 63 61 51 46 37
2250.0 30 28 25 24 21 20 22 20 24 27
2290.0 25 27 24 25 23 14 20 10 6 1
2330.0 0 0 0 24 0 38 0 2 0 0
2370.0 0 0 0 10 20 27 27 38 39 42
2410.0 46 49 52 53 50 49 48 46 42 42
2450.0 38 34 33 42 46 45 45 49 50 46
2490.0 40 34 32 29 25 23 21 20 22 25
2530.0 23 24 22 27 27 25 25 26 30 29
2570.0 31 31 27 27 33 32 39 33 35 46
2610.0 48 44 43 42 44 41 37 31 28 31
2650.0 32 29 31 34 33 38 39 41 44 41
2690.0 41 37 34 32 33 30 29 33 37 43
2730.0 51 49 53 58 57 55 52 49 48 49
2770.0 50 45 47 47 51 59 59 68 77 84
2810.0 92 95 91 94 94 101 108 115 124 129
2850.0 155 180 225 294 401 550 676 820 971 1040
2890.0 1018 975 972 966 995 1054 1108 1179 1229 1273
2930.0 1343 1385 1421 1453 1512 1608 1726 1970 2254 2585
2970.0 3250 3759 3982 4279 4209 3849 3356 2522 1838 1312
3010.0 824 526 334 219 183 141 132 120 94 95
3050.0 88 89 95 95 100 87 98 104 91 98
3090.0 90 93 104 85 94 89 94 100 101 96
3130.0 102 105 105 110 111 101 111 103 109 106
3170.0 101 101 116 112 115 115 116 119 120 122
3210.0 114 120 113 107 104 90 88 95 92 98
3250.0 93 78 80 89 77 67 61 60 65 65
3290.0 54 52 53 52 55 51 46 62 68 66
3330.0 78 69 72 70 71 64 53 56 60 53
3370.0 43 34 37 43 47 43 38 38 39 45
3410.0 41 41 35 33 36 33 28 30 24 40
3450.0 44 45 44 44 40 52 52 41 39 50
3490.0 48 61 58 64 68 91 91 105 109 108
3530.0 129 117 97 103 102 161 285 615 1190 1780
3570.0 2213 2554 3068 2593 2426 1874 1309 655 247 104
3610.0 70 46 49 42 29 33 41 49 30 51
3650.0 8 72 30 59 31 51 48 55 32 16
3690.0 55 15 55 6 25 16 11 24 26 26
3730.0 36 34 40 55 34 73 26 52 19 34
3770.0 27 36 29 26 41 37 42 69 45 73
3810.0 13 80 51 87 20 19 34 56 44 45
3850.0 57 54 71 33 51 60 55 78 56 62
3890.0 58 45 50 34 15 29 62 32 68 74
3930.0 75 65 55 81 72 64 49 55 81 11
##END=
