##TITLE=2-Butanone, 3,3-dimethyl-
##JCAMP-DX=4.24
##DATA TYPE=INFRARED SPECTRUM
##ORIGIN=Sadtler Research Labs Under US-EPA Contract
##OWNER=NIST Standard Reference Data Program
##CAS REGISTRY NO=75-97-8
##MOLFORM=C 6 H 12 O
##XUNITS=1/CM
##YUNITS=ABSORBANCE
##XFACTOR=1.0
##YFACTOR=0.000070551
##DELTAX=4.0
##FIRSTX=450.0
##LASTX=3966.0
##FIRSTY=0.000000
##MAXX=3966
##MINX=450
##MAXY=0.70551
##MINY=0
##NPOINTS=880
##XYDATA=(X++(Y..Y))
450.0 0 270 369 248 347 249 255 171 219 53
490.0 119 143 90 163 99 108 125 184 158 234
530.0 191 264 390 658 670 835 877 802 725 591
570.0 412 248 187 160 111 160 137 127 125 114
610.0 153 153 138 133 123 131 139 105 189 216
650.0 219 322 365 408 519 598 401 418 354 214
690.0 153 95 109 150 109 96 121 115 86 84
730.0 116 109 90 131 85 109 107 112 99 118
770.0 106 102 116 89 160 243 61 155 120 152
810.0 153 212 268 313 365 373 355 333 328 242
850.0 176 151 126 123 116 117 123 124 116 111
890.0 125 135 117 133 158 169 178 223 287 361
930.0 487 651 827 940 1069 1155 1125 1062 973 814
970.0 664 568 492 436 386 357 332 306 280 259
1010.0 243 228 220 217 220 220 220 220 235 249
1050.0 239 249 247 247 236 246 253 266 283 299
1090.0 332 358 433 513 673 920 1422 2178 3145 3969
1130.0 4457 5169 5026 4301 3928 2866 1764 1111 788 633
1170.0 547 506 463 454 443 444 478 511 578 623
1210.0 641 621 586 502 439 393 361 357 368 398
1250.0 455 531 646 755 839 890 897 828 740 619
1290.0 476 364 302 270 264 278 301 347 385 450
1330.0 560 739 1070 1517 2045 2479 3040 3663 3560 3841
1370.0 3989 3224 2547 2334 2070 1666 1396 1322 1109 1019
1410.0 1005 873 862 801 820 828 893 942 1008 1117
1450.0 1256 1435 1621 1783 2039 2296 2387 2370 2348 2080
1490.0 1889 1600 1228 888 707 589 462 416 395 334
1530.0 313 295 294 324 284 248 249 296 251 218
1570.0 226 216 211 212 201 215 200 212 213 217
1610.0 221 225 246 231 251 219 254 276 262 290
1650.0 343 367 353 375 430 494 609 653 819 996
1690.0 1158 1477 2042 2986 4344 6025 7423 8613 9852 10000
1730.0 9022 8124 6330 4265 2619 1690 1117 796 612 468
1770.0 409 340 278 237 216 201 200 184 181 152
1810.0 146 145 118 126 123 124 107 97 112 126
1850.0 114 92 107 105 118 129 120 127 125 127
1890.0 133 131 128 127 115 119 128 128 142 130
1930.0 130 129 133 137 131 114 110 104 107 95
1970.0 90 96 92 99 88 104 98 94 92 96
2010.0 96 98 104 100 102 102 97 99 97 86
2050.0 83 77 68 77 82 90 89 89 86 88
2090.0 85 85 87 80 71 74 80 66 72 79
2130.0 70 73 70 74 74 74 75 71 70 73
2170.0 75 74 78 84 80 75 84 90 91 85
2210.0 79 73 75 72 66 64 64 63 65 68
2250.0 63 66 66 62 72 71 77 79 79 84
2290.0 81 94 91 95 88 89 78 76 64 71
2330.0 77 69 63 52 60 46 44 44 53 66
2370.0 84 80 79 76 72 66 70 66 65 72
2410.0 71 73 72 77 78 68 68 61 57 65
2450.0 67 61 63 63 68 67 72 73 74 78
2490.0 75 78 84 82 73 66 62 65 67 60
2530.0 58 66 57 59 53 55 53 50 44 50
2570.0 50 48 54 52 61 64 65 65 55 59
2610.0 57 63 66 65 61 62 64 67 70 62
2650.0 71 61 65 67 79 67 67 64 68 69
2690.0 65 56 69 68 60 75 90 93 107 116
2730.0 118 128 112 120 117 117 121 116 104 106
2770.0 101 104 102 108 124 124 118 136 145 146
2810.0 167 168 177 187 213 226 262 283 312 364
2850.0 420 516 646 856 1134 1449 1740 2037 2278 2314
2890.0 2190 2131 2109 2150 2266 2360 2492 2628 2722 2840
2930.0 2931 3027 3210 3528 3853 4351 4983 5890 6974 8232
2970.0 9241 9443 9514 8566 7386 5911 4183 2960 2131 1559
3010.0 1161 911 768 647 579 507 437 377 341 302
3050.0 309 265 252 248 245 229 215 212 190 190
3090.0 187 178 171 161 167 151 139 143 126 129
3130.0 118 124 123 123 109 114 127 126 123 136
3170.0 125 126 132 123 120 102 90 85 102 98
3210.0 101 88 116 98 89 87 91 95 91 74
3250.0 88 84 75 67 93 99 73 45 111 66
3290.0 70 73 98 83 59 70 117 114 84 100
3330.0 62 107 62 111 57 98 162 124 98 70
3370.0 59 107 113 149 149 136 113 118 133 183
3410.0 185 176 227 250 289 279 278 264 213 161
3450.0 161 120 130 94 91 76 73 89 59 83
3490.0 70 69 86 99 81 91 82 72 79 81
3530.0 97 68 85 84 70 66 70 79 54 69
3570.0 73 85 68 73 77 68 77 59 88 109
3610.0 73 45 90 90 55 83 105 78 102 88
3650.0 70 59 114 68 84 102 56 79 58 78
3690.0 84 74 71 67 71 71 66 80 67 56
3730.0 59 71 70 75 67 57 69 49 46 67
3770.0 79 70 72 66 62 69 89 64 50 60
3810.0 83 67 64 73 67 108 51 98 99 80
3850.0 44 65 76 72 68 58 95 62 68 95
3890.0 81 97 50 49 74 94 142 90 63 73
3930.0 64 84 92 100 36 104 75 48 60 73
##END=
