##TITLE=4-Cyclohexene-1,2-dicarboxylic acid, dimethyl ester
##JCAMP-DX=4.24
##DATA TYPE=INFRARED SPECTRUM
##ORIGIN=Sadtler Research Labs Under US-EPA Contract
##OWNER=NIST Standard Reference Data Program
##CAS REGISTRY NO=7500-55-2
##MOLFORM=C 10 H 14 O 4
##XUNITS=1/CM
##YUNITS=ABSORBANCE
##XFACTOR=1.0
##YFACTOR=0.000171982
##DELTAX=4.0
##FIRSTX=450.0
##LASTX=3966.0
##FIRSTY=0.012039
##MAXX=3966
##MINX=450
##MAXY=1.71982
##MINY=0
##NPOINTS=880
##XYDATA=(X++(Y..Y))
450.0 70 73 50 27 62 73 53 74 53 58
490.0 44 67 59 40 60 50 61 47 63 38
530.0 53 54 43 25 39 35 26 37 28 41
570.0 18 25 14 18 16 12 29 21 34 28
610.0 52 47 76 82 120 176 240 331 429 626
650.0 888 1153 1325 1224 1075 748 519 393 258 197
690.0 132 126 79 78 68 71 61 83 109 139
730.0 146 129 109 71 73 54 53 46 61 86
770.0 118 153 167 185 204 226 253 255 221 181
810.0 136 104 103 103 127 157 224 290 317 284
850.0 216 146 115 120 149 185 201 189 146 119
890.0 121 165 233 294 308 280 249 254 306 371
930.0 398 373 337 311 319 318 287 243 196 166
970.0 149 148 158 193 251 334 409 446 449 450
1010.0 507 674 981 1419 1892 2283 2474 2380 2031 1567
1050.0 1136 861 711 605 512 422 350 307 291 295
1090.0 311 339 390 454 532 603 637 634 617 623
1130.0 679 799 983 1256 1656 2239 3015 3904 4774 5444
1170.0 5842 6131 6332 6545 6734 6821 6841 6915 6850 6573
1210.0 5952 5257 4692 4331 4075 3907 3796 3791 3875 3928
1250.0 3865 3549 3048 2516 2113 1877 1806 1845 1954 2094
1290.0 2219 2288 2195 1930 1581 1235 972 806 687 623
1330.0 616 654 715 757 791 863 958 1043 1085 1053
1370.0 973 880 760 647 563 499 428 367 303 277
1410.0 267 269 305 345 500 908 1572 2194 2465 2120
1450.0 1435 968 695 548 476 436 399 336 272 238
1490.0 214 172 158 134 137 135 108 109 124 101
1530.0 99 91 103 115 113 99 107 124 112 97
1570.0 97 90 90 76 67 65 61 64 59 66
1610.0 73 83 100 89 95 74 88 88 89 123
1650.0 187 236 247 215 176 140 136 136 169 198
1690.0 208 235 301 370 453 541 669 826 1009 1271
1730.0 1675 2170 2901 4070 5888 7785 9562 10000 9493 7653
1770.0 5542 3773 2445 1658 1144 806 586 455 368 294
1810.0 242 207 172 154 137 125 106 93 86 81
1850.0 66 53 49 45 47 53 45 43 44 44
1890.0 46 43 39 38 34 34 32 31 33 25
1930.0 25 26 27 30 32 28 31 34 34 34
1970.0 34 33 34 38 42 53 57 59 59 59
2010.0 59 59 60 60 58 59 59 59 59 58
2050.0 58 57 58 60 60 56 54 50 48 45
2090.0 44 40 38 34 33 30 29 27 25 25
2130.0 27 27 26 24 22 21 21 19 16 15
2170.0 13 11 11 9 8 8 8 6 4 6
2210.0 4 2 2 0 3 1 2 2 1 0
2250.0 0 0 0 1 0 1 3 6 7 6
2290.0 5 7 9 15 18 24 22 23 24 23
2330.0 20 22 21 20 36 16 34 23 23 19
2370.0 29 25 28 27 24 23 23 25 23 24
2410.0 22 19 17 16 14 14 15 12 11 12
2450.0 10 9 9 9 8 8 7 9 9 8
2490.0 10 10 12 13 11 10 12 13 12 12
2530.0 13 14 16 13 15 16 16 18 15 14
2570.0 16 17 17 20 22 21 23 25 26 26
2610.0 24 22 21 21 20 22 21 21 23 24
2650.0 25 25 27 26 26 26 25 24 22 20
2690.0 19 19 17 19 17 18 16 18 18 19
2730.0 18 17 20 18 19 17 19 24 28 33
2770.0 40 44 45 45 41 41 40 42 46 50
2810.0 57 63 74 86 104 127 165 241 376 559
2850.0 738 845 847 755 624 501 413 382 411 493
2890.0 586 715 893 1087 1250 1218 1053 920 849 900
2930.0 1051 1283 1491 1609 1671 1856 2290 2770 2814 2403
2970.0 1645 1008 752 686 662 658 685 726 753 726
3010.0 656 597 582 631 754 1037 1576 2038 2091 1624
3050.0 947 426 270 238 238 248 245 220 188 163
3090.0 143 136 124 119 111 103 95 88 86 77
3130.0 71 63 59 52 47 43 42 40 35 34
3170.0 32 30 27 28 26 29 25 26 26 22
3210.0 21 16 16 17 17 17 14 13 13 15
3250.0 13 11 14 14 16 12 11 15 17 19
3290.0 21 25 25 22 20 21 21 17 20 20
3330.0 19 20 22 21 19 18 16 21 20 17
3370.0 15 15 15 15 15 14 17 16 15 14
3410.0 18 17 16 17 19 19 21 19 20 22
3450.0 24 25 27 32 38 42 52 62 76 84
3490.0 88 87 84 76 68 55 46 35 27 23
3530.0 16 15 15 13 11 15 13 9 9 18
3570.0 13 16 13 16 18 17 16 16 19 15
3610.0 21 20 15 13 12 20 15 11 14 14
3650.0 24 19 22 12 11 16 12 19 7 17
3690.0 16 19 15 18 17 17 23 18 16 21
3730.0 17 16 19 17 27 16 21 8 12 17
3770.0 16 12 8 18 10 12 7 14 14 23
3810.0 13 15 12 19 18 8 15 26 19 11
3850.0 12 23 24 22 15 18 23 15 16 25
3890.0 12 19 9 25 25 21 17 13 19 17
3930.0 20 20 13 24 19 24 23 9 18 18
##END=
