##TITLE=Pyrrolidine, 1-phenyl-2-phenylimino-,
##JCAMP-DX=4.24
##DATA TYPE=INFRARED SPECTRUM
##ORIGIN=Sadtler Research Labs Under US-EPA Contract
##OWNER=NIST Standard Reference Data Program
##CAS REGISTRY NO=7561-79-7
##MOLFORM=C 16 H 16 N 2
##XUNITS=1/CM
##YUNITS=ABSORBANCE
##XFACTOR=1.0
##YFACTOR=0.000067905
##DELTAX=4.0
##FIRSTX=450.0
##LASTX=3966.0
##FIRSTY=0.016161
##MAXX=3966
##MINX=450
##MAXY=0.67905
##MINY=0
##NPOINTS=880
##XYDATA=(X++(Y..Y))
450.0 238 118 53 137 97 87 172 187 229 263
490.0 255 386 449 540 502 417 367 362 293 252
530.0 273 213 199 120 96 68 67 8 46 28
570.0 35 48 0 35 44 77 74 77 108 107
610.0 127 165 212 209 204 175 211 262 345 410
650.0 459 431 395 394 418 537 547 679 1017 1664
690.0 2315 2360 2105 1262 763 642 762 844 678 484
730.0 413 398 487 757 1150 1810 2112 1470 919 747
770.0 832 1055 1130 892 493 250 139 140 161 188
810.0 206 239 304 380 472 498 385 292 284 327
850.0 355 337 263 189 172 148 151 149 177 244
890.0 367 440 442 357 275 193 152 141 147 173
930.0 187 192 198 247 272 240 174 130 121 112
970.0 114 130 133 120 138 135 177 214 192 201
1010.0 222 297 388 511 580 613 572 436 305 240
1050.0 234 260 319 418 547 582 480 398 380 411
1090.0 510 687 853 884 854 878 780 572 416 325
1130.0 305 296 310 333 372 426 500 563 698 923
1170.0 907 759 767 907 1117 1481 2216 3395 4502 4616
1210.0 3599 2343 1495 1139 1050 1003 938 820 722 693
1250.0 730 835 931 964 955 976 1040 1167 1340 1590
1290.0 2047 2939 4471 6252 6588 4996 3484 3016 2867 2168
1330.0 1353 849 736 705 635 570 515 534 576 672
1370.0 824 1141 1615 2420 3709 5405 6451 5859 4118 2470
1410.0 1528 980 776 597 520 477 483 498 498 555
1450.0 594 775 1103 1151 1036 1074 1306 1805 2660 3752
1490.0 4593 5215 5231 4077 2684 1506 870 549 450 349
1530.0 349 340 381 458 473 488 541 656 744 899
1570.0 1211 1625 2298 3307 4718 5904 6134 5445 3873 2402
1610.0 1585 1323 1319 1496 1790 2316 2976 3762 4394 4974
1650.0 5694 6611 7857 8890 10000 9155 6853 3925 2298 1419
1690.0 965 731 665 577 533 463 481 502 452 411
1730.0 398 379 272 216 182 158 107 94 93 90
1770.0 135 150 133 113 85 63 61 33 40 12
1810.0 10 21 8 19 22 38 25 38 71 110
1850.0 105 91 93 80 79 73 41 19 18 17
1890.0 21 23 24 34 48 69 91 120 141 144
1930.0 138 116 102 99 85 52 37 18 9 8
1970.0 10 4 4 3 5 18 18 22 17 22
2010.0 24 35 49 56 55 53 52 43 42 27
2050.0 21 18 15 18 14 15 16 23 22 27
2090.0 31 31 27 23 26 33 27 18 18 13
2130.0 9 5 7 7 2 4 4 2 2 5
2170.0 2 2 0 4 0 3 4 3 7 6
2210.0 7 5 6 6 2 9 10 12 11 11
2250.0 8 8 6 11 14 18 23 28 28 38
2290.0 49 58 67 78 97 106 104 107 112 94
2330.0 78 79 71 88 73 89 113 90 96 88
2370.0 96 90 91 84 76 69 62 61 64 72
2410.0 73 75 78 76 75 70 68 60 56 53
2450.0 56 59 56 49 50 50 53 54 62 57
2490.0 64 69 72 78 79 81 81 77 74 73
2530.0 69 73 76 80 85 85 82 77 75 70
2570.0 73 70 70 74 79 80 83 87 82 75
2610.0 70 61 59 54 53 48 43 39 45 40
2650.0 46 45 47 48 52 52 44 43 46 52
2690.0 58 59 62 56 51 51 59 57 57 56
2730.0 64 63 67 72 76 85 87 94 105 117
2770.0 122 134 137 143 145 151 143 139 144 144
2810.0 142 151 161 171 194 222 260 308 365 414
2850.0 427 499 675 890 999 949 812 713 650 617
2890.0 577 523 451 397 356 304 244 183 116 85
2930.0 140 245 350 448 539 631 695 719 695 698
2970.0 761 885 1040 1135 1068 863 646 483 406 392
3010.0 426 493 573 671 774 856 908 920 879 865
3050.0 883 929 970 1090 1308 1473 1459 1250 1044 857
3090.0 674 557 472 413 346 281 217 167 132 107
3130.0 95 79 68 63 62 51 49 45 39 41
3170.0 34 27 30 30 27 25 20 34 28 31
3210.0 30 26 31 25 22 18 25 20 26 29
3250.0 22 30 19 25 28 32 33 24 29 36
3290.0 28 34 38 38 45 30 24 21 18 16
3330.0 20 8 23 17 26 26 18 24 26 25
3370.0 19 14 17 21 17 20 15 21 27 19
3410.0 19 19 24 21 13 19 14 27 17 23
3450.0 9 20 21 25 23 21 17 28 22 23
3490.0 25 16 24 20 25 26 15 27 23 19
3530.0 14 13 17 24 16 13 16 18 18 23
3570.0 20 19 29 28 28 30 21 21 23 22
3610.0 15 19 37 22 30 24 6 26 26 29
3650.0 33 26 30 34 37 1 16 26 26 22
3690.0 33 36 28 29 47 51 34 23 32 20
3730.0 30 38 41 48 34 36 40 34 37 35
3770.0 26 21 30 32 39 38 19 33 32 17
3810.0 31 31 36 13 14 20 31 48 30 29
3850.0 49 50 17 38 36 41 25 38 34 34
3890.0 26 33 46 43 40 48 60 23 39 39
3930.0 52 26 47 41 28 33 36 25 17 45
##END=
