##TITLE=Butane, 2,3-dichloro-
##JCAMP-DX=4.24
##DATA TYPE=INFRARED SPECTRUM
##ORIGIN=Sadtler Research Labs Under US-EPA Contract
##OWNER=NIST Standard Reference Data Program
##CAS REGISTRY NO=7581-97-7
##MOLFORM=C 4 H 8 Cl 2
##XUNITS=1/CM
##YUNITS=ABSORBANCE
##XFACTOR=1.0
##YFACTOR=0.000063202
##DELTAX=4.0
##FIRSTX=450.0
##LASTX=3966.0
##FIRSTY=0.037479
##MAXX=3966
##MINX=450
##MAXY=0.63202
##MINY=0
##NPOINTS=880
##XYDATA=(X++(Y..Y))
450.0 593 335 126 166 92 56 149 64 168 53
490.0 241 46 145 156 141 232 413 516 440 661
530.0 542 632 428 296 321 307 386 295 341 262
570.0 326 183 287 112 314 380 473 652 646 636
610.0 573 607 555 609 665 846 1045 1444 2209 3259
650.0 4997 6813 8755 9644 10000 8653 6499 3728 1632 1303
690.0 1227 1594 1796 2053 2256 2234 2082 1802 1399 949
730.0 636 320 222 119 169 129 122 127 114 165
770.0 112 180 136 146 127 86 67 106 161 101
810.0 144 100 186 148 203 252 293 397 493 638
850.0 681 794 814 758 550 514 369 240 165 138
890.0 144 119 151 126 163 144 182 180 203 239
930.0 251 333 420 679 1104 1770 2253 2636 2837 2987
970.0 2599 2054 1896 1572 1420 1418 1526 1750 2078 2322
1010.0 2274 2146 1891 1626 1053 824 799 914 1270 1984
1050.0 2907 3342 3593 3471 3249 2565 1845 1392 1167 975
1090.0 762 715 755 1022 1485 1951 2126 2070 1994 1608
1130.0 1040 618 503 443 468 421 437 456 490 549
1170.0 592 693 753 852 949 1146 1407 1697 1932 2061
1210.0 2209 2222 2307 2534 2750 2869 2886 2686 2332 1866
1250.0 1726 1676 1629 1588 1308 1094 797 526 431 449
1290.0 502 617 782 829 903 806 832 785 713 682
1330.0 642 619 557 569 575 586 603 644 794 1060
1370.0 1555 2292 3148 3779 4381 4619 3983 3073 2077 1237
1410.0 699 434 352 384 504 745 1183 1749 2433 3076
1450.0 3438 3501 3302 3032 2654 1950 1407 972 660 439
1490.0 313 243 187 173 150 147 114 126 122 108
1530.0 108 102 116 94 119 99 105 83 93 78
1570.0 64 70 68 72 63 86 67 78 74 78
1610.0 81 77 95 70 95 79 97 78 97 98
1650.0 94 107 112 119 105 122 122 124 131 131
1690.0 128 122 127 115 124 123 135 146 178 219
1730.0 269 314 356 402 417 422 374 340 286 279
1770.0 266 244 239 203 180 149 193 186 181 163
1810.0 139 113 83 74 44 48 35 46 34 40
1850.0 36 46 46 40 49 38 49 44 46 33
1890.0 37 44 38 49 40 51 44 54 43 51
1930.0 47 49 50 42 47 42 48 44 54 47
1970.0 50 53 47 53 53 59 36 46 38 39
2010.0 37 29 40 18 35 28 33 23 25 20
2050.0 16 17 21 21 7 21 9 9 10 21
2090.0 22 28 46 33 34 25 37 25 31 26
2130.0 28 26 28 26 15 18 14 18 9 19
2170.0 18 10 15 8 18 0 19 7 13 19
2210.0 28 25 20 29 20 28 19 22 14 20
2250.0 19 12 14 17 20 13 26 19 24 27
2290.0 31 35 30 39 26 27 14 27 1 19
2330.0 18 40 41 40 109 42 13 3 67 97
2370.0 111 128 120 111 89 80 61 58 50 51
2410.0 36 37 37 39 52 42 53 52 70 67
2450.0 76 76 76 74 71 71 62 57 50 56
2490.0 42 49 52 53 56 55 60 43 53 50
2530.0 51 57 61 73 71 82 72 72 59 72
2570.0 52 52 54 43 54 47 53 49 68 77
2610.0 85 90 102 106 97 104 99 109 104 124
2650.0 130 122 107 90 80 38 44 35 33 31
2690.0 32 30 27 34 23 35 24 36 31 35
2730.0 57 64 80 90 114 112 118 115 112 94
2770.0 88 77 64 69 66 65 61 80 79 87
2810.0 96 107 124 140 186 191 217 194 217 199
2850.0 202 190 223 300 403 554 745 986 1125 1176
2890.0 1177 1155 1052 925 850 798 848 897 1135 1513
2930.0 2035 2689 3341 4026 4119 3801 3487 2999 2392 2078
2970.0 1999 2336 3050 3979 5539 7262 8313 9009 8151 7338
3010.0 5402 3589 2234 1277 710 372 268 203 175 146
3050.0 134 134 137 111 114 123 120 137 134 122
3090.0 121 118 130 112 91 104 85 94 100 79
3130.0 110 94 80 105 90 87 103 126 107 119
3170.0 109 110 113 108 98 142 146 134 150 148
3210.0 166 129 167 172 181 144 148 140 149 119
3250.0 130 87 60 61 80 80 94 115 97 91
3290.0 71 90 100 66 58 64 65 37 67 96
3330.0 74 87 101 71 82 147 86 86 73 89
3370.0 61 40 65 29 58 28 84 62 54 47
3410.0 56 23 19 66 39 70 33 65 53 44
3450.0 78 48 40 46 70 72 62 45 51 39
3490.0 56 28 67 84 25 69 66 32 72 70
3530.0 64 57 77 64 77 45 102 95 101 117
3570.0 73 92 85 108 86 73 77 97 81 127
3610.0 65 65 82 84 54 36 119 19 57 87
3650.0 98 113 100 113 124 117 104 114 94 67
3690.0 75 52 67 47 73 70 80 48 28 95
3730.0 49 75 38 71 57 76 72 63 66 49
3770.0 33 67 60 68 30 63 86 89 68 61
3810.0 60 58 72 75 31 51 76 50 36 67
3850.0 77 78 92 55 88 44 29 58 47 78
3890.0 80 41 33 62 120 104 86 66 99 48
3930.0 92 41 28 80 71 40 56 57 82 67
##END=
