##TITLE=Benzeneethanol, 4-fluoro-
##JCAMP-DX=4.24
##DATA TYPE=INFRARED SPECTRUM
##ORIGIN=Sadtler Research Labs Under US-EPA Contract
##OWNER=NIST Standard Reference Data Program
##CAS REGISTRY NO=7589-27-7
##MOLFORM=C 8 H 9 F O
##XUNITS=1/CM
##YUNITS=ABSORBANCE
##XFACTOR=1.0
##YFACTOR=0.000074628
##DELTAX=4.0
##FIRSTX=450.0
##LASTX=3966.0
##FIRSTY=0.000000
##MAXX=3966
##MINX=450
##MAXY=0.74628
##MINY=0
##NPOINTS=880
##XYDATA=(X++(Y..Y))
450.0 0 108 126 129 181 160 272 316 379 416
490.0 479 548 671 772 670 512 399 427 339 381
530.0 475 634 750 954 1056 1014 1043 833 633 450
570.0 324 236 163 102 114 80 81 96 54 55
610.0 55 54 55 59 75 63 66 69 57 46
650.0 47 50 66 60 53 47 59 77 92 124
690.0 162 225 358 399 460 460 404 402 370 332
730.0 300 237 230 279 271 272 277 286 283 360
770.0 400 390 351 280 293 307 381 498 723 1072
810.0 1610 2259 2930 3396 3525 3291 2823 2338 1945 1567
850.0 1210 935 680 501 365 276 189 148 103 86
890.0 67 66 59 68 78 105 136 189 247 324
930.0 369 430 444 425 414 414 430 438 473 491
970.0 514 557 591 629 680 732 807 900 1024 1135
1010.0 1307 1436 1461 1561 1661 1971 2636 3486 4183 4658
1050.0 4683 4300 3899 3390 2813 2227 1751 1431 1261 1189
1090.0 1193 1162 1109 1041 845 694 581 521 486 471
1130.0 485 496 503 496 545 792 1556 1885 1938 1735
1170.0 1078 688 659 595 589 591 634 695 787 918
1210.0 1111 1474 2015 2697 3837 6120 8784 9213 9015 5970
1250.0 2785 1566 1194 999 922 816 765 683 618 558
1290.0 559 567 603 638 675 681 657 620 633 645
1330.0 646 653 582 615 671 655 646 606 586 638
1370.0 728 780 923 1054 1060 1031 898 699 654 606
1410.0 558 601 428 542 526 590 534 588 620 601
1450.0 529 474 345 421 478 517 453 545 689 631
1490.0 656 975 1523 3040 5808 9235 10000 8954 6300 2998
1530.0 1486 880 518 266 219 286 206 92 178 257
1570.0 239 285 341 429 603 724 922 1167 1472 1745
1610.0 1864 1751 1391 1081 730 648 463 370 383 308
1650.0 152 162 220 229 208 182 118 205 80 62
1690.0 148 172 47 56 110 181 128 43 175 221
1730.0 164 62 176 187 157 157 255 276 264 290
1770.0 180 133 180 156 160 146 112 132 99 173
1810.0 153 146 179 155 142 112 155 173 142 101
1850.0 162 211 215 243 251 251 356 396 400 385
1890.0 335 288 258 226 205 188 179 174 144 181
1930.0 185 182 184 149 152 168 158 151 156 132
1970.0 140 149 148 149 156 125 136 156 165 162
2010.0 157 138 116 122 129 129 139 135 137 151
2050.0 165 171 181 174 162 167 163 163 154 144
2090.0 131 124 122 113 106 96 94 88 81 82
2130.0 78 76 73 70 71 65 66 63 64 62
2170.0 58 57 62 58 55 53 53 48 48 46
2210.0 43 42 48 50 55 50 53 53 62 61
2250.0 66 68 65 71 65 64 62 63 57 64
2290.0 67 64 71 72 81 84 90 95 108 98
2330.0 109 107 112 132 111 122 142 125 127 114
2370.0 96 99 97 93 99 98 99 94 89 70
2410.0 63 59 61 60 59 59 64 69 67 73
2450.0 80 84 93 101 111 110 101 91 74 67
2490.0 62 56 59 62 56 55 59 60 58 59
2530.0 58 59 56 54 60 60 57 60 64 69
2570.0 68 74 71 70 61 56 58 59 50 50
2610.0 50 49 51 53 58 54 55 56 56 65
2650.0 66 70 72 72 73 75 75 76 75 71
2690.0 74 76 81 81 83 88 84 90 98 106
2730.0 115 116 117 131 134 142 142 143 140 142
2770.0 144 144 142 149 159 159 161 167 170 175
2810.0 183 188 202 209 219 239 271 301 351 412
2850.0 488 570 679 803 973 1190 1436 1665 1814 1845
2890.0 1732 1534 1348 1244 1218 1268 1394 1578 1803 2022
2930.0 2182 2253 2276 2271 2280 2250 2171 2061 1930 1758
2970.0 1515 1251 954 676 497 400 347 331 356 389
3010.0 400 386 358 327 327 375 483 656 870 987
3050.0 984 859 650 484 400 375 388 398 387 356
3090.0 284 219 188 168 165 171 175 174 181 173
3130.0 159 143 121 101 90 72 69 69 61 62
3170.0 57 56 55 56 60 64 62 57 56 55
3210.0 62 63 56 60 60 64 56 60 63 65
3250.0 68 61 63 69 65 62 62 67 56 61
3290.0 52 60 70 57 65 67 62 59 69 59
3330.0 67 73 75 71 72 69 71 67 78 77
3370.0 72 70 71 73 62 67 60 68 74 72
3410.0 60 67 66 74 69 64 65 70 68 67
3450.0 65 69 65 74 71 71 64 69 61 56
3490.0 68 67 68 59 54 57 58 44 58 55
3530.0 63 54 57 51 44 54 53 53 55 47
3570.0 71 66 73 73 79 90 62 74 84 91
3610.0 103 103 122 182 281 407 461 490 466 431
3650.0 432 518 609 672 763 763 717 613 492 340
3690.0 247 186 141 134 120 102 80 77 54 77
3730.0 56 61 65 51 58 53 55 39 44 57
3770.0 55 65 53 56 39 47 53 38 63 54
3810.0 48 49 49 59 45 49 60 57 52 62
3850.0 47 81 91 42 68 53 54 73 88 81
3890.0 90 71 62 62 75 79 84 91 63 53
3930.0 69 72 84 63 59 72 54 68 83 43
##END=
