##TITLE=Diethyl tert-butylmalonate
##JCAMP-DX=4.24
##DATA TYPE=INFRARED SPECTRUM
##ORIGIN=Sadtler Research Labs Under US-EPA Contract
##OWNER=NIST Standard Reference Data Program
##CAS REGISTRY NO=759-24-0
##MOLFORM=C 11 H 20 O 4
##XUNITS=1/CM
##YUNITS=ABSORBANCE
##XFACTOR=1.0
##YFACTOR=0.000046985
##DELTAX=4.0
##FIRSTX=450.0
##LASTX=3966.0
##FIRSTY=0.000000
##MAXX=3966
##MINX=450
##MAXY=0.46985
##MINY=0
##NPOINTS=880
##XYDATA=(X++(Y..Y))
450.0 0 478 954 870 250 314 459 688 360 601
490.0 456 328 458 384 535 400 397 485 334 429
530.0 441 362 469 353 328 344 394 263 215 403
570.0 467 321 476 532 324 269 429 344 414 574
610.0 478 625 477 396 402 367 407 451 438 578
650.0 377 453 300 351 371 458 488 464 363 425
690.0 425 413 534 504 420 302 550 433 333 435
730.0 440 440 267 306 902 674 527 584 598 461
770.0 507 468 575 526 450 436 539 610 528 527
810.0 521 514 455 513 533 476 508 456 432 488
850.0 580 613 752 769 736 689 657 559 521 465
890.0 487 509 521 509 440 471 533 443 459 520
930.0 530 559 586 582 648 612 669 677 705 704
970.0 678 624 668 659 677 594 591 632 674 700
1010.0 854 968 1327 1600 1987 2271 2641 3230 4125 4954
1050.0 5179 4680 3757 2753 2133 1791 1541 1456 1394 1563
1090.0 1760 2048 2314 2525 2748 2717 3009 3297 3992 4885
1130.0 6153 7532 8484 8968 8759 7685 6453 5128 4091 3433
1170.0 3014 2812 2753 2821 3073 3536 4123 4773 5252 5503
1210.0 5477 5458 5572 5898 6405 6697 6704 6370 5793 5316
1250.0 4685 4263 3871 3527 3287 3012 2816 2630 2498 2374
1290.0 2257 2236 2345 2646 3144 3660 4198 4504 4439 4039
1330.0 3329 2740 2145 1708 1424 1221 1117 1171 1393 2098
1370.0 2690 3023 2501 1822 1401 1235 1171 1215 1265 1215
1410.0 1062 856 718 659 665 721 706 753 882 977
1450.0 1063 1123 1099 1221 1387 1531 1532 1507 1493 1327
1490.0 1113 886 630 571 491 391 391 368 341 359
1530.0 325 372 315 323 310 358 328 281 309 314
1570.0 320 333 311 320 332 330 344 336 345 337
1610.0 343 339 334 351 359 378 382 384 433 441
1650.0 392 413 399 424 406 378 413 436 405 462
1690.0 503 573 620 748 891 1020 1228 1432 1780 2296
1730.0 2968 4117 6032 8090 9688 10000 8247 6667 5971 6007
1770.0 6017 4786 3401 2235 1497 1191 867 720 628 528
1810.0 501 433 399 384 336 343 320 316 309 282
1850.0 295 281 271 277 244 259 270 272 282 270
1890.0 286 284 287 288 285 283 275 273 268 254
1930.0 262 248 247 242 224 236 237 223 226 213
1970.0 224 227 227 230 225 238 231 237 247 233
2010.0 239 223 222 226 218 219 218 216 217 201
2050.0 211 202 214 218 205 212 209 208 215 210
2090.0 222 216 207 210 215 208 202 197 202 191
2130.0 195 187 181 180 184 184 189 176 180 184
2170.0 185 166 158 179 170 169 173 168 171 161
2210.0 173 171 165 166 162 157 167 160 160 157
2250.0 168 165 161 169 163 165 167 162 156 162
2290.0 160 154 154 154 141 132 136 122 132 124
2330.0 125 152 127 144 137 163 141 139 159 184
2370.0 171 170 152 154 153 162 164 158 154 153
2410.0 157 163 158 169 162 166 161 157 162 155
2450.0 151 157 153 151 150 150 140 145 147 138
2490.0 135 133 133 139 133 148 135 140 137 136
2530.0 129 139 133 134 137 133 135 135 137 132
2570.0 137 137 140 150 138 141 153 147 142 141
2610.0 143 146 145 137 142 147 137 142 147 139
2650.0 138 137 149 146 141 145 146 145 146 142
2690.0 158 153 153 154 149 147 165 169 175 188
2730.0 190 201 204 204 193 188 191 184 191 210
2770.0 209 205 194 209 202 211 211 211 233 227
2810.0 223 240 264 262 277 283 296 287 322 353
2850.0 370 404 456 519 638 816 1049 1306 1513 1594
2890.0 1558 1481 1433 1475 1608 1789 1956 2068 2069 2062
2930.0 2055 2158 2396 2727 3014 3109 3136 3313 3827 4412
2970.0 4678 4414 4165 4271 4491 4336 3743 3082 2539 2087
3010.0 1638 1263 983 769 639 533 452 397 367 335
3050.0 316 301 283 265 256 253 259 246 235 226
3090.0 222 221 216 218 216 204 214 192 189 188
3130.0 189 199 187 181 208 179 173 188 176 190
3170.0 184 186 193 199 196 201 196 190 177 185
3210.0 177 192 190 191 169 179 186 172 189 161
3250.0 156 154 168 161 152 142 158 144 156 154
3290.0 148 153 135 132 142 147 155 166 147 148
3330.0 146 146 128 139 158 163 152 158 173 148
3370.0 146 159 154 155 151 137 149 162 160 173
3410.0 157 143 171 145 153 150 169 139 146 169
3450.0 164 167 168 171 204 206 204 201 204 202
3490.0 183 182 192 209 194 182 170 144 131 155
3530.0 160 151 153 154 180 163 158 146 161 165
3570.0 142 170 156 142 122 138 152 146 143 176
3610.0 173 162 156 163 165 159 149 161 169 168
3650.0 160 131 162 143 155 158 125 161 133 172
3690.0 169 142 153 152 150 155 165 144 137 142
3730.0 153 131 198 142 186 123 135 169 158 168
3770.0 161 134 127 154 135 139 162 151 174 148
3810.0 153 134 151 138 122 122 173 144 173 181
3850.0 121 122 131 190 172 122 128 170 156 169
3890.0 150 147 154 248 186 204 144 167 131 143
3930.0 154 199 194 150 122 156 175 161 124 116
##END=
