##TITLE=Acetamide, N,N-bis(1-methylethyl)-
##JCAMP-DX=4.24
##DATA TYPE=INFRARED SPECTRUM
##ORIGIN=Sadtler Research Labs Under US-EPA Contract
##OWNER=NIST Standard Reference Data Program
##CAS REGISTRY NO=759-22-8
##MOLFORM=C 8 H 17 N O
##XUNITS=1/CM
##YUNITS=ABSORBANCE
##XFACTOR=1.0
##YFACTOR=0.000128320
##DELTAX=4.0
##FIRSTX=450.0
##LASTX=3966.0
##FIRSTY=0.012062
##MAXX=3966
##MINX=450
##MAXY=1.2832
##MINY=0
##NPOINTS=880
##XYDATA=(X++(Y..Y))
450.0 94 78 120 81 71 113 136 171 221 233
490.0 202 219 235 265 297 291 284 231 176 130
530.0 100 71 54 61 60 54 59 69 80 86
570.0 97 98 103 132 186 300 438 628 687 712
610.0 663 493 338 236 145 92 60 57 41 44
650.0 47 61 91 124 156 162 162 134 85 37
690.0 19 16 17 23 4 14 22 16 23 10
730.0 12 17 10 0 4 0 4 0 8 6
770.0 4 13 6 12 11 9 9 6 16 3
810.0 2 1 5 6 3 12 15 25 34 39
850.0 50 57 52 44 41 41 45 47 48 41
890.0 35 29 22 27 23 32 31 45 62 89
930.0 116 124 121 110 91 68 64 59 59 53
970.0 55 61 63 78 96 130 161 217 291 404
1010.0 531 631 680 628 560 502 513 580 641 650
1050.0 554 425 281 176 130 111 95 92 89 90
1090.0 94 105 128 154 203 264 359 479 641 798
1130.0 995 1133 1099 1066 994 931 947 1009 1059 1034
1170.0 912 719 518 350 278 273 327 423 591 840
1210.0 1175 1514 1745 1785 1547 1192 753 429 285 216
1250.0 197 189 195 207 231 241 277 324 411 550
1290.0 765 1042 1389 1872 2585 3643 4571 5041 5110 4337
1330.0 2910 1689 1007 777 821 954 1187 1446 1740 1951
1370.0 2275 2593 2528 2505 2226 1755 1322 928 676 588
1410.0 647 864 1181 1756 2442 3108 3518 3551 3181 2582
1450.0 1946 1546 1256 1144 1036 948 843 782 694 547
1490.0 417 309 226 183 149 115 131 126 120 149
1530.0 142 160 134 110 108 126 109 80 100 103
1570.0 99 93 103 96 115 109 121 122 137 139
1610.0 142 166 175 234 274 381 445 547 687 894
1650.0 1209 1828 3037 4713 7117 8514 10000 8525 7041 4422
1690.0 2423 1312 740 448 296 241 180 134 131 123
1730.0 91 61 70 66 52 43 56 48 44 46
1770.0 39 39 61 59 63 56 49 50 36 47
1810.0 40 37 42 40 38 33 37 36 21 9
1850.0 16 20 21 22 16 8 20 22 22 20
1890.0 19 21 19 20 15 10 7 3 1 3
1930.0 6 4 4 1 5 8 10 10 12 10
1970.0 11 15 17 22 24 15 17 16 13 7
2010.0 6 4 3 6 9 9 9 8 7 7
2050.0 6 8 10 8 6 7 8 7 6 8
2090.0 12 14 17 19 19 16 14 11 8 6
2130.0 3 3 1 1 1 3 1 1 1 1
2170.0 1 1 2 2 5 4 6 8 8 7
2210.0 9 7 7 9 8 8 9 12 14 13
2250.0 13 12 11 10 10 9 12 11 15 17
2290.0 19 21 26 24 25 26 20 19 10 11
2330.0 13 8 4 10 3 18 1 6 0 5
2370.0 1 13 13 15 16 12 9 9 7 6
2410.0 3 3 2 2 4 3 5 7 8 8
2450.0 9 9 7 9 8 10 9 11 16 13
2490.0 14 19 15 15 14 13 13 10 10 8
2530.0 9 9 8 7 6 7 6 5 3 4
2570.0 0 3 1 4 5 10 11 12 19 20
2610.0 26 32 35 37 34 28 25 21 18 17
2650.0 13 13 14 17 17 17 18 21 20 22
2690.0 22 23 25 25 26 28 31 37 45 50
2730.0 56 59 59 56 56 56 55 59 56 59
2770.0 60 60 59 59 62 61 68 71 77 82
2810.0 91 99 107 115 120 125 127 136 143 157
2850.0 171 198 234 288 374 482 623 767 898 972
2890.0 978 949 908 871 861 882 918 1002 1116 1315
2930.0 1572 1854 2074 2178 2098 1939 1848 1912 2327 2863
2970.0 3670 4153 4148 3890 3007 2306 1829 1607 1664 1698
3010.0 1689 1466 1186 858 586 420 324 271 233 216
3050.0 189 180 164 155 146 137 131 123 123 119
3090.0 115 109 111 111 117 117 116 112 103 102
3130.0 94 92 88 84 81 81 81 81 83 81
3170.0 81 77 79 74 73 70 65 65 59 56
3210.0 54 49 42 40 38 31 28 28 23 22
3250.0 22 15 19 18 20 16 21 16 20 23
3290.0 25 26 29 32 38 45 55 67 76 84
3330.0 86 84 72 56 43 26 20 12 12 10
3370.0 12 14 11 11 12 18 12 15 14 16
3410.0 13 18 13 10 12 9 13 13 13 13
3450.0 17 18 19 20 17 18 18 12 14 12
3490.0 15 16 18 15 12 8 12 2 8 10
3530.0 18 11 11 8 8 9 8 7 7 14
3570.0 12 15 14 13 13 9 10 7 9 10
3610.0 7 2 2 3 0 8 8 6 9 8
3650.0 7 2 3 9 2 5 7 3 7 8
3690.0 10 12 5 0 0 7 5 9 0 9
3730.0 6 6 12 6 17 6 12 12 6 8
3770.0 10 10 11 14 10 4 15 11 6 19
3810.0 16 15 18 18 9 9 12 21 17 19
3850.0 17 23 23 17 18 12 24 26 14 20
3890.0 21 18 9 23 25 18 26 32 22 13
3930.0 11 22 15 15 15 17 30 15 19 15
##END=
