##TITLE=Acetic acid, trifluoro-
##JCAMP-DX=4.24
##DATA TYPE=INFRARED SPECTRUM
##ORIGIN=Sadtler Research Labs Under US-EPA Contract
##OWNER=NIST Standard Reference Data Program
##CAS REGISTRY NO=76-05-1
##MOLFORM=C 2 H F 3 O 2
##SOURCE REFERENCE=No.222236 (NIST/EPA/NIH MS Database)
##XUNITS=1/CM
##YUNITS=ABSORBANCE
##XFACTOR=1.0
##YFACTOR=0.000083496
##DELTAX=4.0
##FIRSTX=450.0
##LASTX=3966.0
##FIRSTY=0.002505
##MAXX=3966
##MINX=450
##MAXY=0.83496
##MINY=0
##NPOINTS=880
##XYDATA=(X++(Y..Y))
450.0 30 29 42 65 78 85 112 157 140 138
490.0 159 158 190 204 210 156 145 164 155 206
530.0 228 260 388 433 453 541 687 773 964 1015
570.0 1193 1419 1379 1297 1198 1100 1003 779 650 495
610.0 388 268 234 207 157 158 130 176 279 483
650.0 874 1219 1398 1480 1632 1567 1348 1290 886 445
690.0 205 99 84 76 68 67 42 40 23 32
730.0 49 53 84 98 100 122 189 243 307 349
770.0 367 489 837 526 395 406 410 362 273 220
810.0 182 122 102 104 98 63 63 63 49 24
850.0 30 41 30 25 28 23 15 23 6 23
890.0 4 13 16 12 8 8 7 11 19 8
930.0 17 6 22 10 11 17 19 11 10 9
970.0 24 12 19 28 24 17 23 22 30 34
1010.0 34 48 51 70 67 65 75 71 69 82
1050.0 82 97 95 121 151 193 255 324 443 581
1090.0 786 1124 1634 2484 3452 4304 5128 5816 6417 5968
1130.0 6038 5589 4025 2877 2302 1938 1718 1634 1684 1885
1170.0 2244 2682 3349 4115 5545 7233 9386 8962 9256 10000
1210.0 7501 5587 4498 3620 3046 2949 3074 3177 3014 2723
1250.0 2500 2218 1866 1488 1155 846 591 414 305 234
1290.0 185 170 138 121 108 99 110 110 111 131
1330.0 153 184 209 235 270 293 313 328 333 338
1370.0 340 328 327 341 369 386 424 479 530 567
1410.0 568 553 556 507 469 425 321 243 173 144
1450.0 117 89 108 49 49 38 48 35 22 23
1490.0 30 23 42 16 71 37 14 28 58 34
1530.0 23 46 53 102 49 44 61 106 93 51
1570.0 68 48 69 35 34 29 35 28 22 29
1610.0 29 25 59 30 37 29 35 54 28 47
1650.0 46 111 35 49 48 72 71 70 69 120
1690.0 70 74 99 103 63 48 42 77 40 31
1730.0 34 64 38 48 34 57 57 64 96 121
1770.0 173 259 318 435 573 748 986 1255 1670 2256
1810.0 2906 3346 3494 3744 3921 4054 3835 3579 2706 1812
1850.0 1253 937 703 531 357 242 155 105 77 56
1890.0 50 47 41 33 36 35 35 34 34 34
1930.0 29 20 17 16 13 11 11 11 11 16
1970.0 17 11 16 17 19 18 22 19 20 14
2010.0 12 11 11 10 11 6 6 5 6 7
2050.0 7 8 11 11 11 10 6 6 5 5
2090.0 5 5 5 5 3 3 5 0 6 5
2130.0 0 6 0 5 0 0 3 6 6 6
2170.0 6 6 5 5 5 6 6 16 15 18
2210.0 19 23 27 26 28 28 28 28 22 22
2250.0 23 16 16 14 11 10 7 6 6 6
2290.0 10 11 17 17 23 29 41 40 50 51
2330.0 57 65 57 63 64 47 64 88 91 79
2370.0 74 61 51 43 35 28 33 29 29 28
2410.0 29 29 23 28 26 23 23 20 15 17
2450.0 23 16 22 23 23 23 24 28 32 27
2490.0 31 35 30 34 34 34 34 34 40 35
2530.0 35 35 25 19 17 10 11 11 5 5
2570.0 6 5 5 5 5 9 8 11 8 10
2610.0 10 10 10 11 11 11 5 6 8 5
2650.0 5 5 5 5 5 5 5 6 6 6
2690.0 6 6 6 2 5 5 6 6 5 5
2730.0 5 0 5 5 5 5 6 6 6 6
2770.0 4 5 5 6 7 7 7 6 6 6
2810.0 8 8 8 8 8 8 8 8 9 2
2850.0 8 9 10 10 7 2 6 8 5 5
2890.0 10 5 11 10 12 12 12 14 17 12
2930.0 24 24 24 29 25 24 30 18 14 14
2970.0 14 14 14 14 14 14 14 14 15 15
3010.0 15 15 16 16 16 16 16 17 17 17
3050.0 17 18 17 17 18 18 18 14 18 18
3090.0 18 13 15 19 13 14 14 14 13 12
3130.0 15 15 15 15 15 15 11 15 15 16
3170.0 16 17 21 17 17 17 17 17 18 18
3210.0 18 12 17 13 13 17 14 17 13 21
3250.0 13 14 15 14 14 9 14 9 3 10
3290.0 11 15 20 9 14 12 11 10 16 11
3330.0 10 18 22 16 14 17 16 6 7 11
3370.0 13 7 8 14 2 14 13 10 16 3
3410.0 13 11 5 4 10 9 9 21 10 14
3450.0 17 10 7 7 0 12 14 11 16 12
3490.0 5 12 6 5 14 10 16 9 13 6
3530.0 19 24 30 31 38 68 134 278 582 1064
3570.0 1478 1614 1879 2110 1713 1629 1334 820 429 249
3610.0 195 172 174 173 162 165 122 107 96 71
3650.0 76 53 53 41 42 47 49 63 38 40
3690.0 56 39 31 32 27 45 44 33 40 44
3730.0 44 45 52 47 70 68 65 46 51 47
3770.0 46 45 47 48 48 47 47 53 67 54
3810.0 54 54 78 78 71 73 74 85 72 68
3850.0 70 97 70 68 67 75 74 68 64 64
3890.0 61 60 74 69 65 65 65 64 64 58
3930.0 58 66 65 64 53 58 16 19 19 20
##END=
