##TITLE=Ethane, pentachloro-
##JCAMP-DX=4.24
##DATA TYPE=INFRARED SPECTRUM
##ORIGIN=Sadtler Research Labs Under US-EPA Contract
##OWNER=NIST Standard Reference Data Program
##CAS REGISTRY NO=76-01-7
##MOLFORM=C 2 H Cl 5
##XUNITS=1/CM
##YUNITS=ABSORBANCE
##XFACTOR=1.0
##YFACTOR=0.000088660
##DELTAX=4.0
##FIRSTX=450.0
##LASTX=3966.0
##FIRSTY=0.000532
##MAXX=3966
##MINX=450
##MAXY=0.8866
##MINY=0
##NPOINTS=880
##XYDATA=(X++(Y..Y))
450.0 6 2 20 15 19 23 29 38 68 76
490.0 79 84 85 101 106 111 129 115 97 114
530.0 116 84 126 149 159 170 173 219 290 341
570.0 549 870 1234 1509 1617 1038 706 239 23 38
610.0 71 75 100 89 103 84 96 92 75 68
650.0 77 84 69 39 22 61 42 77 80 81
690.0 69 87 126 203 343 614 1056 1714 2455 3032
730.0 3192 2923 2154 1439 818 678 1041 1766 3052 5136
770.0 7790 9822 10000 8220 5540 3106 1234 540 564 806
810.0 1241 1893 2703 3600 4307 3461 2347 1120 455 298
850.0 296 317 274 214 163 105 85 58 45 57
890.0 70 81 96 110 103 110 101 86 86 81
930.0 77 76 82 87 86 75 58 54 51 49
970.0 45 59 47 58 76 106 140 171 210 259
1010.0 318 371 421 417 353 235 154 88 67 68
1050.0 79 73 72 61 42 34 34 38 28 34
1090.0 28 39 40 35 34 35 34 28 30 34
1130.0 24 33 31 31 35 35 36 42 52 47
1170.0 60 62 70 79 75 76 99 165 300 442
1210.0 577 599 472 265 98 48 41 54 75 118
1250.0 186 203 253 149 118 65 38 33 33 47
1290.0 30 28 31 29 29 29 29 31 35 29
1330.0 29 36 33 34 30 30 29 34 32 31
1370.0 30 31 32 30 32 32 29 36 40 42
1410.0 38 38 36 37 39 32 33 39 38 32
1450.0 31 27 18 36 16 23 24 35 32 34
1490.0 20 29 29 30 5 30 25 19 22 26
1530.0 38 18 20 25 41 30 23 19 42 39
1570.0 34 31 41 40 35 35 35 41 37 37
1610.0 36 34 32 30 32 23 18 32 27 10
1650.0 19 18 37 19 22 22 28 18 11 37
1690.0 35 12 15 37 24 24 16 23 35 23
1730.0 15 16 33 30 27 20 35 35 31 27
1770.0 31 31 28 30 41 30 36 31 37 36
1810.0 30 36 29 24 23 25 31 23 28 37
1850.0 38 25 31 31 32 27 31 20 30 27
1890.0 30 29 25 22 22 27 32 20 28 33
1930.0 31 32 28 25 28 27 29 29 34 29
1970.0 29 34 40 34 27 24 23 29 25 23
2010.0 25 29 25 29 36 30 29 31 30 29
2050.0 28 34 36 36 31 37 37 41 42 42
2090.0 41 38 37 34 43 43 40 44 49 49
2130.0 49 50 49 49 49 46 50 51 53 52
2170.0 51 52 45 40 35 40 35 35 29 32
2210.0 35 34 31 35 35 34 36 35 35 35
2250.0 35 32 36 35 44 39 42 51 40 38
2290.0 36 29 31 31 27 18 13 5 3 3
2330.0 2 1 1 6 29 1 1 1 11 32
2370.0 41 69 72 61 53 52 49 49 55 55
2410.0 54 53 50 54 50 48 52 47 54 54
2450.0 54 54 54 53 59 54 54 53 53 60
2490.0 56 54 59 65 70 59 54 53 41 42
2530.0 36 36 33 38 27 42 37 27 30 26
2570.0 26 31 36 49 48 55 52 52 52 52
2610.0 64 58 53 58 53 53 53 55 64 54
2650.0 61 64 59 65 57 64 62 69 70 62
2690.0 71 70 72 69 65 65 66 64 64 64
2730.0 62 64 58 61 59 59 54 58 55 51
2770.0 55 57 58 56 64 70 74 65 62 57
2810.0 69 66 64 62 69 69 68 69 57 68
2850.0 61 67 67 62 66 61 61 69 69 73
2890.0 68 68 80 68 67 69 69 71 67 68
2930.0 73 71 75 62 68 61 61 61 61 61
2970.0 68 68 64 73 83 106 175 250 314 289
3010.0 247 163 93 78 70 67 62 59 56 57
3050.0 55 56 55 61 55 61 56 59 55 56
3090.0 60 68 60 67 68 67 74 65 61 64
3130.0 58 61 65 61 59 49 61 56 54 56
3170.0 59 61 55 55 56 51 50 62 65 61
3210.0 55 60 54 60 49 56 61 50 55 49
3250.0 49 49 49 43 50 55 50 50 50 36
3290.0 46 49 49 49 55 50 50 49 49 55
3330.0 60 54 51 47 56 48 47 48 46 53
3370.0 45 38 42 32 49 54 30 46 39 29
3410.0 50 49 48 51 43 71 60 48 49 44
3450.0 58 47 41 36 48 47 26 52 19 25
3490.0 32 30 20 10 27 49 49 35 22 44
3530.0 42 45 37 42 45 46 47 31 34 27
3570.0 46 36 14 13 10 13 3 35 26 13
3610.0 12 12 17 27 15 28 43 50 27 13
3650.0 32 45 30 22 17 16 23 16 10 18
3690.0 9 22 10 7 22 26 30 5 1 17
3730.0 39 17 33 25 37 36 70 54 48 42
3770.0 31 29 18 12 23 25 26 13 28 26
3810.0 20 13 13 19 33 23 19 31 38 33
3850.0 13 34 38 50 45 32 23 0 1 5
3890.0 2 10 7 9 17 16 3 20 16 23
3930.0 24 11 16 8 1 1 8 22 19 20
##END=
