##TITLE=Methane, trichloronitro-
##JCAMP-DX=4.24
##DATA TYPE=INFRARED SPECTRUM
##ORIGIN=Sadtler Research Labs Under US-EPA Contract
##OWNER=NIST Standard Reference Data Program
##CAS REGISTRY NO=76-06-2
##MOLFORM=C Cl 3 N O 2
##XUNITS=1/CM
##YUNITS=ABSORBANCE
##XFACTOR=1.0
##YFACTOR=0.000081226
##DELTAX=4.0
##FIRSTX=450.0
##LASTX=3966.0
##FIRSTY=0.030947
##MAXX=3966
##MINX=450
##MAXY=0.81226
##MINY=0
##NPOINTS=880
##XYDATA=(X++(Y..Y))
450.0 381 166 125 106 71 139 119 56 49 62
490.0 113 1 107 97 83 40 91 49 40 62
530.0 53 61 65 66 49 72 65 85 25 112
570.0 148 116 87 91 113 92 86 75 85 55
610.0 70 97 101 111 134 156 196 287 318 426
650.0 519 720 847 1092 1244 1672 2113 1892 1569 1676
690.0 1692 1833 1900 2119 2269 2383 2353 2262 1996 1876
730.0 1817 1780 1578 1179 840 386 183 125 137 134
770.0 168 161 148 157 144 203 244 236 160 198
810.0 219 330 459 808 1408 2191 2898 3415 3868 3956
850.0 3956 4513 5714 7341 8853 9438 9497 9258 8207 7492
890.0 7713 8462 8801 7853 6432 5063 4287 3571 2546 1676
930.0 1207 868 669 482 352 263 212 149 132 119
970.0 98 103 96 62 52 78 71 79 65 90
1010.0 83 69 62 55 53 34 33 10 25 19
1050.0 33 30 42 50 40 49 39 52 39 39
1090.0 46 51 52 58 75 66 78 79 92 87
1130.0 111 112 113 92 83 83 66 77 68 67
1170.0 55 69 66 64 62 53 62 40 51 34
1210.0 47 40 65 61 64 80 70 83 66 79
1250.0 81 115 151 249 359 502 643 766 889 975
1290.0 1298 1865 2988 4061 5009 5971 5041 4054 2800 1254
1330.0 701 620 776 1012 1213 1447 1521 1328 1045 670
1370.0 328 225 140 123 104 94 96 111 96 80
1410.0 105 71 117 69 78 41 63 60 33 36
1450.0 33 56 69 50 35 45 69 59 32 50
1490.0 79 56 96 98 155 173 144 134 157 120
1530.0 120 119 135 181 171 174 197 271 298 363
1570.0 508 717 1009 1405 1931 2633 3492 4473 5613 7073
1610.0 8766 9315 8986 9116 9503 10000 8210 6020 4599 3257
1650.0 2153 1280 685 326 170 101 99 58 97 105
1690.0 61 48 83 79 69 59 74 112 80 69
1730.0 92 132 106 100 106 120 101 93 86 68
1770.0 84 87 73 76 77 96 118 135 178 217
1810.0 277 349 380 381 328 409 488 406 304 238
1850.0 178 144 129 106 83 72 43 35 24 28
1890.0 34 42 42 41 44 44 42 40 44 27
1930.0 21 16 15 20 16 6 6 6 8 13
1970.0 9 10 8 11 3 14 16 9 7 10
2010.0 11 16 23 20 19 16 15 14 17 13
2050.0 13 8 8 9 16 18 12 13 7 5
2090.0 3 0 1 7 13 11 12 13 19 14
2130.0 22 25 26 31 39 46 40 35 24 16
2170.0 11 12 13 17 16 16 22 24 22 19
2210.0 16 9 12 12 14 11 11 12 18 17
2250.0 10 14 13 9 12 12 15 11 13 14
2290.0 19 21 26 27 25 30 31 26 24 26
2330.0 31 26 30 40 46 43 27 26 46 55
2370.0 75 67 72 58 37 21 15 6 9 9
2410.0 9 10 7 5 8 12 8 15 12 11
2450.0 15 12 11 12 12 9 12 8 15 13
2490.0 14 11 10 12 21 18 15 17 22 23
2530.0 15 14 12 19 25 24 25 23 27 33
2570.0 42 46 58 65 77 93 104 122 134 147
2610.0 144 141 132 115 102 106 117 136 144 131
2650.0 110 80 63 37 27 28 31 28 17 23
2690.0 27 26 25 27 33 30 36 39 33 28
2730.0 26 25 25 23 23 21 23 21 22 27
2770.0 16 19 29 28 32 20 17 33 30 32
2810.0 36 25 32 34 37 41 37 31 44 45
2850.0 48 57 67 71 79 104 117 136 157 188
2890.0 196 234 266 290 322 316 315 313 323 318
2930.0 286 229 193 167 151 127 115 104 95 93
2970.0 97 86 61 62 60 57 53 49 36 35
3010.0 30 32 36 31 32 35 36 26 41 39
3050.0 29 42 31 34 30 37 33 27 37 28
3090.0 30 31 31 25 25 32 28 24 17 34
3130.0 30 38 31 31 20 25 24 29 35 23
3170.0 23 24 27 23 24 26 34 30 29 45
3210.0 35 41 40 57 45 57 43 38 32 26
3250.0 16 26 18 29 34 24 34 19 19 20
3290.0 32 25 28 36 33 36 25 30 33 28
3330.0 25 30 18 7 21 17 31 36 29 38
3370.0 29 37 13 31 16 12 23 14 35 22
3410.0 58 27 70 50 47 35 37 41 3 34
3450.0 52 41 38 58 43 35 47 29 25 23
3490.0 34 16 20 33 13 35 55 25 20 31
3530.0 18 39 34 38 44 46 40 34 40 35
3570.0 30 26 33 20 33 53 54 53 33 42
3610.0 71 81 39 73 55 74 63 61 64 74
3650.0 42 54 108 56 45 38 30 81 14 6
3690.0 59 87 45 52 88 134 81 90 87 87
3730.0 24 35 56 44 55 91 93 82 73 57
3770.0 74 65 73 42 54 95 104 55 79 82
3810.0 88 113 55 81 61 114 83 83 106 96
3850.0 51 106 60 34 54 50 39 49 49 65
3890.0 96 83 43 69 61 90 85 94 67 59
3930.0 52 51 100 42 28 100 68 91 63 31
##END=
