##TITLE=Ethane, 1,1,2,2-tetrachloro-1,2-difluoro-
##JCAMP-DX=4.24
##DATA TYPE=INFRARED SPECTRUM
##ORIGIN=Sadtler Research Labs Under US-EPA Contract
##OWNER=NIST Standard Reference Data Program
##CAS REGISTRY NO=76-12-0
##MOLFORM=C 2 Cl 4 F 2
##XUNITS=1/CM
##YUNITS=ABSORBANCE
##XFACTOR=1.0
##YFACTOR=0.000099496
##DELTAX=4.0
##FIRSTX=450.0
##LASTX=3966.0
##FIRSTY=0.002686
##MAXX=3966
##MINX=450
##MAXY=0.99496
##MINY=0
##NPOINTS=880
##XYDATA=(X++(Y..Y))
450.0 27 37 0 54 153 128 261 259 379 324
490.0 275 208 116 96 80 69 73 103 108 139
530.0 129 139 112 80 81 59 74 64 70 38
570.0 63 55 57 56 62 57 64 90 64 72
610.0 73 72 85 91 110 95 93 79 79 69
650.0 66 73 78 59 36 88 76 69 64 75
690.0 92 119 118 128 128 110 113 89 107 144
730.0 219 376 746 1454 2427 3639 4613 5361 5198 4889
770.0 4735 5192 6500 7890 9182 8168 6570 3218 1189 686
810.0 575 657 1030 1724 3093 5057 7326 8827 8890 7401
850.0 5100 3071 1995 2033 2637 3825 5376 7268 8796 9675
890.0 10000 9162 8258 6839 6219 4913 3721 3122 2862 3131
930.0 3422 3319 2495 1645 983 630 494 402 320 269
970.0 231 231 224 235 233 235 250 271 372 543
1010.0 904 1500 2367 3295 4002 4127 3239 2376 1490 857
1050.0 587 458 380 347 374 455 680 1032 1708 2386
1090.0 2995 3240 3033 3025 3701 4955 6362 8046 7024 5526
1130.0 5123 4935 5424 5912 5096 3550 2221 1205 800 951
1170.0 1011 836 488 306 247 235 227 209 203 169
1210.0 151 128 120 105 106 108 116 132 138 158
1250.0 160 170 164 165 152 151 143 128 122 113
1290.0 111 106 112 115 130 135 142 135 112 101
1330.0 90 92 90 100 105 97 82 73 64 55
1370.0 64 64 70 66 74 68 72 77 78 79
1410.0 82 82 76 79 70 69 56 52 49 52
1450.0 53 51 53 46 53 43 49 43 47 42
1490.0 51 47 48 54 48 53 53 56 52 55
1530.0 51 52 45 48 42 43 39 42 38 41
1570.0 39 44 38 39 36 37 35 41 37 40
1610.0 41 40 42 44 40 42 36 41 39 43
1650.0 43 48 40 48 47 49 49 56 54 67
1690.0 61 64 59 51 46 44 43 44 40 40
1730.0 39 42 45 46 49 51 46 45 42 41
1770.0 37 43 40 40 37 44 40 46 43 42
1810.0 45 42 40 36 39 37 35 34 36 32
1850.0 34 31 31 36 36 39 35 41 44 45
1890.0 45 46 44 44 42 43 39 43 42 42
1930.0 38 36 35 35 31 34 31 32 30 32
1970.0 31 34 33 34 34 33 34 31 32 32
2010.0 33 35 35 35 36 40 35 35 36 37
2050.0 34 34 33 34 35 31 32 31 31 31
2090.0 34 35 35 39 40 44 47 48 48 46
2130.0 44 46 53 62 78 91 108 124 139 143
2170.0 134 120 100 78 65 49 42 37 40 41
2210.0 48 50 56 58 59 56 59 64 67 74
2250.0 77 79 75 65 57 52 48 43 43 36
2290.0 31 30 25 22 21 24 20 20 25 25
2330.0 16 20 15 25 16 24 15 26 23 28
2370.0 26 26 26 26 22 21 19 18 17 19
2410.0 21 17 17 17 20 19 16 16 16 18
2450.0 15 18 15 13 13 13 15 17 18 18
2490.0 14 16 15 15 14 11 16 14 13 15
2530.0 12 13 15 14 13 15 14 15 12 10
2570.0 13 12 14 15 11 13 14 12 14 12
2610.0 13 10 13 11 10 10 10 13 12 10
2650.0 9 14 11 12 9 9 8 7 11 11
2690.0 11 12 7 8 11 10 9 11 6 8
2730.0 11 9 8 9 7 8 11 8 9 10
2770.0 7 6 6 6 8 5 7 8 10 8
2810.0 5 7 7 9 10 11 9 7 5 9
2850.0 6 10 7 9 8 9 7 7 6 12
2890.0 10 5 7 10 10 8 11 7 10 9
2930.0 7 7 10 5 7 11 9 7 10 6
2970.0 8 11 10 7 9 12 9 10 11 11
3010.0 10 8 9 10 10 7 11 10 11 11
3050.0 9 12 10 5 5 10 14 12 10 7
3090.0 8 10 10 8 10 11 7 12 8 6
3130.0 8 11 10 11 11 13 14 12 13 10
3170.0 12 14 9 12 9 8 13 12 13 15
3210.0 13 12 9 11 8 10 11 11 13 15
3250.0 13 14 12 14 11 11 16 18 16 13
3290.0 19 16 17 12 16 15 10 12 15 15
3330.0 9 14 10 16 12 11 14 13 15 12
3370.0 13 10 8 16 18 11 15 8 9 20
3410.0 16 16 4 14 12 12 17 6 11 10
3450.0 14 10 18 19 14 11 14 19 16 22
3490.0 11 10 15 14 21 21 14 14 16 12
3530.0 7 8 17 15 9 12 17 19 22 23
3570.0 16 15 17 19 9 5 9 19 17 18
3610.0 19 18 11 12 16 11 12 23 15 13
3650.0 21 14 20 12 23 11 26 20 23 18
3690.0 12 6 6 9 15 17 22 22 16 5
3730.0 12 18 14 14 4 24 9 13 29 25
3770.0 22 16 19 11 18 12 19 16 27 16
3810.0 15 24 25 15 22 16 5 19 22 26
3850.0 20 12 12 23 19 18 12 12 21 18
3890.0 20 29 16 7 16 16 15 28 15 19
3930.0 25 12 29 16 8 16 11 8 17 17
##END=
