##TITLE=Ethane, hexafluoro-
##JCAMP-DX=4.24
##DATA TYPE=INFRARED SPECTRUM
##ORIGIN=Sadtler Research Labs Under US-EPA Contract
##OWNER=NIST Standard Reference Data Program
##CAS REGISTRY NO=76-16-4
##MOLFORM=C 2 F 6
##XUNITS=1/CM
##YUNITS=ABSORBANCE
##XFACTOR=1.0
##YFACTOR=0.000133127
##DELTAX=4.0
##FIRSTX=450.0
##LASTX=3966.0
##FIRSTY=0.000000
##MAXX=3966
##MINX=450
##MAXY=1.33127
##MINY=0
##NPOINTS=880
##XYDATA=(X++(Y..Y))
450.0 0 56 76 106 58 80 69 67 64 66
490.0 56 72 64 72 93 106 110 109 120 102
530.0 91 86 90 79 86 80 71 72 67 58
570.0 59 72 59 80 66 67 54 56 77 68
610.0 55 65 70 68 63 46 56 56 66 61
650.0 61 68 61 65 54 63 54 56 58 59
690.0 55 90 112 211 240 297 387 329 249 283
730.0 160 118 58 72 54 55 58 68 64 56
770.0 66 57 60 48 62 53 56 59 58 56
810.0 58 60 52 61 48 63 51 60 61 62
850.0 55 51 58 57 65 49 54 53 63 59
890.0 55 59 55 61 51 61 49 56 52 57
930.0 54 52 55 52 56 52 62 49 59 51
970.0 58 48 54 57 52 60 51 63 50 62
1010.0 56 63 61 69 66 57 70 57 65 50
1050.0 71 53 63 62 68 65 55 81 56 108
1090.0 138 342 622 1168 1497 1850 2513 1914 1923 1761
1130.0 580 233 181 196 156 154 123 72 70 57
1170.0 78 60 81 79 93 102 124 148 151 158
1210.0 136 140 161 271 538 1185 2496 4666 7696 10000
1250.0 9761 6581 3139 1239 471 175 103 86 82 81
1290.0 84 95 97 113 125 150 160 177 187 190
1330.0 188 173 157 133 123 100 89 71 66 62
1370.0 53 59 52 57 50 57 50 54 48 53
1410.0 53 49 56 52 55 52 59 61 62 59
1450.0 59 61 63 65 53 62 52 56 49 53
1490.0 49 52 53 50 52 51 51 45 52 46
1530.0 53 47 50 49 51 49 50 50 53 52
1570.0 49 49 54 52 55 57 58 58 60 57
1610.0 60 59 64 60 66 63 64 61 58 55
1650.0 51 52 54 46 49 49 51 48 51 48
1690.0 52 48 51 54 55 55 54 55 60 62
1730.0 63 65 59 59 55 51 55 54 53 52
1770.0 56 51 51 49 53 49 52 48 46 51
1810.0 48 49 48 53 49 51 49 50 49 53
1850.0 54 55 57 59 58 54 56 53 51 50
1890.0 51 48 48 47 49 50 48 52 51 50
1930.0 53 52 53 53 54 51 53 53 53 50
1970.0 50 48 47 47 48 48 48 49 47 50
2010.0 49 47 47 47 46 48 51 56 62 67
2050.0 68 66 61 53 49 49 48 47 46 46
2090.0 46 47 47 48 48 48 47 49 50 48
2130.0 48 49 47 49 48 48 47 46 48 48
2170.0 48 47 47 44 46 44 44 45 45 44
2210.0 45 45 44 45 44 45 45 47 46 45
2250.0 49 49 48 48 48 48 48 50 50 49
2290.0 51 54 53 52 55 56 56 57 60 61
2330.0 54 60 58 60 72 66 63 55 45 44
2370.0 45 45 51 50 50 48 49 49 49 49
2410.0 48 47 47 48 47 51 50 51 53 53
2450.0 56 56 57 58 60 56 58 56 57 58
2490.0 57 56 55 56 55 56 57 55 55 55
2530.0 54 52 51 48 49 49 50 51 50 50
2570.0 50 51 49 47 50 51 49 48 51 48
2610.0 47 48 49 48 51 50 52 55 57 57
2650.0 61 61 61 59 58 57 54 51 51 50
2690.0 48 50 48 49 49 50 51 48 50 48
2730.0 50 48 50 49 49 52 52 48 48 51
2770.0 50 50 51 54 49 51 50 51 50 51
2810.0 50 49 51 51 51 50 53 52 51 51
2850.0 50 52 52 53 52 51 54 55 53 51
2890.0 53 52 55 52 50 52 54 55 55 55
2930.0 56 56 56 56 55 56 56 54 57 55
2970.0 58 58 56 53 52 51 53 52 50 51
3010.0 52 50 48 52 49 50 50 51 50 50
3050.0 51 49 53 50 52 49 50 51 51 51
3090.0 50 50 49 53 51 51 52 52 51 52
3130.0 50 51 52 52 52 51 52 53 52 48
3170.0 49 50 50 50 51 52 47 53 54 54
3210.0 55 52 54 53 51 51 51 49 51 51
3250.0 55 53 54 51 54 52 56 51 51 53
3290.0 54 54 53 52 50 54 54 52 51 54
3330.0 54 55 53 52 52 52 51 55 55 55
3370.0 52 48 52 51 50 49 56 51 54 53
3410.0 56 53 55 54 52 49 50 52 55 53
3450.0 45 51 49 51 55 54 56 55 54 49
3490.0 45 48 50 52 50 47 55 50 55 51
3530.0 47 53 50 55 54 53 53 46 47 56
3570.0 57 54 50 44 58 49 58 52 55 50
3610.0 58 57 57 54 47 53 58 51 55 45
3650.0 53 47 52 55 48 53 46 62 49 60
3690.0 56 55 48 49 49 52 51 47 53 52
3730.0 54 55 49 50 70 45 56 54 52 61
3770.0 54 49 52 59 48 47 46 51 49 55
3810.0 51 51 53 51 56 44 53 61 57 59
3850.0 50 58 54 45 53 58 51 51 52 65
3890.0 57 55 48 55 44 53 51 49 50 51
3930.0 57 45 44 45 48 54 53 52 44 44
##END=
