##TITLE=Dichlorotetrafluoroethane
##JCAMP-DX=4.24
##DATA TYPE=INFRARED SPECTRUM
##ORIGIN=Sadtler Research Labs Under US-EPA Contract
##OWNER=NIST Standard Reference Data Program
##CAS REGISTRY NO=76-14-2
##MOLFORM=C 2 Cl 2 F 4
##XUNITS=1/CM
##YUNITS=ABSORBANCE
##XFACTOR=1.0
##YFACTOR=0.000135019
##DELTAX=4.0
##FIRSTX=450.0
##LASTX=3966.0
##FIRSTY=0.015662
##MAXX=3966
##MINX=450
##MAXY=1.35019
##MINY=0
##NPOINTS=880
##XYDATA=(X++(Y..Y))
450.0 116 51 34 39 4 3 3 0 15 20
490.0 41 73 33 22 61 29 35 15 21 2
530.0 12 10 4 36 13 27 15 20 23 32
570.0 12 22 21 19 32 30 81 126 225 322
610.0 441 488 529 458 337 220 95 49 43 31
650.0 30 34 62 103 157 185 234 240 180 139
690.0 91 44 33 28 6 13 15 17 43 85
730.0 125 147 156 126 107 56 37 22 35 33
770.0 36 29 28 26 22 37 27 40 48 57
810.0 76 124 244 505 1013 1871 3065 4202 4862 4965
850.0 4258 2907 1417 700 751 946 1170 1383 1508 1573
890.0 1440 1276 1110 1124 1577 2647 3554 4386 4842 3946
930.0 3259 1697 936 900 829 783 616 467 338 234
970.0 181 166 165 156 159 144 136 126 133 134
1010.0 126 134 162 267 515 1068 2051 3419 4887 6239
1050.0 7079 5972 4541 2624 1027 406 268 240 265 309
1090.0 405 521 704 882 1232 1625 1991 2753 3569 4570
1130.0 5531 6011 6077 5488 4288 2984 2043 1691 2035 2969
1170.0 4419 6024 7896 10000 9563 8672 8294 5511 3539 2305
1210.0 1339 824 756 1032 1321 1505 1475 1191 1073 1019
1250.0 1042 1224 1494 1731 1833 1738 1437 1106 812 595
1290.0 483 424 337 240 156 96 81 71 71 70
1330.0 67 62 60 63 70 75 75 79 71 65
1370.0 61 54 53 51 50 49 46 44 43 44
1410.0 44 45 39 37 43 50 50 49 44 36
1450.0 29 25 22 27 32 33 30 31 33 33
1490.0 39 39 39 41 35 29 27 24 20 23
1530.0 16 19 22 27 23 27 22 20 13 12
1570.0 8 9 9 10 9 10 8 6 8 9
1610.0 10 10 12 10 9 9 10 10 10 9
1650.0 13 13 14 22 23 25 29 26 24 20
1690.0 17 13 14 11 12 16 17 18 22 22
1730.0 21 21 20 16 14 11 7 8 6 7
1770.0 8 10 12 13 12 12 11 11 11 13
1810.0 10 12 12 11 13 16 16 17 19 19
1850.0 20 18 18 16 13 13 13 13 16 16
1890.0 16 16 14 13 13 11 11 7 9 7
1930.0 7 6 7 8 8 8 7 7 7 7
1970.0 7 6 7 6 7 6 5 6 7 5
2010.0 6 5 9 7 9 7 8 9 6 5
2050.0 6 6 4 4 3 5 6 5 5 4
2090.0 7 6 8 8 8 8 10 9 7 9
2130.0 10 8 8 9 9 10 10 13 11 12
2170.0 14 16 15 20 23 28 32 38 40 40
2210.0 39 41 43 43 45 55 58 60 56 53
2250.0 45 36 32 27 26 24 24 26 30 35
2290.0 37 40 45 47 47 44 45 36 32 32
2330.0 25 26 34 40 33 45 41 40 33 24
2370.0 20 20 13 8 8 13 12 15 17 16
2410.0 14 13 15 15 20 22 26 30 33 35
2450.0 35 34 31 26 21 17 16 12 9 8
2490.0 7 5 5 7 6 7 6 5 5 5
2530.0 4 4 4 5 3 5 4 3 5 2
2570.0 4 4 2 4 3 1 2 4 2 6
2610.0 5 2 2 1 3 2 3 2 3 4
2650.0 0 1 3 3 4 3 2 5 5 3
2690.0 3 1 3 3 3 2 4 2 2 3
2730.0 3 4 5 5 4 3 3 2 1 4
2770.0 2 5 4 3 5 5 5 2 1 3
2810.0 6 4 5 4 6 4 6 3 5 6
2850.0 6 4 3 6 4 3 1 4 6 5
2890.0 5 6 9 7 7 4 6 6 4 5
2930.0 5 4 4 4 6 4 5 6 6 5
2970.0 6 6 4 7 5 6 4 8 6 3
3010.0 5 6 3 3 4 3 5 4 5 7
3050.0 5 6 5 5 5 6 6 4 3 2
3090.0 5 7 4 4 6 3 2 5 7 10
3130.0 9 7 5 6 6 5 8 7 5 5
3170.0 6 3 6 7 6 8 7 7 4 6
3210.0 9 9 10 9 7 9 11 7 6 5
3250.0 11 9 7 7 8 7 7 8 6 9
3290.0 11 12 10 11 7 11 7 9 10 12
3330.0 7 5 12 7 11 9 7 8 13 12
3370.0 8 6 6 12 10 7 10 12 15 13
3410.0 8 11 7 10 14 9 10 8 9 8
3450.0 14 9 10 15 14 10 11 5 12 11
3490.0 10 9 6 7 10 10 8 8 9 4
3530.0 2 5 13 16 6 11 7 13 11 10
3570.0 10 5 7 5 7 5 9 13 10 18
3610.0 6 11 10 4 16 11 11 8 13 7
3650.0 0 16 8 7 14 13 15 8 10 8
3690.0 9 7 14 12 16 14 19 12 11 5
3730.0 11 12 20 15 14 15 3 9 8 13
3770.0 13 15 14 11 13 15 13 20 9 5
3810.0 10 10 16 17 11 17 21 9 10 14
3850.0 16 9 9 14 16 10 6 16 16 16
3890.0 13 8 18 9 16 26 16 4 7 15
3930.0 17 14 13 10 6 16 14 11 6 8
##END=
