##TITLE=Ethane, chloropentafluoro-
##JCAMP-DX=4.24
##DATA TYPE=INFRARED SPECTRUM
##ORIGIN=Sadtler Research Labs Under US-EPA Contract
##OWNER=NIST Standard Reference Data Program
##CAS REGISTRY NO=76-15-3
##MOLFORM=C 2 Cl F 5
##XUNITS=1/CM
##YUNITS=ABSORBANCE
##XFACTOR=1.0
##YFACTOR=0.000143506
##DELTAX=4.0
##FIRSTX=450.0
##LASTX=3966.0
##FIRSTY=0.000000
##MAXX=3966
##MINX=450
##MAXY=1.43506
##MINY=0
##NPOINTS=880
##XYDATA=(X++(Y..Y))
450.0 0 69 78 65 77 33 76 62 28 61
490.0 42 58 21 44 53 50 47 66 70 52
530.0 67 67 92 87 88 88 98 127 109 114
570.0 87 93 52 70 52 66 68 59 61 55
610.0 56 37 46 30 51 61 124 202 227 330
650.0 267 266 226 121 93 75 47 58 38 51
690.0 57 36 53 50 45 35 65 51 55 56
730.0 64 67 43 108 127 318 395 568 580 531
770.0 439 325 107 87 30 54 39 43 43 43
810.0 56 37 52 42 53 39 47 45 39 42
850.0 40 53 44 57 60 70 66 76 76 66
890.0 72 58 60 51 65 59 66 69 63 77
930.0 68 98 104 144 184 268 369 578 1008 1657
970.0 2465 3053 3747 3650 3405 2801 1696 1129 906 713
1010.0 563 369 206 135 101 96 84 80 75 69
1050.0 66 55 60 56 63 64 87 92 103 121
1090.0 129 155 190 306 496 887 1463 2195 2811 3380
1130.0 3739 2852 2292 1442 566 251 258 370 665 1063
1170.0 1574 1895 2176 2495 1833 1238 1059 719 547 516
1210.0 578 793 1251 2071 3587 6282 9787 9408 10000 5763
1250.0 2687 1718 1013 456 239 123 134 129 163 170
1290.0 193 199 197 206 199 212 220 271 327 413
1330.0 514 641 768 853 891 831 696 540 361 181
1370.0 94 57 48 42 40 44 41 50 50 61
1410.0 59 65 59 54 52 47 48 42 47 42
1450.0 44 43 44 45 45 42 39 38 32 36
1490.0 34 35 33 40 39 37 48 49 53 57
1530.0 61 60 62 63 59 57 52 52 49 54
1570.0 52 55 48 51 45 42 40 40 39 39
1610.0 41 36 40 35 38 38 37 36 35 34
1650.0 37 36 32 38 34 33 36 33 35 31
1690.0 34 34 38 33 37 39 39 38 43 39
1730.0 34 36 34 34 34 35 33 39 39 42
1770.0 43 44 45 42 41 37 35 35 34 37
1810.0 36 39 39 40 39 41 39 39 38 34
1850.0 35 30 33 32 32 30 32 33 33 35
1890.0 34 33 32 33 32 32 28 31 31 31
1930.0 32 31 31 31 33 32 32 31 33 33
1970.0 34 34 36 38 42 46 49 49 46 40
2010.0 34 33 34 28 31 31 32 31 30 30
2050.0 30 28 30 30 30 31 31 31 27 30
2090.0 30 30 30 32 32 30 31 32 30 31
2130.0 32 27 30 30 30 30 30 32 28 31
2170.0 31 31 30 28 30 32 31 34 33 35
2210.0 37 37 35 34 33 36 34 34 34 38
2250.0 37 37 35 35 34 32 32 33 38 40
2290.0 43 43 44 45 40 28 31 27 31 39
2330.0 36 42 46 51 32 53 44 48 50 46
2370.0 41 37 27 23 23 28 28 32 33 33
2410.0 32 32 33 32 35 34 34 36 37 40
2450.0 42 43 44 47 46 44 47 42 42 40
2490.0 38 35 35 35 33 34 33 35 32 35
2530.0 34 28 31 33 31 30 34 33 37 37
2570.0 41 42 43 44 42 39 35 32 27 27
2610.0 27 24 24 24 28 25 22 24 26 25
2650.0 22 24 24 24 25 23 22 24 24 25
2690.0 24 22 24 22 22 22 24 23 23 23
2730.0 24 24 27 25 24 24 24 24 22 25
2770.0 23 24 22 22 22 23 22 24 24 26
2810.0 27 22 25 24 26 25 22 24 23 25
2850.0 23 25 22 28 25 25 25 25 25 23
2890.0 26 25 28 25 26 23 24 25 26 25
2930.0 26 26 23 26 28 23 27 27 27 26
2970.0 28 27 24 27 25 26 25 26 27 24
3010.0 24 26 23 26 23 25 24 25 25 26
3050.0 28 25 27 27 26 26 26 26 25 25
3090.0 28 28 27 25 25 26 25 26 28 30
3130.0 31 26 26 28 28 28 30 27 26 27
3170.0 27 24 25 26 30 28 28 30 26 28
3210.0 28 30 28 30 31 28 33 28 26 26
3250.0 33 31 27 25 28 27 28 30 27 26
3290.0 30 30 32 30 27 31 30 28 27 32
3330.0 27 27 28 28 33 32 30 27 30 34
3370.0 27 31 28 32 28 30 25 30 32 32
3410.0 30 30 27 27 32 32 26 28 27 32
3450.0 32 30 28 30 27 30 35 30 33 25
3490.0 27 31 30 26 25 26 25 25 31 28
3530.0 28 25 33 36 28 31 31 32 28 24
3570.0 30 28 30 25 35 27 26 32 34 37
3610.0 31 28 25 26 35 32 31 26 34 28
3650.0 21 36 31 33 39 26 32 36 37 31
3690.0 34 33 35 31 31 33 36 34 37 34
3730.0 37 38 43 32 32 28 26 34 25 31
3770.0 34 39 38 34 35 35 31 34 28 36
3810.0 33 37 41 28 30 33 39 27 30 39
3850.0 37 35 28 36 30 32 21 39 30 35
3890.0 33 26 41 35 43 45 31 23 31 31
3930.0 35 27 36 31 31 36 42 31 26 23
##END=
