##TITLE=9-H-Hexadecafluorononanoic acid
##JCAMP-DX=4.24
##DATA TYPE=INFRARED SPECTRUM
##ORIGIN=Sadtler Research Labs Under US-EPA Contract
##OWNER=NIST Standard Reference Data Program
##CAS REGISTRY NO=76-21-1
##MOLFORM=C 9 H 2 F 16 O 2
##XUNITS=1/CM
##YUNITS=ABSORBANCE
##XFACTOR=1.0
##YFACTOR=0.000124368
##DELTAX=4.0
##FIRSTX=450.0
##LASTX=3966.0
##FIRSTY=0.016914
##MAXX=3966
##MINX=450
##MAXY=1.24368
##MINY=0
##NPOINTS=880
##XYDATA=(X++(Y..Y))
450.0 136 82 21 50 43 52 36 4 13 57
490.0 91 106 158 189 220 245 293 324 388 425
530.0 467 544 674 825 919 897 835 779 800 819
570.0 827 806 757 713 710 666 608 571 571 579
610.0 619 646 670 726 759 795 801 816 837 833
650.0 799 760 789 904 928 786 672 612 609 633
690.0 650 732 750 724 652 605 512 462 454 512
730.0 612 670 619 484 439 459 543 653 781 922
770.0 1032 1002 875 808 765 722 706 699 673 652
810.0 605 550 524 499 495 486 467 428 372 296
850.0 246 223 230 257 282 296 303 304 303 301
890.0 296 277 248 211 182 164 154 147 152 153
930.0 166 163 170 172 172 172 173 195 211 243
970.0 270 299 326 354 372 375 357 337 306 257
1010.0 218 201 196 197 211 256 313 389 456 495
1050.0 496 479 454 424 402 397 416 443 485 547
1090.0 629 717 818 941 1109 1352 1652 2015 2484 3049
1130.0 3501 3708 3838 4044 4169 4107 3897 3640 3525 3581
1170.0 3750 3899 4030 4120 4227 4366 4528 4720 4974 5524
1210.0 6467 7876 9242 10000 9268 7377 5371 3874 2923 2289
1250.0 1871 1578 1388 1255 1173 1100 1019 921 809 711
1290.0 628 558 496 451 411 390 381 384 394 405
1330.0 415 426 435 417 384 357 356 363 375 361
1370.0 330 335 373 442 500 506 475 486 496 427
1410.0 351 255 181 126 103 82 75 69 61 52
1450.0 56 55 58 53 43 43 46 41 34 37
1490.0 32 25 34 36 43 44 41 37 48 40
1530.0 44 36 43 44 41 37 35 44 40 36
1570.0 36 30 24 23 19 24 24 25 21 21
1610.0 25 20 26 11 12 0 10 18 31 43
1650.0 62 67 74 68 74 78 89 76 91 87
1690.0 85 80 95 89 88 80 87 90 91 88
1730.0 92 105 101 107 113 127 137 154 178 217
1770.0 263 310 342 375 421 484 583 728 980 1453
1810.0 2235 3024 3153 2398 1542 1025 809 696 590 458
1850.0 349 277 229 189 160 139 121 109 101 93
1890.0 86 79 73 71 69 65 65 64 61 64
1930.0 61 58 60 58 57 57 54 54 53 51
1970.0 50 51 50 50 50 49 49 49 46 45
2010.0 43 44 44 45 41 40 40 39 36 38
2050.0 38 41 41 42 43 44 42 42 41 40
2090.0 38 36 36 36 37 37 40 40 40 41
2130.0 38 38 39 40 39 39 38 39 41 39
2170.0 40 40 40 42 41 42 43 40 39 40
2210.0 42 44 43 45 43 47 46 48 47 49
2250.0 50 52 52 50 45 43 40 38 39 40
2290.0 41 43 40 36 35 35 32 28 26 26
2330.0 25 18 26 10 29 39 1 15 0 5
2370.0 16 32 43 46 56 56 61 59 59 58
2410.0 57 54 55 52 51 50 48 50 49 50
2450.0 46 49 45 46 44 43 44 43 45 44
2490.0 42 44 43 43 43 41 40 37 37 36
2530.0 36 33 33 34 32 30 29 27 26 24
2570.0 24 20 20 21 20 18 18 16 12 13
2610.0 13 14 14 13 10 11 9 10 10 8
2650.0 9 9 7 7 5 6 7 5 6 8
2690.0 5 5 5 5 6 6 3 4 2 3
2730.0 4 3 4 2 2 0 2 0 2 2
2770.0 2 4 2 1 4 3 1 4 4 4
2810.0 6 4 5 5 4 2 2 1 3 3
2850.0 2 1 6 7 5 8 7 8 7 7
2890.0 8 7 9 9 11 12 12 10 13 16
2930.0 22 23 26 28 21 18 20 21 22 28
2970.0 34 46 68 95 91 66 49 54 76 99
3010.0 111 95 74 52 37 28 23 23 20 18
3050.0 12 15 15 15 13 15 12 12 10 9
3090.0 11 10 13 12 12 10 12 11 13 13
3130.0 12 11 10 13 11 12 12 11 14 9
3170.0 11 11 12 12 10 11 12 10 11 11
3210.0 10 9 10 7 4 7 5 7 6 5
3250.0 7 3 6 6 4 0 4 5 2 1
3290.0 3 3 3 6 5 9 12 17 16 17
3330.0 18 16 23 21 19 21 22 25 28 30
3370.0 26 25 25 24 22 25 28 24 26 30
3410.0 24 21 26 31 31 24 28 27 25 27
3450.0 24 21 26 28 27 29 22 25 28 26
3490.0 21 22 30 35 40 28 32 30 33 47
3530.0 39 35 45 48 79 93 100 149 220 503
3570.0 1309 2468 1902 727 304 217 160 177 172 209
3610.0 200 153 112 83 58 75 51 31 31 42
3650.0 74 52 36 25 28 39 58 43 38 21
3690.0 60 22 29 32 25 39 50 24 41 51
3730.0 32 55 71 34 54 80 36 38 38 27
3770.0 29 18 23 31 28 16 8 30 49 24
3810.0 38 17 61 41 36 34 36 54 56 21
3850.0 25 83 41 31 59 46 47 38 54 41
3890.0 41 20 43 55 56 17 32 42 33 37
3930.0 34 42 21 24 36 44 35 30 31 30
##END=
