##TITLE=2,2-Dimethyl-1,3-butanediol
##JCAMP-DX=4.24
##DATA TYPE=INFRARED SPECTRUM
##ORIGIN=Sadtler Research Labs Under US-EPA Contract
##OWNER=NIST Standard Reference Data Program
##CAS REGISTRY NO=76-35-7
##MOLFORM=C 6 H 14 O 2
##XUNITS=1/CM
##YUNITS=ABSORBANCE
##XFACTOR=1.0
##YFACTOR=0.000088651
##DELTAX=4.0
##FIRSTX=450.0
##LASTX=3966.0
##FIRSTY=0.078012
##MAXX=3966
##MINX=450
##MAXY=0.88651
##MINY=0
##NPOINTS=880
##XYDATA=(X++(Y..Y))
450.0 880 319 150 246 82 185 192 163 200 216
490.0 254 207 361 398 467 499 329 467 87 215
530.0 159 158 259 203 94 209 267 217 422 183
570.0 605 624 434 458 402 331 367 264 272 175
610.0 196 107 54 183 145 127 119 127 112 137
650.0 102 139 119 148 161 134 119 82 138 130
690.0 143 130 145 139 151 210 162 210 228 225
730.0 195 187 144 137 105 106 84 29 0 193
770.0 111 126 111 108 117 123 127 132 154 171
810.0 147 128 173 149 161 198 249 294 342 403
850.0 429 440 392 369 369 314 318 341 420 544
890.0 751 1051 1432 1820 2146 2307 2308 2083 1743 1417
930.0 1116 938 844 837 860 895 947 984 1008 988
970.0 960 921 898 901 963 1062 1208 1402 1619 1880
1010.0 2301 2927 3612 4433 5254 6079 6657 7116 7110 6900
1050.0 6465 5941 5428 4959 4765 4716 4887 5114 5500 5700
1090.0 5848 5697 5306 4680 3929 3249 2644 2185 1840 1587
1130.0 1388 1255 1200 1196 1227 1265 1299 1318 1351 1392
1170.0 1439 1474 1493 1490 1468 1419 1401 1379 1345 1340
1210.0 1326 1344 1343 1370 1393 1447 1512 1591 1668 1721
1250.0 1773 1802 1812 1785 1753 1696 1664 1653 1661 1666
1290.0 1669 1656 1622 1578 1488 1394 1286 1208 1166 1180
1330.0 1244 1330 1417 1449 1478 1521 1654 1851 2135 2462
1370.0 2983 3288 3433 3686 3661 3605 3395 3163 2931 2798
1410.0 2690 2492 2374 2150 1936 1649 1488 1373 1372 1445
1450.0 1617 1772 1966 2128 2337 2509 2502 2467 2180 1841
1490.0 1479 1090 736 479 380 289 239 225 196 182
1530.0 151 173 135 150 120 131 99 120 116 94
1570.0 95 91 84 84 85 87 80 80 82 85
1610.0 77 94 78 99 73 88 66 87 59 83
1650.0 49 102 59 49 64 52 47 61 40 73
1690.0 37 39 47 76 37 41 44 45 54 44
1730.0 60 64 87 67 85 101 129 126 145 146
1770.0 125 107 60 67 35 53 32 34 28 44
1810.0 18 39 40 19 40 25 31 19 25 29
1850.0 24 15 31 20 20 29 22 18 23 22
1890.0 27 24 22 24 18 26 25 36 27 25
1930.0 28 27 31 28 40 26 36 29 29 29
1970.0 34 32 30 33 31 35 29 33 37 32
2010.0 30 27 33 27 31 30 30 36 36 43
2050.0 40 44 48 56 54 59 52 54 51 48
2090.0 42 37 43 37 38 34 37 29 30 28
2130.0 28 20 20 14 14 12 8 12 9 12
2170.0 5 10 10 12 18 14 15 14 19 15
2210.0 20 22 21 18 22 19 17 16 13 15
2250.0 8 13 14 16 16 19 21 23 23 24
2290.0 30 26 36 36 36 39 34 43 41 44
2330.0 23 29 16 22 6 25 36 34 11 10
2370.0 7 8 15 21 27 33 39 42 45 43
2410.0 47 45 43 43 38 42 40 39 35 31
2450.0 35 34 30 28 29 23 24 26 26 24
2490.0 32 30 26 29 26 27 25 27 32 32
2530.0 30 28 28 30 31 37 37 35 40 40
2570.0 48 39 42 49 49 55 54 59 63 71
2610.0 68 77 83 96 106 113 125 140 158 163
2650.0 167 177 186 187 181 188 190 185 188 178
2690.0 179 181 187 196 204 208 225 244 258 271
2730.0 292 297 309 317 322 331 339 346 351 362
2770.0 372 383 392 419 443 478 497 532 568 611
2810.0 654 706 761 823 904 981 1093 1215 1352 1529
2850.0 1738 1973 2243 2649 3186 3885 4626 5307 5893 6171
2890.0 6055 5720 5382 5087 4939 4929 5039 5201 5360 5483
2930.0 5566 5718 5863 6053 6217 6449 6786 7393 8191 9014
2970.0 9693 10000 9944 9286 8116 6748 5274 3806 2618 1712
3010.0 1071 672 461 339 270 227 214 192 183 173
3050.0 163 155 146 133 131 121 107 108 106 101
3090.0 98 97 96 93 93 82 80 85 87 88
3130.0 82 92 95 94 82 99 90 88 100 99
3170.0 104 104 114 119 107 104 106 110 92 93
3210.0 88 77 60 61 63 53 41 37 24 19
3250.0 15 14 16 16 23 18 9 28 21 27
3290.0 30 25 25 23 20 35 36 28 43 38
3330.0 50 41 58 42 54 52 53 67 63 71
3370.0 75 60 57 59 62 66 65 75 74 76
3410.0 71 96 103 103 100 105 102 100 106 115
3450.0 108 105 110 94 91 87 90 91 77 75
3490.0 92 90 86 95 105 105 114 104 122 118
3530.0 121 117 136 152 179 222 309 423 634 902
3570.0 1252 1661 2095 2491 2748 2864 2767 2400 2046 1610
3610.0 1252 926 719 605 512 521 552 642 799 967
3650.0 1204 1451 1659 1834 1859 1860 1693 1451 1151 874
3690.0 584 395 249 118 87 55 54 67 54 30
3730.0 24 52 43 20 78 23 29 30 11 32
3770.0 6 23 21 27 18 36 16 45 51 55
3810.0 45 36 20 34 25 18 40 27 32 37
3850.0 42 71 29 71 44 73 77 91 82 114
3890.0 68 22 41 55 63 37 49 67 41 55
3930.0 72 41 9 50 22 18 9 22 27 10
##END=
