##TITLE=2,2,3,3-Tetrafluoro-1-propanol
##JCAMP-DX=4.24
##DATA TYPE=INFRARED SPECTRUM
##ORIGIN=Sadtler Research Labs Under US-EPA Contract
##OWNER=NIST Standard Reference Data Program
##CAS REGISTRY NO=76-37-9
##MOLFORM=C 3 H 4 F 4 O
##XUNITS=1/CM
##YUNITS=ABSORBANCE
##XFACTOR=1.0
##YFACTOR=0.000084399
##DELTAX=4.0
##FIRSTX=450.0
##LASTX=3966.0
##FIRSTY=0.031819
##MAXX=3966
##MINX=450
##MAXY=0.84399
##MINY=0
##NPOINTS=880
##XYDATA=(X++(Y..Y))
450.0 377 254 78 177 237 252 380 359 375 158
490.0 117 131 110 49 162 206 198 244 338 409
530.0 543 645 663 734 742 576 520 397 212 119
570.0 187 224 276 353 366 335 300 277 223 195
610.0 178 129 88 133 123 157 145 107 199 238
650.0 206 318 389 428 485 411 497 563 609 581
690.0 674 611 535 441 353 196 221 150 218 212
730.0 37 317 45 175 390 285 86 174 107 126
770.0 192 118 193 228 230 320 274 298 291 360
810.0 445 477 604 690 800 1008 1015 947 772 670
850.0 494 332 254 209 174 185 163 206 190 208
890.0 216 255 363 404 486 595 645 684 710 718
930.0 698 656 612 583 526 477 398 363 321 273
970.0 273 259 264 280 279 317 329 343 379 402
1010.0 436 427 471 517 490 686 755 828 865 1152
1050.0 1378 1633 1987 2260 2534 2804 2888 2785 2699 2567
1090.0 2458 2586 3032 3801 4966 6442 7824 9299 10000 9982
1130.0 9289 8430 7689 6552 5091 3967 3018 2196 1714 1520
1170.0 1515 1622 1808 2022 2228 2443 2573 2519 2453 2287
1210.0 2087 1984 1917 1824 1762 1677 1595 1505 1376 1273
1250.0 1172 1053 966 903 866 856 826 802 768 728
1290.0 678 641 602 562 537 492 446 413 387 389
1330.0 408 458 541 622 712 788 826 824 778 682
1370.0 574 500 429 401 380 398 415 432 464 473
1410.0 470 448 410 351 315 253 200 174 165 171
1450.0 222 229 277 289 303 242 235 200 149 129
1490.0 125 92 85 75 68 58 101 52 58 61
1530.0 70 71 35 38 51 79 49 23 14 51
1570.0 43 47 46 50 64 62 40 78 47 57
1610.0 67 36 52 39 59 38 45 33 45 54
1650.0 19 17 22 68 31 45 35 48 36 26
1690.0 40 42 13 13 48 42 48 23 33 54
1730.0 22 46 15 46 44 42 44 41 38 46
1770.0 47 32 46 44 46 40 35 43 50 37
1810.0 39 47 41 39 38 28 38 32 36 26
1850.0 37 41 44 30 24 34 33 32 33 28
1890.0 35 29 29 29 35 32 36 28 32 30
1930.0 31 34 31 33 31 33 33 34 35 30
1970.0 31 32 35 34 29 33 30 31 30 33
2010.0 35 36 36 36 33 32 32 33 35 35
2050.0 35 35 31 33 37 36 33 33 35 31
2090.0 35 34 31 33 36 42 40 46 44 47
2130.0 51 53 49 55 50 51 54 51 45 42
2170.0 40 37 43 43 44 38 44 46 45 45
2210.0 43 50 58 60 57 61 62 55 49 50
2250.0 49 46 45 47 48 50 47 48 45 41
2290.0 42 39 39 38 38 36 34 37 38 32
2330.0 25 31 29 36 35 29 26 20 27 39
2370.0 27 31 28 24 32 31 23 23 27 24
2410.0 26 23 19 22 23 21 20 24 24 20
2450.0 23 23 24 25 29 28 29 30 24 25
2490.0 20 23 24 22 23 21 22 23 23 25
2530.0 24 20 23 23 22 21 19 21 15 18
2570.0 17 15 16 15 18 19 16 16 17 14
2610.0 12 17 15 18 19 17 14 14 17 13
2650.0 17 19 24 21 16 19 18 20 25 22
2690.0 24 25 22 22 20 23 25 26 20 24
2730.0 25 24 25 27 29 31 38 36 35 36
2770.0 38 44 43 44 46 54 50 57 63 64
2810.0 69 72 74 79 84 78 81 87 98 110
2850.0 90 93 96 113 126 131 139 164 179 207
2890.0 237 262 282 288 269 252 240 229 229 246
2930.0 255 308 377 432 486 540 552 516 487 469
2970.0 470 490 532 612 694 693 705 672 597 529
3010.0 456 349 260 197 139 110 85 69 65 64
3050.0 62 52 42 47 38 45 38 33 29 35
3090.0 25 25 27 21 19 24 18 19 16 26
3130.0 17 18 28 16 16 22 20 12 16 13
3170.0 20 12 21 18 19 18 18 18 20 26
3210.0 18 15 15 18 18 15 18 16 18 15
3250.0 10 18 19 13 13 7 11 17 20 21
3290.0 16 20 10 12 15 19 18 24 22 14
3330.0 15 17 21 22 20 22 17 17 26 21
3370.0 29 23 26 27 23 29 19 25 29 21
3410.0 27 24 15 19 29 29 18 21 22 17
3450.0 21 20 25 26 14 25 22 14 30 23
3490.0 24 19 12 18 30 24 27 22 23 43
3530.0 31 20 31 29 33 53 35 37 41 64
3570.0 52 30 42 54 54 66 53 59 69 67
3610.0 76 98 90 113 112 118 181 247 376 574
3650.0 729 931 1075 1090 1006 909 704 573 408 288
3690.0 210 149 168 134 131 124 109 113 100 116
3730.0 104 73 95 61 38 54 37 75 49 63
3770.0 57 46 53 63 48 45 28 41 25 32
3810.0 17 45 0 27 46 63 41 38 36 52
3850.0 63 28 31 44 49 61 76 48 51 30
3890.0 88 51 51 85 41 55 73 76 77 24
3930.0 58 65 63 73 57 83 70 50 65 36
##END=
