##TITLE=Ethylphenylmalonic acid diethyl ester
##JCAMP-DX=4.24
##DATA TYPE=INFRARED SPECTRUM
##ORIGIN=Sadtler Research Labs Under US-EPA Contract
##OWNER=NIST Standard Reference Data Program
##CAS REGISTRY NO=76-67-5
##MOLFORM=C 15 H 20 O 4
##XUNITS=1/CM
##YUNITS=ABSORBANCE
##XFACTOR=1.0
##YFACTOR=0.000099036
##DELTAX=4.0
##FIRSTX=450.0
##LASTX=3966.0
##FIRSTY=0.000000
##MAXX=3966
##MINX=450
##MAXY=0.99036
##MINY=0
##NPOINTS=880
##XYDATA=(X++(Y..Y))
450.0 0 340 573 340 438 374 507 372 415 595
490.0 551 504 503 547 477 545 446 514 498 591
530.0 509 619 554 571 638 522 569 440 472 470
570.0 456 395 443 480 420 457 418 473 464 542
610.0 590 628 652 648 645 422 451 438 459 441
650.0 506 476 495 521 525 604 651 729 819 1053
690.0 1441 1783 1842 1499 1231 998 949 962 1007 861
730.0 1049 1048 1133 1103 1064 932 788 759 708 712
770.0 691 740 703 679 679 681 695 651 657 609
810.0 631 610 612 611 612 621 598 619 603 647
850.0 660 759 839 902 911 808 715 606 573 517
890.0 510 493 513 518 530 550 538 535 533 579
930.0 592 653 685 686 680 687 722 753 781 766
970.0 751 706 709 697 689 707 736 804 876 1028
1010.0 1212 1528 1982 2596 3195 3474 3288 2710 2108 1634
1050.0 1374 1242 1249 1330 1454 1597 1756 1957 2130 2393
1090.0 2678 3026 3336 3612 3767 3852 4103 4389 4475 4057
1130.0 3359 2647 2141 1854 1740 1749 1849 2065 2351 2764
1170.0 3189 3597 3871 4044 4166 4292 4529 4853 5352 5865
1210.0 6500 7077 7569 8052 8445 8703 8295 7556 6492 5409
1250.0 4375 3527 2845 2333 1970 1714 1539 1399 1329 1279
1290.0 1310 1403 1561 1687 1705 1608 1409 1221 1074 1016
1330.0 994 1016 980 924 844 786 762 773 905 1080
1370.0 1204 1139 1035 986 1026 1069 1032 943 850 802
1410.0 741 739 693 719 713 762 811 898 1041 1176
1450.0 1270 1250 1224 1235 1270 1284 1220 1134 1024 972
1490.0 980 1130 1219 1180 954 707 632 574 554 538
1530.0 540 529 518 504 498 507 494 499 493 507
1570.0 503 517 524 556 577 602 634 672 697 653
1610.0 610 544 520 503 494 499 483 497 500 506
1650.0 491 513 523 532 539 548 558 580 612 616
1690.0 679 714 777 848 956 1058 1142 1316 1545 2022
1730.0 2704 3963 5915 8152 10000 9785 7986 6105 4606 3539
1770.0 2575 1895 1451 1219 1048 934 861 792 735 679
1810.0 649 604 585 551 536 510 497 496 473 472
1850.0 462 471 465 478 483 487 497 500 509 500
1890.0 495 474 469 453 448 436 429 432 425 436
1930.0 447 462 470 470 473 473 464 459 449 436
1970.0 421 411 410 414 406 401 398 397 393 391
2010.0 394 395 393 399 410 415 425 434 435 436
2050.0 441 449 447 445 454 458 463 460 452 439
2090.0 428 416 406 402 401 398 393 395 394 393
2130.0 387 390 391 384 387 387 387 384 385 385
2170.0 380 379 382 379 382 382 378 381 381 381
2210.0 377 373 381 376 379 379 384 381 384 375
2250.0 377 381 375 378 380 383 380 382 381 383
2290.0 384 391 390 390 396 407 404 407 397 397
2330.0 399 398 416 428 434 430 403 398 425 429
2370.0 437 448 433 420 409 395 392 393 393 394
2410.0 395 399 394 400 393 394 393 391 386 389
2450.0 392 386 381 382 379 378 379 375 376 375
2490.0 377 373 371 372 375 380 379 378 382 381
2530.0 380 376 375 378 375 377 377 375 376 378
2570.0 375 372 375 378 371 367 364 363 355 353
2610.0 348 340 340 332 334 338 341 341 336 322
2650.0 324 328 322 333 343 362 374 383 379 382
2690.0 381 372 376 376 373 370 376 388 381 390
2730.0 400 394 399 382 390 406 408 418 421 422
2770.0 416 419 426 415 418 413 412 420 423 422
2810.0 423 431 446 459 461 468 473 481 491 500
2850.0 517 528 551 579 602 640 701 783 908 1049
2890.0 1150 1188 1159 1109 1081 1117 1126 1108 1095 1100
2930.0 1199 1389 1652 2012 2266 2231 1999 1803 1763 1881
2970.0 2103 2399 2819 3304 3553 3303 2750 2235 1852 1562
3010.0 1339 1167 1043 965 957 957 974 987 951 918
3050.0 854 840 900 1073 1259 1344 1238 1021 846 747
3090.0 730 733 734 703 655 605 573 540 507 481
3130.0 464 448 444 442 437 434 424 416 422 418
3170.0 413 407 411 396 391 395 395 378 392 396
3210.0 374 388 386 376 377 377 387 393 379 378
3250.0 379 385 385 378 387 390 385 399 396 391
3290.0 382 390 387 386 379 362 374 379 375 374
3330.0 368 377 374 378 371 371 367 373 372 364
3370.0 370 370 353 353 370 381 377 382 374 370
3410.0 371 369 362 371 369 357 372 368 375 385
3450.0 373 390 388 401 397 390 389 398 397 411
3490.0 402 392 391 377 379 357 373 371 358 352
3530.0 353 351 345 351 341 351 355 348 337 350
3570.0 356 357 368 341 347 341 339 355 348 336
3610.0 351 346 356 329 323 344 338 340 347 347
3650.0 354 352 363 364 346 331 345 334 331 337
3690.0 338 355 343 327 372 350 377 364 357 354
3730.0 361 355 362 359 386 368 360 362 361 382
3770.0 364 353 370 367 361 387 363 363 369 384
3810.0 368 377 393 366 378 384 370 356 362 406
3850.0 372 407 386 389 350 364 365 378 371 367
3890.0 391 352 381 353 380 327 406 377 341 345
3930.0 342 391 344 371 351 339 351 393 365 374
##END=
