##TITLE=Propanedioic acid, ethyl(1-methylpropyl)-, diethyl ester
##JCAMP-DX=4.24
##DATA TYPE=INFRARED SPECTRUM
##ORIGIN=Sadtler Research Labs Under US-EPA Contract
##OWNER=NIST Standard Reference Data Program
##CAS REGISTRY NO=76-71-1
##MOLFORM=C 13 H 24 O 4
##XUNITS=1/CM
##YUNITS=ABSORBANCE
##XFACTOR=1.0
##YFACTOR=0.000064639
##DELTAX=4.0
##FIRSTX=450.0
##LASTX=3966.0
##FIRSTY=0.030122
##MAXX=3966
##MINX=450
##MAXY=0.64639
##MINY=0
##NPOINTS=880
##XYDATA=(X++(Y..Y))
450.0 466 582 260 0 359 116 299 535 454 498
490.0 294 312 390 394 366 469 347 269 253 494
530.0 508 286 391 359 366 435 132 349 406 350
570.0 278 300 567 343 289 256 326 418 298 280
610.0 271 317 426 448 314 324 386 328 280 318
650.0 257 276 296 265 214 215 276 380 510 301
690.0 465 498 470 457 424 454 375 394 320 360
730.0 373 384 477 425 380 391 431 528 526 525
770.0 565 482 527 651 646 583 576 486 423 520
810.0 474 521 561 490 509 538 512 520 534 539
850.0 432 527 614 725 802 752 632 558 491 402
890.0 380 374 352 340 333 342 366 342 333 365
930.0 378 469 559 626 700 793 778 684 604 561
970.0 515 530 505 524 552 620 600 619 737 857
1010.0 1018 1335 1681 2238 2717 3178 3261 2991 2387 1866
1050.0 1520 1305 1281 1291 1272 1303 1417 1574 1721 2033
1090.0 2434 2995 3818 4561 4937 4694 4295 3995 3997 4223
1130.0 4396 4356 4211 4058 4098 3950 3623 3045 2562 2264
1170.0 2140 2042 2091 2278 2593 3107 3774 4404 4966 5540
1210.0 6233 7105 8069 9073 9733 9763 9108 7799 6310 4963
1250.0 3864 3024 2468 2111 1876 1725 1548 1420 1332 1351
1290.0 1432 1558 1654 1707 1589 1486 1340 1165 1093 962
1330.0 957 925 946 872 745 709 719 699 840 1094
1370.0 1308 1397 1342 1379 1402 1447 1308 1107 873 673
1410.0 651 546 583 474 551 588 609 731 819 1003
1450.0 1107 1180 1283 1448 1527 1560 1377 1211 966 751
1490.0 622 510 420 390 337 307 384 304 277 256
1530.0 315 265 242 156 254 275 218 187 124 254
1570.0 207 156 226 192 274 219 218 260 212 248
1610.0 220 234 167 215 248 193 228 202 211 270
1650.0 154 185 229 299 292 262 319 328 379 334
1690.0 465 530 549 638 806 921 1060 1309 1852 2911
1730.0 4539 6636 8969 10000 9622 8568 6787 5149 3679 2524
1770.0 1747 1207 965 782 645 557 475 402 425 333
1810.0 329 306 264 266 219 221 205 202 196 156
1850.0 194 169 175 188 151 169 154 181 173 173
1890.0 172 179 174 169 155 162 146 149 138 137
1930.0 136 127 134 138 129 134 129 137 133 135
1970.0 130 128 131 130 128 133 123 129 127 125
2010.0 120 116 117 117 116 115 109 110 111 106
2050.0 118 118 116 120 125 128 130 120 127 124
2090.0 125 120 113 110 106 103 96 94 97 91
2130.0 92 86 93 92 88 92 83 86 94 90
2170.0 88 79 82 85 83 78 74 76 79 76
2210.0 73 72 71 73 71 75 75 73 75 69
2250.0 77 69 64 66 73 71 71 77 76 77
2290.0 90 97 101 106 104 113 101 96 85 74
2330.0 66 47 66 26 108 69 89 53 79 91
2370.0 60 96 94 98 89 74 66 62 66 69
2410.0 68 65 65 69 69 64 62 58 61 54
2450.0 50 52 50 45 42 43 44 40 39 34
2490.0 33 37 36 33 33 39 34 28 36 39
2530.0 31 40 39 39 37 42 36 40 43 39
2570.0 37 43 45 45 37 49 48 51 55 56
2610.0 51 56 54 61 58 56 52 49 50 54
2650.0 53 57 52 52 56 52 57 55 62 65
2690.0 61 62 65 65 68 68 70 73 79 90
2730.0 97 105 109 128 134 137 134 133 135 130
2770.0 142 139 139 140 146 137 144 148 157 164
2810.0 179 186 196 209 227 237 251 269 295 313
2850.0 340 366 397 451 533 647 831 1127 1525 1896
2890.0 2059 1971 1773 1606 1524 1544 1595 1629 1649 1728
2930.0 1928 2313 2854 3415 3720 3622 3282 3063 3243 3856
2970.0 4615 5154 5436 5608 5444 4820 3911 3060 2401 1886
3010.0 1479 1170 921 740 609 514 450 395 354 325
3050.0 300 280 267 248 236 227 223 213 203 192
3090.0 185 178 171 169 166 152 162 150 136 143
3130.0 138 139 134 135 138 128 132 131 124 126
3170.0 123 122 114 116 111 109 111 96 101 93
3210.0 85 94 92 84 85 89 76 84 77 76
3250.0 80 76 92 84 81 81 74 75 85 90
3290.0 85 75 76 86 88 80 84 98 101 91
3330.0 87 84 88 84 106 99 91 84 94 97
3370.0 97 93 91 98 91 106 101 93 105 104
3410.0 113 112 111 116 110 117 119 101 115 130
3450.0 121 138 162 156 163 175 181 175 165 145
3490.0 140 121 125 131 116 108 115 119 106 118
3530.0 105 91 109 118 122 127 126 117 113 99
3570.0 110 111 119 118 114 96 89 112 102 112
3610.0 89 101 108 107 91 67 73 128 104 93
3650.0 83 55 125 84 142 68 97 30 104 104
3690.0 62 105 122 121 106 94 99 121 120 114
3730.0 110 83 76 111 41 74 48 123 148 115
3770.0 139 85 139 108 116 167 131 123 100 46
3810.0 139 80 121 46 137 119 112 114 82 149
3850.0 100 101 61 133 95 94 149 112 155 118
3890.0 163 104 136 75 91 165 114 123 90 113
3930.0 81 114 99 104 100 124 121 89 129 106
##END=
