##TITLE=1-Butene, 3,4-dichloro-
##JCAMP-DX=4.24
##DATA TYPE=INFRARED SPECTRUM
##ORIGIN=Sadtler Research Labs Under US-EPA Contract
##OWNER=NIST Standard Reference Data Program
##CAS REGISTRY NO=760-23-6
##MOLFORM=C 4 H 6 Cl 2
##XUNITS=1/CM
##YUNITS=ABSORBANCE
##XFACTOR=1.0
##YFACTOR=0.000061542
##DELTAX=4.0
##FIRSTX=450.0
##LASTX=3966.0
##FIRSTY=0.033171
##MAXX=3966
##MINX=450
##MAXY=0.61542
##MINY=0
##NPOINTS=880
##XYDATA=(X++(Y..Y))
450.0 539 495 388 328 333 91 238 86 145 82
490.0 138 210 214 307 310 380 372 391 346 291
530.0 238 206 214 200 196 216 208 191 192 202
570.0 224 189 194 178 184 201 79 273 329 394
610.0 432 541 606 642 632 615 593 519 463 420
650.0 445 458 464 518 529 673 763 817 926 1021
690.0 1163 1231 1349 1512 1768 2201 3077 4326 6062 7917
730.0 9257 10000 9308 8040 5615 3031 1498 1268 1392 1682
770.0 2011 2191 2368 2341 2225 1710 1275 1042 670 311
810.0 174 104 88 66 97 146 195 237 262 284
850.0 265 267 268 246 224 227 198 179 159 153
890.0 165 178 244 295 459 647 1069 1838 3447 4985
930.0 5819 6099 6712 5452 3814 2718 2300 1966 1929 1927
970.0 2283 2649 2890 2932 2769 2461 1841 1369 1081 835
1010.0 677 549 483 395 354 337 316 314 324 333
1050.0 343 348 335 326 313 314 314 309 282 275
1090.0 226 178 136 130 140 143 149 163 158 153
1130.0 134 126 117 130 167 225 298 391 524 718
1170.0 1022 1261 1381 1357 1367 1119 767 589 613 704
1210.0 898 1057 1181 1261 1245 1146 984 866 820 836
1250.0 888 975 1017 1074 1124 1076 1016 944 860 761
1290.0 762 760 841 933 988 1119 1152 1059 950 769
1330.0 522 344 246 216 203 211 203 194 186 178
1370.0 162 147 165 149 174 194 239 331 502 780
1410.0 1112 1440 1693 1879 1925 1792 1747 1510 1252 1143
1450.0 966 812 613 433 294 215 119 104 79 49
1490.0 49 44 42 18 39 10 9 11 6 15
1530.0 1 22 2 25 0 30 9 33 30 33
1570.0 31 34 39 40 56 64 73 76 86 103
1610.0 116 134 143 182 207 297 353 436 491 504
1650.0 481 430 295 221 134 96 68 65 48 59
1690.0 44 55 76 85 101 102 112 101 112 107
1730.0 120 140 154 163 189 208 227 226 199 181
1770.0 171 165 143 138 144 153 167 171 169 165
1810.0 171 165 166 162 155 139 109 99 100 130
1850.0 190 287 412 514 513 538 544 419 315 223
1890.0 158 111 96 87 88 84 83 76 76 69
1930.0 76 77 80 84 94 101 104 101 101 91
1970.0 85 75 70 66 60 58 59 64 62 62
2010.0 66 67 60 60 62 64 61 68 67 68
2050.0 66 70 69 71 68 66 65 63 62 70
2090.0 67 68 69 66 66 63 65 64 70 72
2130.0 63 70 66 68 71 73 76 74 74 79
2170.0 75 74 75 74 71 73 73 69 71 70
2210.0 72 73 74 75 77 78 80 80 80 85
2250.0 89 92 95 93 97 97 101 98 96 93
2290.0 98 98 94 93 88 92 96 99 89 101
2330.0 104 93 84 107 97 90 117 106 147 133
2370.0 117 110 111 109 107 100 96 96 99 97
2410.0 96 95 96 96 90 89 84 80 82 83
2450.0 78 78 83 84 81 88 89 90 96 93
2490.0 96 90 92 83 87 85 82 81 83 90
2530.0 89 91 91 90 92 92 83 81 79 74
2570.0 77 70 71 68 74 71 69 73 73 74
2610.0 74 75 73 71 75 68 66 67 70 66
2650.0 66 59 66 68 70 70 73 77 78 76
2690.0 77 80 77 83 84 92 99 99 103 108
2730.0 106 103 100 99 98 96 88 90 89 86
2770.0 82 81 77 76 68 75 75 78 75 73
2810.0 77 77 82 87 88 91 108 126 140 162
2850.0 186 200 211 226 226 246 244 244 236 225
2890.0 205 184 180 174 181 185 203 217 233 256
2930.0 277 320 381 492 634 864 1036 1230 1498 1460
2970.0 1492 1539 1479 1467 1355 1272 1219 1176 1210 1153
3010.0 1065 999 956 912 869 835 740 607 519 409
3050.0 328 285 272 289 315 371 425 495 619 775
3090.0 958 1135 1413 1490 1251 1088 862 585 360 221
3130.0 159 134 117 110 101 100 98 101 94 99
3170.0 92 96 95 88 82 81 80 79 82 78
3210.0 76 81 77 77 75 80 78 75 74 80
3250.0 81 70 72 78 77 75 74 79 78 75
3290.0 75 69 83 77 84 79 84 94 85 76
3330.0 77 80 82 79 80 78 84 85 85 85
3370.0 74 82 75 76 74 82 76 88 87 80
3410.0 77 80 71 83 81 73 76 73 84 76
3450.0 73 67 69 73 72 67 83 77 76 81
3490.0 66 68 68 82 82 79 80 74 72 81
3530.0 84 82 76 86 84 82 79 98 85 95
3570.0 103 99 119 119 136 112 121 105 100 94
3610.0 103 104 111 111 95 116 114 91 84 99
3650.0 106 93 68 94 73 93 74 105 66 78
3690.0 86 61 67 72 80 82 86 76 81 67
3730.0 80 68 90 83 119 77 106 85 79 85
3770.0 98 95 80 101 73 89 68 96 83 91
3810.0 73 94 67 102 90 73 84 95 68 78
3850.0 82 81 100 67 73 105 66 71 74 86
3890.0 64 70 49 90 86 87 78 87 73 70
3930.0 82 67 83 86 86 74 93 81 90 83
##END=
