##TITLE=Pentane, 3-methylene-
##JCAMP-DX=4.24
##DATA TYPE=INFRARED SPECTRUM
##ORIGIN=Sadtler Research Labs Under US-EPA Contract
##OWNER=NIST Standard Reference Data Program
##CAS REGISTRY NO=760-21-4
##MOLFORM=C 6 H 12
##XUNITS=1/CM
##YUNITS=ABSORBANCE
##XFACTOR=1.0
##YFACTOR=0.000092215
##DELTAX=4.0
##FIRSTX=450.0
##LASTX=3966.0
##FIRSTY=0.049243
##MAXX=3966
##MINX=450
##MAXY=0.92215
##MINY=0
##NPOINTS=880
##XYDATA=(X++(Y..Y))
450.0 534 327 204 251 267 334 119 260 170 324
490.0 303 354 310 372 32 120 121 7 64 230
530.0 428 475 286 339 350 325 384 244 286 308
570.0 194 212 320 291 255 265 265 260 259 259
610.0 229 214 244 250 178 176 171 171 173 173
650.0 188 187 179 190 179 136 204 196 193 207
690.0 191 201 179 183 187 176 188 177 200 189
730.0 188 187 196 207 226 232 229 247 274 292
770.0 38 232 216 276 312 367 389 436 494 533
810.0 605 600 430 556 460 443 388 370 315 296
850.0 295 296 337 402 531 716 986 1204 1462 1673
890.0 2277 2546 1984 1648 1524 1297 1020 720 521 399
930.0 338 290 264 264 250 255 265 290 298 311
970.0 327 334 341 353 369 391 415 427 451 458
1010.0 460 444 442 424 397 373 365 364 352 369
1050.0 381 392 413 434 458 462 477 491 510 507
1090.0 498 485 479 472 455 442 416 391 366 346
1130.0 301 269 250 240 230 231 226 216 214 214
1170.0 212 216 219 219 230 243 260 282 303 318
1210.0 334 340 327 340 321 317 316 309 296 284
1250.0 278 284 287 294 296 305 305 304 297 292
1290.0 293 301 317 334 353 370 368 376 369 366
1330.0 356 355 349 337 358 380 420 470 548 648
1370.0 768 865 976 1065 1052 1016 915 785 681 624
1410.0 596 593 610 665 736 836 967 1097 1281 1485
1450.0 1694 1816 1945 1960 1860 1730 1515 1293 1072 846
1490.0 663 535 450 392 362 329 310 293 277 267
1530.0 244 244 235 236 207 212 201 201 196 178
1570.0 174 177 172 168 165 164 165 170 169 179
1610.0 197 232 276 340 430 548 675 811 896 932
1650.0 915 927 848 703 543 406 311 265 223 221
1690.0 200 205 206 202 187 184 173 164 165 158
1730.0 160 155 159 151 148 139 136 128 134 135
1770.0 147 159 166 180 185 195 191 187 168 154
1810.0 126 110 96 86 86 80 79 81 83 79
1850.0 76 78 71 68 64 61 61 54 56 55
1890.0 54 52 53 49 44 44 41 46 42 40
1930.0 38 35 34 36 34 34 31 35 32 33
1970.0 29 31 31 31 31 28 30 36 34 29
2010.0 30 34 33 34 37 44 43 39 41 41
2050.0 35 39 38 31 34 35 35 35 35 33
2090.0 33 30 27 30 27 26 27 29 25 26
2130.0 27 24 17 17 20 20 16 23 22 16
2170.0 22 24 24 23 24 24 25 21 25 22
2210.0 17 21 14 22 23 21 20 22 18 17
2250.0 21 19 18 19 15 15 15 19 17 14
2290.0 9 5 12 8 4 3 0 4 0 0
2330.0 0 0 0 0 0 0 0 0 0 0
2370.0 1 4 15 23 24 27 27 22 22 23
2410.0 20 19 24 19 22 18 17 15 16 18
2450.0 18 17 15 15 15 13 16 13 7 10
2490.0 7 12 9 10 10 11 12 11 9 10
2530.0 9 10 5 7 10 12 13 22 23 27
2570.0 25 23 23 18 26 18 20 17 16 19
2610.0 20 26 31 33 34 34 38 38 33 33
2650.0 38 37 39 45 47 55 49 49 59 57
2690.0 66 71 79 83 91 100 103 119 134 154
2730.0 170 179 200 209 209 212 200 195 185 186
2770.0 193 198 199 202 218 224 238 258 277 304
2810.0 336 381 430 499 586 684 824 976 1156 1357
2850.0 1583 1858 2200 2559 2918 3258 3677 4065 4363 4616
2890.0 4770 4823 4865 4797 4671 4659 4779 5034 5306 5615
2930.0 5951 6285 6563 6595 6488 6306 6449 7005 8000 8829
2970.0 9428 10000 9765 9177 8079 6345 4835 3770 2997 2479
3010.0 2116 1844 1644 1504 1389 1288 1196 1103 1012 919
3050.0 858 789 766 790 867 945 1020 1155 1217 1132
3090.0 1135 993 828 673 515 379 273 212 182 160
3130.0 146 146 148 139 144 144 141 144 140 138
3170.0 145 150 148 131 122 126 119 109 94 91
3210.0 78 72 76 63 69 58 54 49 63 43
3250.0 46 38 48 43 35 43 35 39 36 48
3290.0 40 40 46 50 55 45 58 48 50 50
3330.0 49 39 45 63 50 45 44 40 36 53
3370.0 43 30 51 51 53 45 39 32 48 31
3410.0 42 53 43 33 40 55 37 45 61 53
3450.0 43 28 25 28 17 1 8 12 24 29
3490.0 17 17 9 38 39 43 31 15 39 28
3530.0 38 34 10 9 29 28 24 14 17 24
3570.0 29 26 11 21 17 34 43 18 5 25
3610.0 4 2 13 44 25 34 47 10 39 32
3650.0 28 27 37 6 42 18 34 23 38 17
3690.0 40 29 31 46 43 38 25 37 38 27
3730.0 16 40 38 42 40 47 52 57 46 56
3770.0 26 16 34 62 43 36 56 52 48 38
3810.0 48 25 48 27 36 9 55 71 40 44
3850.0 49 33 30 91 41 35 83 69 4 31
3890.0 29 16 33 41 0 0 16 14 3 63
3930.0 33 8 42 33 38 34 61 12 44 36
##END=
