##TITLE=Sulfone, bis(2-bromoethyl)
##JCAMP-DX=4.24
##DATA TYPE=INFRARED SPECTRUM
##ORIGIN=Sadtler Research Labs Under US-EPA Contract
##OWNER=NIST Standard Reference Data Program
##CAS REGISTRY NO=7617-67-6
##MOLFORM=C 4 H 8 Br 2 O 2 S
##XUNITS=1/CM
##YUNITS=ABSORBANCE
##XFACTOR=1.0
##YFACTOR=0.000067517
##DELTAX=4.0
##FIRSTX=450.0
##LASTX=3966.0
##FIRSTY=0.048072
##MAXX=3966
##MINX=450
##MAXY=0.67517
##MINY=0
##NPOINTS=880
##XYDATA=(X++(Y..Y))
450.0 712 280 229 0 164 188 475 851 984 1212
490.0 1227 1375 1604 1821 1741 1512 1108 793 760 767
530.0 739 583 412 267 100 8 104 151 194 398
570.0 300 320 427 284 254 274 220 129 262 194
610.0 398 434 425 401 259 365 306 168 166 58
650.0 217 147 92 242 285 297 249 263 237 317
690.0 278 324 377 527 511 596 642 729 839 882
730.0 886 989 1183 1489 1915 1611 1709 1750 1868 1976
770.0 1851 1831 1777 1838 1610 1464 1258 1063 863 599
810.0 492 448 415 364 292 307 320 269 343 378
850.0 359 418 476 587 712 770 800 731 560 488
890.0 428 337 292 281 256 251 252 252 299 305
930.0 334 414 469 492 491 484 462 474 532 680
970.0 901 1065 1000 928 634 393 305 348 362 416
1010.0 545 627 751 775 870 767 684 509 443 319
1050.0 243 294 222 282 196 214 272 234 274 352
1090.0 408 489 512 613 674 759 920 1117 1406 1846
1130.0 2562 3715 5222 6542 7138 6473 5070 3486 2357 1642
1170.0 1332 1163 1127 1092 986 837 760 741 743 752
1210.0 749 663 562 460 439 415 421 446 514 603
1250.0 735 941 1190 1415 1638 1872 2104 2340 2428 2251
1290.0 1804 1421 1080 858 820 778 792 905 1014 1305
1330.0 1799 2504 3715 5421 7520 9197 10000 8671 6284 4099
1370.0 2411 1514 1166 941 937 901 927 879 763 760
1410.0 650 636 601 534 455 425 419 438 419 370
1450.0 337 383 338 311 194 222 184 216 149 120
1490.0 106 99 87 66 53 146 63 117 131 70
1530.0 68 80 117 171 145 96 143 187 229 137
1570.0 175 202 210 228 180 187 210 188 270 212
1610.0 195 172 193 180 161 199 189 246 239 226
1650.0 362 340 378 314 386 383 383 344 338 333
1690.0 267 238 283 340 330 412 439 489 377 214
1730.0 184 103 111 88 80 105 89 108 102 98
1770.0 126 139 103 104 89 100 92 99 68 81
1810.0 67 57 64 48 62 70 42 49 35 71
1850.0 36 43 55 30 60 60 63 49 50 64
1890.0 69 65 75 73 71 87 83 96 90 92
1930.0 90 102 103 113 115 118 112 101 86 81
1970.0 70 71 70 63 61 61 66 66 69 65
2010.0 64 64 63 66 59 63 70 61 54 60
2050.0 53 45 50 48 48 48 40 39 35 41
2090.0 40 42 40 38 37 47 46 52 43 53
2130.0 55 48 54 56 59 58 55 55 54 51
2170.0 52 49 49 48 50 53 50 49 46 48
2210.0 47 44 46 48 44 49 44 50 52 49
2250.0 48 50 58 59 67 70 68 82 81 82
2290.0 90 81 90 88 85 91 89 84 83 81
2330.0 81 69 91 68 121 85 114 89 125 85
2370.0 109 85 79 76 55 56 64 50 48 41
2410.0 47 67 48 47 33 64 59 57 44 40
2450.0 75 66 74 57 76 94 95 88 73 99
2490.0 99 90 61 63 69 46 41 23 37 49
2530.0 26 16 22 32 25 20 17 16 18 25
2570.0 18 33 30 12 28 45 34 32 24 68
2610.0 37 39 41 80 44 50 53 72 19 54
2650.0 61 56 36 62 44 32 52 52 42 44
2690.0 58 48 56 60 49 47 37 33 42 45
2730.0 44 39 32 38 29 40 53 39 34 36
2770.0 41 48 58 48 54 53 57 68 65 66
2810.0 68 78 76 93 99 99 107 122 153 177
2850.0 195 206 197 188 163 152 148 151 156 158
2890.0 168 185 194 209 230 257 282 321 364 374
2930.0 366 334 314 328 336 308 249 210 185 188
2970.0 210 227 280 327 319 287 246 201 162 141
3010.0 129 135 146 154 173 187 176 162 137 113
3050.0 89 83 79 73 74 71 73 69 69 66
3090.0 74 68 78 79 82 82 74 66 71 77
3130.0 69 69 61 68 67 71 75 72 68 69
3170.0 75 78 75 82 77 70 74 63 59 69
3210.0 68 71 69 70 70 61 70 68 73 67
3250.0 71 64 59 66 72 59 61 71 67 61
3290.0 64 61 69 69 59 59 72 59 62 79
3330.0 70 61 55 69 65 71 57 63 61 57
3370.0 59 68 59 58 53 56 60 51 50 40
3410.0 48 57 54 46 55 43 44 62 45 56
3450.0 55 62 71 66 55 59 75 71 62 74
3490.0 59 78 73 56 46 55 65 61 53 45
3530.0 45 57 54 35 37 52 70 35 81 46
3570.0 74 54 57 49 72 67 82 45 53 61
3610.0 86 73 75 77 68 115 71 83 57 102
3650.0 60 136 60 61 69 56 75 58 81 19
3690.0 61 37 17 19 23 27 27 11 41 16
3730.0 41 55 16 95 15 151 19 78 13 33
3770.0 30 14 30 10 44 42 27 87 24 73
3810.0 35 75 50 99 38 21 80 77 77 57
3850.0 28 117 70 63 69 49 78 89 50 43
3890.0 64 35 71 54 70 82 67 88 68 61
3930.0 12 70 95 32 104 49 76 6 85 96
##END=
