##TITLE=Phosphonic acid, diethyl ester
##JCAMP-DX=4.24
##DATA TYPE=INFRARED SPECTRUM
##ORIGIN=Sadtler Research Labs Under US-EPA Contract
##OWNER=NIST Standard Reference Data Program
##CAS REGISTRY NO=762-04-9
##MOLFORM=C 4 H 11 O 3 P
##XUNITS=1/CM
##YUNITS=ABSORBANCE
##XFACTOR=1.0
##YFACTOR=0.000095557
##DELTAX=4.0
##FIRSTX=450.0
##LASTX=3966.0
##FIRSTY=0.021309
##MAXX=3966
##MINX=450
##MAXY=0.95557
##MINY=0
##NPOINTS=880
##XYDATA=(X++(Y..Y))
450.0 223 221 265 275 266 252 246 234 226 202
490.0 226 195 219 188 214 242 248 296 342 399
530.0 466 548 614 692 755 790 781 716 629 455
570.0 368 262 191 138 137 81 81 67 57 47
610.0 36 56 55 39 27 31 30 40 40 55
650.0 32 60 67 83 31 56 127 26 89 107
690.0 111 79 82 79 93 124 114 168 165 249
730.0 322 381 443 480 371 588 599 534 541 550
770.0 596 635 701 679 675 628 567 503 460 421
810.0 400 359 291 268 259 252 252 231 217 202
850.0 250 246 251 252 267 263 299 332 326 333
890.0 373 425 442 455 514 586 640 773 920 1144
930.0 1456 1811 2275 2806 3405 4070 4557 5078 5367 5683
970.0 6683 7673 9418 9795 9830 10000 7940 6450 4989 4225
1010.0 3462 2981 2658 2415 2342 2392 2612 2925 3332 3782
1050.0 4221 4885 5181 5593 5594 5199 4856 4291 3915 3498
1090.0 3160 2987 2761 2631 2425 2131 1892 1641 1395 1236
1130.0 1125 1076 1019 980 959 920 911 885 868 871
1170.0 864 827 746 670 595 521 446 386 351 321
1210.0 333 337 330 353 405 446 500 576 649 716
1250.0 800 927 1177 1590 2142 2932 3568 4112 4260 4297
1290.0 3926 3447 2918 2491 2100 1713 1324 977 691 502
1330.0 396 300 264 250 224 222 253 271 302 372
1370.0 428 474 520 577 651 747 812 791 746 645
1410.0 491 379 314 281 282 264 269 249 296 297
1450.0 303 283 228 245 239 228 218 220 215 201
1490.0 163 163 140 129 111 103 80 71 63 50
1530.0 54 44 37 26 19 38 37 5 18 34
1570.0 18 22 17 26 19 43 36 31 34 31
1610.0 34 38 27 34 24 33 33 22 29 29
1650.0 31 0 34 45 41 38 48 44 51 46
1690.0 54 66 53 43 70 75 69 67 74 83
1730.0 80 67 73 70 73 64 64 68 63 57
1770.0 57 53 56 55 68 73 67 78 83 83
1810.0 88 89 88 91 83 79 77 75 85 80
1850.0 85 93 87 77 81 80 79 73 70 67
1890.0 61 58 53 47 44 35 36 30 26 35
1930.0 31 23 23 24 17 20 14 17 17 13
1970.0 12 12 12 2 11 10 6 6 5 5
2010.0 12 4 5 10 10 15 11 4 9 3
2050.0 6 10 5 5 10 9 9 9 7 7
2090.0 14 9 13 13 13 14 14 12 12 12
2130.0 18 13 13 12 12 16 14 16 17 20
2170.0 21 21 21 21 21 21 21 21 16 21
2210.0 14 14 14 17 15 19 14 13 19 19
2250.0 26 28 26 32 32 35 37 38 36 37
2290.0 38 45 44 50 51 52 53 70 73 70
2330.0 69 81 85 89 96 113 125 155 161 173
2370.0 191 219 254 289 332 375 416 456 485 514
2410.0 536 571 631 721 829 944 1023 1039 974 851
2450.0 711 565 440 339 262 206 164 131 110 88
2490.0 71 63 56 50 46 40 40 35 39 40
2530.0 40 38 41 43 46 47 44 49 43 43
2570.0 43 45 45 45 44 44 46 48 50 47
2610.0 46 52 51 52 52 48 52 51 51 53
2650.0 54 54 53 53 53 55 60 55 54 60
2690.0 62 55 62 62 65 67 68 72 73 79
2730.0 85 90 97 96 103 101 99 108 108 108
2770.0 114 115 121 121 120 127 128 121 122 123
2810.0 127 137 142 148 159 171 178 188 200 218
2850.0 229 256 284 314 358 406 469 532 578 624
2890.0 654 682 723 793 845 909 953 970 972 972
2930.0 1019 1120 1251 1334 1376 1354 1283 1207 1175 1206
2970.0 1302 1459 1685 1986 2203 2323 2266 2087 1795 1502
3010.0 1245 1024 848 707 579 473 393 322 270 226
3050.0 196 169 152 135 124 108 108 98 97 91
3090.0 85 85 84 78 74 74 74 73 69 63
3130.0 65 58 62 61 63 60 62 54 60 67
3170.0 61 61 62 55 58 55 53 64 51 52
3210.0 57 47 53 47 53 52 53 49 40 47
3250.0 44 43 37 31 29 33 34 34 34 36
3290.0 24 29 30 24 32 30 30 20 27 26
3330.0 26 21 23 22 27 27 26 23 31 32
3370.0 33 35 24 24 35 30 30 36 36 30
3410.0 34 31 27 28 31 31 28 28 21 21
3450.0 27 22 23 26 24 23 22 24 23 24
3490.0 19 20 24 23 27 21 26 27 23 27
3530.0 20 28 28 16 21 22 28 29 29 20
3570.0 23 29 29 29 21 18 29 24 24 26
3610.0 23 26 32 31 38 30 47 62 74 77
3650.0 77 94 105 104 105 98 91 84 85 87
3690.0 79 85 85 74 69 63 53 65 64 63
3730.0 57 54 53 66 58 61 66 72 71 79
3770.0 83 89 82 80 85 87 86 84 80 85
3810.0 96 96 90 91 93 94 99 99 91 90
3850.0 96 84 86 95 99 95 100 100 100 100
3890.0 98 102 105 101 101 102 103 97 103 103
3930.0 110 103 105 106 111 118 27 34 34 35
##END=
