##TITLE=N-tert-Butylacetamide
##JCAMP-DX=4.24
##DATA TYPE=INFRARED SPECTRUM
##ORIGIN=Sadtler Research Labs Under US-EPA Contract
##OWNER=NIST Standard Reference Data Program
##CAS REGISTRY NO=762-84-5
##MOLFORM=C 6 H 13 N O
##XUNITS=1/CM
##YUNITS=ABSORBANCE
##XFACTOR=1.0
##YFACTOR=0.000094287
##DELTAX=4.0
##FIRSTX=450.0
##LASTX=3966.0
##FIRSTY=0.049218
##MAXX=3966
##MINX=450
##MAXY=0.94287
##MINY=0
##NPOINTS=880
##XYDATA=(X++(Y..Y))
450.0 522 546 553 626 720 691 712 673 634 521
490.0 410 327 306 289 278 316 241 179 207 196
530.0 167 161 93 133 210 193 105 71 195 91
570.0 54 119 90 63 40 39 141 26 106 215
610.0 337 343 420 377 360 258 316 96 109 140
650.0 107 17 58 168 7 3 80 85 67 80
690.0 104 103 185 107 129 68 73 98 96 58
730.0 142 124 63 52 167 118 122 174 168 215
770.0 179 120 125 127 145 141 126 173 220 291
810.0 286 345 403 462 527 584 650 650 654 637
850.0 635 615 533 441 423 373 343 298 245 190
890.0 201 184 166 181 164 163 169 187 232 197
930.0 265 336 461 559 621 701 706 650 632 493
970.0 364 328 282 248 242 238 245 262 313 307
1010.0 349 340 358 360 343 310 308 331 374 390
1050.0 349 350 331 304 274 253 239 235 221 183
1090.0 171 152 168 159 172 164 199 136 156 142
1130.0 134 138 136 151 141 185 209 235 263 292
1170.0 346 402 463 537 658 821 1079 1434 1882 2409
1210.0 2872 3353 3678 3693 3258 2602 2141 1844 1696 1641
1250.0 1754 2077 2629 3340 3914 4188 4214 3905 3288 2420
1290.0 1608 1099 838 691 579 521 454 394 377 364
1330.0 364 405 451 552 798 1223 1791 2404 2961 3476
1370.0 3776 3568 2993 2564 2312 2192 2132 2061 1897 1811
1410.0 1504 1204 1092 1077 1217 1456 1831 2371 3021 3662
1450.0 4061 4220 4197 3985 3640 3417 3534 4120 5164 6467
1490.0 7821 8702 8989 8666 7678 5896 4194 2824 1970 1472
1530.0 1187 1039 957 814 730 637 588 546 414 447
1570.0 421 392 335 328 310 302 277 249 246 245
1610.0 233 249 216 242 256 272 331 282 312 369
1650.0 378 395 427 487 510 614 736 929 1310 1849
1690.0 2770 4091 5741 7415 8781 9682 10000 9437 8099 6481
1730.0 4873 3503 2350 1593 1087 761 544 435 368 316
1770.0 291 254 259 259 253 253 205 209 185 163
1810.0 162 135 124 117 119 120 99 93 99 95
1850.0 96 92 87 87 109 101 104 100 103 107
1890.0 112 116 108 104 85 87 85 80 69 53
1930.0 48 53 51 51 36 42 40 50 35 43
1970.0 37 38 36 46 37 36 34 37 29 37
2010.0 30 16 26 30 30 19 14 24 34 28
2050.0 26 28 22 20 29 24 29 23 18 30
2090.0 35 35 28 25 37 50 54 45 51 53
2130.0 49 54 44 46 44 44 49 56 41 39
2170.0 41 42 43 26 27 36 33 20 25 25
2210.0 26 26 32 28 32 23 26 30 35 35
2250.0 25 25 31 43 46 38 48 49 54 60
2290.0 56 66 66 61 75 83 67 85 65 55
2330.0 62 27 62 55 3 117 124 15 40 75
2370.0 33 37 26 33 46 44 42 47 41 25
2410.0 25 25 25 24 18 12 15 21 11 16
2450.0 15 9 14 14 8 11 5 5 21 16
2490.0 10 12 13 14 18 8 12 20 7 20
2530.0 10 9 21 14 12 19 17 10 13 13
2570.0 23 30 15 27 31 25 33 31 24 35
2610.0 39 30 36 36 20 35 42 47 47 45
2650.0 53 65 50 52 52 58 58 63 58 55
2690.0 69 60 79 89 81 97 103 105 128 121
2730.0 112 111 106 105 111 96 103 112 104 104
2770.0 104 95 96 106 101 105 102 100 117 124
2810.0 139 148 152 164 185 199 194 223 255 300
2850.0 360 429 513 626 746 895 1036 1136 1223 1292
2890.0 1337 1364 1397 1426 1491 1602 1753 1929 2097 2266
2930.0 2418 2508 2549 2569 2610 2742 3004 3423 3926 4368
2970.0 4856 4938 4700 4305 3522 2895 2236 1667 1317 1119
3010.0 977 859 683 539 436 385 338 303 294 287
3050.0 268 242 236 231 236 220 214 200 200 204
3090.0 193 185 161 140 143 129 128 121 109 94
3130.0 121 112 110 103 82 93 99 96 88 98
3170.0 92 104 108 95 106 93 88 115 103 100
3210.0 93 87 110 115 94 96 97 87 102 99
3250.0 76 66 72 60 65 67 42 74 55 61
3290.0 74 68 44 59 66 63 65 52 50 68
3330.0 54 48 58 32 45 59 55 56 58 51
3370.0 56 69 64 85 66 92 130 143 152 177
3410.0 174 182 186 186 187 220 248 291 352 406
3450.0 463 546 584 611 576 484 414 326 234 163
3490.0 98 67 60 49 31 54 41 37 30 28
3530.0 23 30 15 26 57 28 29 33 37 54
3570.0 28 45 34 27 48 32 53 38 33 55
3610.0 43 53 56 31 68 35 44 52 42 55
3650.0 39 56 52 60 50 64 69 23 55 76
3690.0 9 36 54 45 60 55 29 72 61 44
3730.0 57 62 44 103 47 72 53 72 62 77
3770.0 65 50 61 54 64 56 43 66 62 78
3810.0 66 84 46 71 72 78 104 85 68 77
3850.0 86 57 80 79 54 52 64 78 64 57
3890.0 65 58 71 61 51 42 49 53 48 58
3930.0 59 36 56 47 53 44 0 3 3 3
##END=
