##TITLE=3-Buten-1-ol, 3-methyl-
##JCAMP-DX=4.24
##DATA TYPE=INFRARED SPECTRUM
##ORIGIN=Sadtler Research Labs Under US-EPA Contract
##OWNER=NIST Standard Reference Data Program
##CAS REGISTRY NO=763-32-6
##MOLFORM=C 5 H 10 O
##XUNITS=1/CM
##YUNITS=ABSORBANCE
##XFACTOR=1.0
##YFACTOR=0.000057977
##DELTAX=4.0
##FIRSTX=450.0
##LASTX=3966.0
##FIRSTY=0.040120
##MAXX=3966
##MINX=450
##MAXY=0.57977
##MINY=0
##NPOINTS=880
##XYDATA=(X++(Y..Y))
450.0 692 410 230 482 234 407 204 168 7 137
490.0 165 24 59 25 194 116 215 184 324 317
530.0 368 402 436 588 586 737 656 808 743 658
570.0 533 375 393 99 298 313 252 153 192 104
610.0 170 132 137 78 12 105 191 182 157 119
650.0 155 133 97 125 133 169 163 118 145 160
690.0 163 177 170 182 167 173 165 166 177 177
730.0 134 141 145 147 160 181 205 165 187 182
770.0 208 210 230 195 167 169 188 191 178 202
810.0 248 278 308 355 409 467 548 629 809 976
850.0 1154 1360 1510 1724 1943 2218 2553 3003 3520 4207
890.0 4982 5577 5502 4841 4126 3399 2726 1989 1460 1100
930.0 932 834 774 738 724 745 783 886 986 1148
970.0 1321 1511 1690 1851 2000 2114 2216 2282 2344 2420
1010.0 2604 2886 3311 3872 4519 5289 6120 7035 7880 8567
1050.0 8907 9224 9204 8946 8292 7366 6429 5321 4194 3205
1090.0 2506 1985 1656 1461 1346 1312 1307 1355 1389 1422
1130.0 1440 1489 1521 1540 1529 1449 1388 1350 1401 1462
1170.0 1537 1616 1690 1786 1840 1860 1842 1817 1772 1713
1210.0 1650 1578 1513 1461 1410 1358 1333 1310 1296 1281
1250.0 1275 1280 1288 1313 1326 1359 1355 1357 1338 1322
1290.0 1298 1271 1252 1221 1219 1205 1213 1232 1262 1293
1330.0 1314 1307 1317 1305 1284 1306 1343 1470 1690 2033
1370.0 2442 2873 3284 3619 3813 3859 3609 3190 2786 2405
1410.0 2113 1911 1828 1821 1885 1997 2116 2236 2345 2448
1450.0 2504 2476 2369 2240 2134 1960 1781 1559 1326 1079
1490.0 902 698 553 443 347 288 271 225 197 189
1530.0 178 175 136 149 168 170 171 154 153 183
1570.0 186 205 199 233 234 264 258 280 279 303
1610.0 342 373 457 555 724 934 1214 1505 1806 1970
1650.0 2040 1957 1941 1722 1335 981 666 450 314 194
1690.0 152 117 77 60 84 75 74 51 60 64
1730.0 67 70 54 72 81 99 98 103 99 119
1770.0 129 151 197 238 289 322 340 345 354 313
1810.0 270 223 175 135 93 63 51 42 33 31
1850.0 26 10 16 13 19 12 13 12 15 18
1890.0 25 31 33 31 33 46 43 57 52 55
1930.0 50 41 38 30 30 18 24 18 17 18
1970.0 21 19 14 12 10 18 10 11 4 9
2010.0 15 19 26 22 29 37 43 46 48 65
2050.0 54 52 44 47 47 53 53 52 60 59
2090.0 60 49 49 47 60 57 53 46 46 35
2130.0 30 28 29 19 16 20 13 12 3 6
2170.0 7 0 9 5 6 3 14 13 11 13
2210.0 11 9 9 13 6 15 16 13 16 14
2250.0 19 22 22 13 25 27 25 27 28 32
2290.0 34 37 38 51 45 46 39 38 22 12
2330.0 26 34 36 34 59 30 0 0 47 107
2370.0 100 96 99 90 61 54 45 39 43 50
2410.0 50 53 58 54 56 58 54 55 54 47
2450.0 43 42 40 42 34 38 33 33 37 38
2490.0 34 34 39 30 40 31 30 34 35 27
2530.0 28 32 40 30 27 23 24 22 32 29
2570.0 25 27 29 26 22 37 34 35 43 51
2610.0 49 53 60 74 81 92 108 112 116 129
2650.0 136 133 148 161 165 167 168 178 188 194
2690.0 186 204 221 225 238 258 282 304 326 344
2730.0 368 388 412 427 445 451 448 445 441 459
2770.0 468 481 484 502 516 541 572 608 654 701
2810.0 783 862 952 1058 1184 1317 1486 1660 1891 2152
2850.0 2445 2810 3208 3683 4188 4694 5254 5769 6197 6515
2890.0 6740 6855 6976 7110 7313 7525 7781 8091 8467 8932
2930.0 9351 9769 9999 10000 9900 9550 8838 8205 7811 7541
2970.0 7497 7176 6752 6311 5677 4997 4129 3195 2560 2084
3010.0 1703 1399 1136 977 837 748 689 661 628 615
3050.0 626 681 789 971 1300 1759 2338 2644 2829 2957
3090.0 2665 2412 1918 1286 863 521 391 277 235 195
3130.0 178 165 126 135 117 112 97 92 92 99
3170.0 89 78 76 68 76 62 58 70 73 62
3210.0 60 64 53 52 53 51 48 57 54 41
3250.0 44 50 51 24 41 32 30 19 17 18
3290.0 13 12 35 40 37 35 10 29 27 24
3330.0 28 32 31 36 32 29 21 33 29 47
3370.0 47 46 40 26 24 21 29 38 44 40
3410.0 44 39 49 38 64 40 18 54 48 67
3450.0 56 45 59 62 85 98 98 108 113 108
3490.0 110 129 130 145 118 108 104 104 94 112
3530.0 75 82 72 85 93 110 87 108 120 150
3570.0 188 194 190 217 206 279 365 500 669 765
3610.0 823 878 923 949 926 918 910 898 937 991
3650.0 1121 1193 1338 1436 1539 1553 1463 1252 1130 881
3690.0 637 453 332 294 235 166 156 169 161 135
3730.0 145 146 132 158 119 152 133 166 156 141
3770.0 121 86 92 98 104 121 106 54 107 70
3810.0 106 27 42 79 86 85 87 91 117 96
3850.0 59 49 125 95 68 82 74 135 136 151
3890.0 151 112 104 141 115 97 107 92 133 103
3930.0 140 146 88 117 105 117 151 149 103 66
##END=
