##TITLE=Propanoic acid, 3-ethoxy-, ethyl ester
##JCAMP-DX=4.24
##DATA TYPE=INFRARED SPECTRUM
##ORIGIN=Sadtler Research Labs Under US-EPA Contract
##OWNER=NIST Standard Reference Data Program
##CAS REGISTRY NO=763-69-9
##MOLFORM=C 7 H 14 O 3
##XUNITS=1/CM
##YUNITS=ABSORBANCE
##XFACTOR=1.0
##YFACTOR=0.000052930
##DELTAX=4.0
##FIRSTX=450.0
##LASTX=3966.0
##FIRSTY=0.006087
##MAXX=3966
##MINX=450
##MAXY=0.5293
##MINY=0
##NPOINTS=880
##XYDATA=(X++(Y..Y))
450.0 115 142 113 87 87 86 41 18 24 74
490.0 153 147 164 96 106 148 167 154 206 148
530.0 110 119 103 79 115 147 170 130 258 204
570.0 194 244 221 184 258 325 242 288 324 333
610.0 297 277 281 269 272 301 319 293 314 291
650.0 242 208 288 202 171 374 179 250 196 180
690.0 231 170 278 218 260 240 215 204 197 210
730.0 188 236 143 146 114 118 124 193 236 213
770.0 195 278 251 305 288 277 285 285 334 302
810.0 331 290 298 341 339 379 410 420 398 431
850.0 454 507 530 480 450 453 363 349 359 349
890.0 378 324 371 364 337 323 338 368 381 462
930.0 471 456 477 430 452 379 344 322 309 337
970.0 312 373 406 484 507 529 642 716 743 835
1010.0 960 1142 1351 1701 2050 2365 2555 2675 2730 2709
1050.0 2758 2866 3131 3445 3548 3560 3516 3255 3151 3123
1090.0 3275 3810 4418 5162 5895 6550 7135 7359 7865 7930
1130.0 7772 7534 6844 6024 5374 4712 4541 4641 5089 5748
1170.0 6325 7075 7724 8290 8550 8270 7440 6377 5235 4490
1210.0 3870 3493 3370 3393 3645 3835 3947 3994 3958 3968
1250.0 4009 4028 3985 3660 3286 2846 2473 2225 2057 1993
1290.0 1969 1966 1981 2092 2102 2118 2169 2149 2062 1874
1330.0 1739 1626 1646 1753 1950 2110 2279 2328 2371 2544
1370.0 2736 2977 3307 3294 3012 2554 2034 1662 1462 1356
1410.0 1287 1269 1293 1237 1142 1101 1020 997 986 1006
1450.0 987 988 1021 1035 1103 1110 1099 993 859 752
1490.0 649 523 441 367 334 286 246 240 210 197
1530.0 199 198 170 150 151 143 157 163 145 129
1570.0 153 140 132 142 131 140 130 130 130 130
1610.0 130 130 122 148 159 148 137 146 147 157
1650.0 137 157 164 177 183 203 206 204 236 251
1690.0 282 311 358 435 503 612 728 859 1025 1269
1730.0 1643 2201 3095 4368 5970 7703 9170 10000 9674 8344
1770.0 6475 4679 3364 2552 2034 1673 1396 1144 937 754
1810.0 608 485 392 327 280 242 207 188 175 168
1850.0 159 147 127 136 127 127 127 130 128 147
1890.0 135 135 134 138 143 134 135 143 144 142
1930.0 153 149 154 158 150 151 144 152 152 150
1970.0 141 142 140 130 122 121 118 113 113 114
2010.0 102 102 112 112 112 112 119 119 119 119
2050.0 115 110 111 100 101 90 90 90 91 89
2090.0 89 89 89 89 89 89 78 89 89 89
2130.0 87 79 87 79 79 78 78 77 77 71
2170.0 68 68 67 67 67 66 58 56 56 67
2210.0 56 62 53 58 67 63 73 64 65 65
2250.0 63 63 60 65 64 63 62 56 54 53
2290.0 62 61 62 70 83 89 100 86 108 119
2330.0 110 119 116 123 116 106 135 160 145 136
2370.0 117 103 70 61 51 49 49 48 38 47
2410.0 47 47 48 45 54 47 46 41 37 37
2450.0 36 36 27 36 36 34 37 36 36 36
2490.0 30 28 26 25 25 24 25 25 25 23
2530.0 24 18 12 24 24 24 23 23 25 25
2570.0 24 24 24 33 29 27 44 44 49 55
2610.0 64 53 63 64 53 55 55 55 55 49
2650.0 54 56 51 64 63 64 65 73 75 84
2690.0 84 108 103 131 140 156 158 158 168 186
2730.0 197 206 207 227 234 245 247 251 263 262
2770.0 279 300 318 329 357 368 406 429 467 513
2810.0 548 566 581 586 606 642 699 766 873 1028
2850.0 1227 1489 1831 2241 2679 3071 3362 3507 3457 3245
2890.0 2966 2678 2477 2337 2257 2187 2107 2024 1953 1971
2930.0 2107 2343 2667 2908 2962 2846 2621 2458 2437 2559
2970.0 2860 3296 3908 4544 4876 4705 4092 3244 2559 2024
3010.0 1616 1285 1033 803 655 538 452 386 326 284
3050.0 246 226 197 170 152 140 124 111 107 107
3090.0 97 98 88 88 80 88 88 80 69 79
3130.0 71 70 66 62 62 62 63 53 54 63
3170.0 53 54 46 55 43 44 50 46 46 46
3210.0 46 46 45 27 47 36 28 29 18 18
3250.0 24 20 20 20 20 20 20 12 9 14
3290.0 20 20 20 22 21 14 22 22 21 21
3330.0 22 22 22 22 22 22 22 22 24 24
3370.0 24 24 23 24 24 24 24 24 31 25
3410.0 25 24 24 26 26 26 26 17 25 25
3450.0 26 26 26 27 27 27 33 53 64 73
3490.0 65 84 91 90 65 52 33 29 28 27
3530.0 31 20 21 10 30 28 23 33 60 98
3570.0 184 222 231 242 203 130 79 50 40 32
3610.0 32 31 31 27 28 23 23 24 22 32
3650.0 32 33 32 34 34 37 36 32 33 32
3690.0 44 44 43 43 35 34 34 34 36 39
3730.0 34 35 35 36 36 36 26 37 36 36
3770.0 45 37 37 41 51 45 46 45 51 37
3810.0 38 47 47 39 39 39 38 38 40 38
3850.0 43 40 39 39 40 40 49 49 49 47
3890.0 45 39 40 42 42 42 50 50 41 52
3930.0 51 43 42 42 53 46 0 3 3 3
##END=
