##TITLE=1-Pentene, 2-methyl-
##JCAMP-DX=4.24
##DATA TYPE=INFRARED SPECTRUM
##ORIGIN=Sadtler Research Labs Under US-EPA Contract
##OWNER=NIST Standard Reference Data Program
##CAS REGISTRY NO=763-29-1
##MOLFORM=C 6 H 12
##XUNITS=1/CM
##YUNITS=ABSORBANCE
##XFACTOR=1.0
##YFACTOR=0.000124100
##DELTAX=4.0
##FIRSTX=450.0
##LASTX=3966.0
##FIRSTY=0.012658
##MAXX=3966
##MINX=450
##MAXY=1.241
##MINY=0
##NPOINTS=880
##XYDATA=(X++(Y..Y))
450.0 102 207 142 115 84 53 44 60 74 50
490.0 63 62 70 102 94 139 183 231 320 364
530.0 372 367 364 316 261 227 177 110 76 64
570.0 53 45 42 33 25 32 26 31 15 19
610.0 19 8 12 10 14 14 12 16 19 30
650.0 28 23 26 18 17 28 21 24 29 36
690.0 39 51 53 56 54 58 73 81 111 134
730.0 158 182 196 188 186 168 130 98 84 66
770.0 48 40 39 39 39 35 43 59 81 102
810.0 117 137 158 175 197 186 176 175 180 202
850.0 242 309 428 623 894 1284 1796 2337 2844 3318
890.0 4015 3917 3152 2728 2192 1593 1067 685 433 282
930.0 204 166 147 134 134 136 135 131 132 131
970.0 129 129 131 131 141 151 145 141 138 129
1010.0 117 101 89 80 80 78 81 87 80 79
1050.0 79 79 83 86 98 112 135 163 193 218
1090.0 239 242 237 225 196 160 128 99 76 60
1130.0 50 44 42 41 40 38 39 43 43 41
1170.0 43 46 45 47 49 55 62 73 88 109
1210.0 139 177 215 247 260 268 262 250 226 202
1250.0 200 216 252 293 325 353 354 353 332 294
1290.0 271 244 213 196 185 186 188 191 181 186
1330.0 200 220 257 266 274 291 329 396 501 664
1370.0 861 1048 1180 1255 1328 1218 1035 820 635 528
1410.0 513 506 588 649 775 887 1074 1228 1504 1777
1450.0 1982 2114 2084 2121 1964 1793 1525 1240 982 787
1490.0 597 450 328 290 197 221 201 173 150 145
1530.0 168 128 137 100 155 145 137 104 102 145
1570.0 133 156 118 168 154 166 160 175 170 195
1610.0 221 257 293 393 525 655 859 1078 1338 1472
1650.0 1587 1432 1480 1351 1096 748 533 334 263 145
1690.0 155 123 115 101 151 140 140 119 121 108
1730.0 113 71 77 68 97 80 75 83 92 115
1770.0 143 168 225 258 264 269 249 242 202 146
1810.0 108 83 56 50 36 33 35 22 35 23
1850.0 29 21 24 22 26 19 18 14 12 14
1890.0 13 15 12 13 13 12 18 8 21 12
1930.0 9 10 10 14 13 10 10 13 10 16
1970.0 12 12 13 11 10 18 14 10 8 10
2010.0 9 11 13 13 10 12 13 16 18 19
2050.0 18 17 16 17 22 15 16 15 16 13
2090.0 14 14 14 12 14 14 13 13 13 14
2130.0 12 10 9 12 9 9 10 11 13 12
2170.0 14 16 17 18 20 21 21 20 20 19
2210.0 15 12 13 10 9 8 12 12 12 12
2250.0 14 12 14 12 13 12 13 16 17 19
2290.0 17 18 21 21 20 22 21 23 23 27
2330.0 30 32 33 30 35 41 28 34 28 24
2370.0 22 30 28 30 26 26 25 25 28 30
2410.0 32 33 34 33 33 31 29 27 24 24
2450.0 23 21 22 21 21 20 20 21 20 21
2490.0 22 20 20 21 21 22 24 26 27 28
2530.0 25 28 31 34 35 37 37 38 40 38
2570.0 38 40 39 40 38 40 42 41 43 46
2610.0 45 46 44 47 45 46 48 52 54 59
2650.0 64 67 71 76 84 88 93 100 100 103
2690.0 103 106 104 104 108 117 126 139 150 167
2730.0 189 203 217 228 234 223 208 191 178 173
2770.0 174 180 194 206 224 244 266 293 323 355
2810.0 393 439 502 586 700 839 987 1154 1360 1589
2850.0 1840 2071 2269 2513 2839 3274 3862 4393 4623 4819
2890.0 4865 4895 4764 4622 4627 4768 5021 5411 5905 6489
2930.0 7133 7835 8394 8452 8570 8519 8425 8544 9066 9821
2970.0 10000 9786 9101 8050 6802 5221 3742 2754 2158 1726
3010.0 1417 1202 1036 906 808 737 684 646 617 605
3050.0 611 653 742 897 1185 1616 2009 2106 2369 2190
3090.0 2162 1811 1281 929 644 428 305 252 220 200
3130.0 187 170 161 151 146 140 134 127 123 114
3170.0 104 95 91 86 79 77 65 61 60 52
3210.0 46 40 38 33 28 24 21 22 20 15
3250.0 17 14 10 12 14 18 15 17 17 20
3290.0 22 25 23 30 29 22 21 20 25 24
3330.0 22 26 24 29 23 26 25 27 24 29
3370.0 32 27 30 26 27 28 24 21 24 24
3410.0 25 28 28 27 27 25 28 27 28 28
3450.0 31 24 34 30 38 35 36 36 39 43
3490.0 36 38 37 42 46 36 35 39 43 54
3530.0 44 39 42 35 50 47 22 47 33 59
3570.0 44 30 35 30 52 47 42 64 34 43
3610.0 50 47 52 47 57 21 63 51 54 57
3650.0 30 62 43 55 56 32 53 13 56 52
3690.0 22 43 54 44 50 47 45 52 60 71
3730.0 52 40 46 74 0 53 20 69 56 57
3770.0 68 60 65 61 62 45 49 42 17 38
3810.0 40 32 27 13 54 42 26 7 53 35
3850.0 55 7 44 39 45 21 39 37 39 21
3890.0 58 29 57 24 39 36 58 41 48 39
3930.0 34 48 43 47 43 52 57 48 47 41
##END=
