##TITLE=2,4-Hexadiene, 2,5-dimethyl-
##JCAMP-DX=4.24
##DATA TYPE=INFRARED SPECTRUM
##ORIGIN=Sadtler Research Labs Under US-EPA Contract
##OWNER=NIST Standard Reference Data Program
##CAS REGISTRY NO=764-13-6
##MOLFORM=C 8 H 14
##SOURCE REFERENCE=No.222124 (NIST/EPA/NIH MS Database)
##XUNITS=1/CM
##YUNITS=ABSORBANCE
##XFACTOR=1.0
##YFACTOR=0.000083469
##DELTAX=4.0
##FIRSTX=450.0
##LASTX=3966.0
##FIRSTY=0.038646
##MAXX=3966
##MINX=450
##MAXY=0.83469
##MINY=0
##NPOINTS=880
##XYDATA=(X++(Y..Y))
450.0 463 527 394 324 181 190 134 143 128 78
490.0 45 116 63 20 46 90 160 107 98 125
530.0 202 305 405 470 520 448 412 347 329 236
570.0 214 151 134 86 75 131 140 84 88 65
610.0 58 58 48 35 35 58 55 69 57 47
650.0 25 52 64 43 63 71 75 69 76 86
690.0 117 64 81 70 50 52 23 55 99 58
730.0 46 59 86 75 89 105 129 145 152 169
770.0 178 174 189 178 215 240 291 377 509 611
810.0 710 804 879 1008 1152 1317 1435 1565 1506 1208
850.0 968 784 575 425 321 283 262 284 294 333
890.0 348 359 362 348 337 302 270 247 236 227
930.0 227 229 240 254 275 312 335 376 406 453
970.0 508 581 629 646 717 686 652 582 510 424
1010.0 354 320 304 320 333 392 475 608 789 1013
1050.0 1170 1226 1160 990 754 541 418 346 310 285
1090.0 271 281 301 319 348 386 426 469 486 511
1130.0 512 544 563 603 650 696 763 814 868 875
1170.0 869 838 749 606 503 428 392 378 370 364
1210.0 340 333 330 326 333 362 386 400 415 414
1250.0 427 411 414 398 389 356 334 311 308 310
1290.0 324 339 353 378 393 431 453 482 488 488
1330.0 482 462 454 446 482 514 620 737 958 1236
1370.0 1594 2016 2219 2395 2550 2353 1941 1674 1350 1093
1410.0 893 829 816 895 1008 1216 1454 1627 2004 2195
1450.0 2283 2194 2068 1851 1546 1237 1005 827 714 577
1490.0 561 459 450 407 446 403 401 427 421 430
1530.0 405 460 421 439 393 404 374 375 334 313
1570.0 302 297 290 268 286 282 304 333 377 460
1610.0 553 689 763 802 773 674 548 433 378 359
1650.0 304 284 198 177 162 175 171 219 230 307
1690.0 355 404 417 399 333 296 245 184 142 147
1730.0 159 166 165 151 158 155 132 110 104 98
1770.0 99 92 81 80 80 70 86 62 66 61
1810.0 63 61 62 64 66 63 56 65 62 74
1850.0 50 48 55 51 50 52 53 39 49 45
1890.0 53 45 45 50 50 54 57 57 71 63
1930.0 71 75 78 77 81 81 91 84 94 88
1970.0 87 71 74 63 51 47 44 36 31 27
2010.0 22 19 16 16 10 12 12 13 14 12
2050.0 17 14 7 6 12 18 24 32 34 35
2090.0 38 39 40 35 40 37 39 42 46 47
2130.0 48 48 52 50 55 52 52 55 53 56
2170.0 57 59 55 56 51 50 48 50 43 41
2210.0 39 33 35 35 34 32 26 31 22 25
2250.0 18 16 18 18 21 22 17 21 15 20
2290.0 21 17 24 28 27 29 35 37 40 43
2330.0 37 35 28 14 6 32 35 54 6 6
2370.0 6 6 6 7 25 42 50 53 61 62
2410.0 59 57 55 51 44 42 43 43 43 46
2450.0 47 45 45 45 51 50 51 51 53 45
2490.0 40 41 41 42 36 44 38 35 26 32
2530.0 29 24 24 24 29 20 17 12 11 6
2570.0 9 15 21 17 26 25 29 26 25 32
2610.0 31 33 36 49 52 53 60 65 62 56
2650.0 56 50 56 56 57 63 65 64 61 67
2690.0 62 74 83 93 105 116 137 159 207 280
2730.0 401 516 579 621 614 523 441 394 347 306
2770.0 268 247 238 241 246 262 289 326 365 420
2810.0 494 566 653 729 811 877 977 1096 1274 1535
2850.0 1941 2606 3518 4539 5207 5616 5676 5498 5344 5320
2890.0 5429 5399 5411 5392 5732 6426 7706 9054 9841 10000
2930.0 9623 8642 6936 5711 4844 4263 3894 3904 4309 5072
2970.0 5624 5672 5915 5727 4920 4166 3625 3183 2880 2678
3010.0 2568 2545 2603 2684 2721 2693 2603 2464 2221 1961
3050.0 1702 1479 1287 1128 981 853 752 664 609 559
3090.0 517 480 462 432 402 381 367 330 299 268
3130.0 231 202 186 168 151 140 131 132 121 115
3170.0 112 106 101 96 96 83 86 79 93 80
3210.0 79 79 80 84 98 96 88 101 93 98
3250.0 90 85 82 77 91 81 83 73 83 71
3290.0 92 79 78 74 86 77 68 69 63 72
3330.0 62 78 56 67 68 70 71 75 81 75
3370.0 80 62 80 83 92 102 62 68 82 81
3410.0 68 76 60 84 67 52 55 63 49 61
3450.0 58 60 69 69 67 70 61 73 86 60
3490.0 61 60 75 59 43 65 58 80 51 67
3530.0 56 59 73 71 71 50 62 76 62 78
3570.0 47 64 63 65 92 57 45 42 61 83
3610.0 67 70 83 66 95 84 83 70 121 101
3650.0 86 73 48 79 61 97 61 35 26 50
3690.0 28 23 29 57 76 67 12 41 84 91
3730.0 76 82 61 18 78 0 50 78 49 78
3770.0 72 62 55 75 94 95 86 120 90 98
3810.0 80 98 127 70 88 80 141 123 82 74
3850.0 103 42 43 82 91 89 77 80 120 149
3890.0 60 125 108 113 99 68 116 106 54 119
3930.0 179 159 93 129 129 139 115 112 112 75
##END=
