##TITLE=Ethene, 1,1'-[oxybis(2,1-ethanediyloxy)]bis-
##JCAMP-DX=4.24
##DATA TYPE=INFRARED SPECTRUM
##ORIGIN=Sadtler Research Labs Under US-EPA Contract
##OWNER=NIST Standard Reference Data Program
##CAS REGISTRY NO=764-99-8
##MOLFORM=C 8 H 14 O 3
##XUNITS=1/CM
##YUNITS=ABSORBANCE
##XFACTOR=1.0
##YFACTOR=0.000069623
##DELTAX=4.0
##FIRSTX=450.0
##LASTX=3966.0
##FIRSTY=0.008076
##MAXX=3966
##MINX=450
##MAXY=0.69623
##MINY=0
##NPOINTS=880
##XYDATA=(X++(Y..Y))
450.0 116 107 102 107 75 114 58 119 96 146
490.0 172 157 193 178 195 237 217 200 168 103
530.0 129 163 114 153 75 166 118 251 6 126
570.0 0 4 66 34 179 149 130 122 148 124
610.0 112 84 74 86 41 62 32 58 52 73
650.0 62 66 73 42 41 89 131 86 148 164
690.0 210 209 205 209 149 165 127 125 74 108
730.0 90 89 110 108 143 125 163 155 196 203
770.0 242 262 306 376 408 538 642 827 1050 1377
810.0 1748 2150 2408 2457 2388 2240 2182 2040 1928 1732
850.0 1620 1455 1288 1169 1076 1022 929 911 874 859
890.0 835 843 863 883 947 974 1053 1110 1230 1295
930.0 1412 1529 1692 1773 1759 1768 1801 2003 2144 2215
970.0 2188 2231 2326 2291 2242 2044 1859 1715 1729 1791
1010.0 1886 1847 1687 1489 1354 1353 1383 1498 1550 1638
1050.0 1640 1630 1619 1677 1782 1974 2317 2697 3207 3589
1090.0 3823 3859 3784 3702 3659 3772 3969 4354 4895 5633
1130.0 6450 7404 8169 8514 8167 7225 6101 5113 4547 4282
1170.0 4426 4812 5358 5905 6357 6865 7473 8327 9223 10000
1210.0 9613 8206 6097 4059 2756 2032 1689 1521 1495 1460
1250.0 1466 1427 1411 1372 1334 1324 1334 1405 1465 1547
1290.0 1575 1588 1575 1608 1761 2121 2732 3403 3747 3399
1330.0 2791 1941 1481 1199 1192 1350 1526 1620 1557 1375
1370.0 1190 1098 976 946 943 848 839 711 659 626
1410.0 607 573 574 425 384 370 391 418 466 622
1450.0 772 1031 1120 1121 997 863 702 602 573 547
1490.0 511 435 399 332 426 312 369 378 342 329
1530.0 315 342 372 310 277 305 311 357 234 304
1570.0 370 434 494 619 809 1054 1405 1896 2537 3470
1610.0 4731 5985 6374 6155 5257 4963 5348 5937 6122 5792
1650.0 4681 3569 2870 2453 1982 1587 1226 912 810 605
1690.0 516 504 386 301 296 275 305 279 255 267
1730.0 291 283 248 235 275 267 231 266 267 267
1770.0 251 213 191 182 160 178 128 129 113 95
1810.0 118 92 109 106 117 104 88 71 112 85
1850.0 82 85 87 115 128 135 142 147 154 128
1890.0 121 104 115 112 128 137 151 159 160 138
1930.0 140 144 133 153 133 130 147 150 127 130
1970.0 129 119 135 108 134 132 123 124 131 139
2010.0 129 134 123 136 114 119 116 127 128 123
2050.0 118 104 112 113 123 112 129 106 106 107
2090.0 99 96 96 102 83 99 75 93 84 85
2130.0 85 85 99 85 101 93 106 87 97 93
2170.0 92 91 94 99 93 107 72 91 73 74
2210.0 65 61 66 59 71 51 64 51 64 58
2250.0 57 54 48 62 45 51 50 59 38 53
2290.0 48 48 61 59 67 70 78 68 88 62
2330.0 65 51 40 38 1 78 81 88 17 0
2370.0 0 0 0 0 9 16 43 30 32 24
2410.0 37 25 27 27 21 21 11 24 7 27
2450.0 15 25 17 24 33 16 34 16 26 20
2490.0 33 15 28 36 27 25 18 40 25 48
2530.0 38 50 43 36 27 29 36 28 34 26
2570.0 40 28 31 36 34 23 23 34 14 28
2610.0 12 22 6 20 15 18 10 13 25 24
2650.0 22 14 27 22 46 51 59 73 67 90
2690.0 81 101 106 141 151 166 189 197 222 225
2730.0 232 211 230 220 210 216 216 221 214 226
2770.0 217 237 233 249 256 270 283 305 334 337
2810.0 403 416 469 487 522 545 577 649 715 852
2850.0 1036 1272 1537 1864 2159 2489 2730 2894 2995 2943
2890.0 2868 2724 2606 2479 2442 2443 2542 2694 2896 3108
2930.0 3275 3409 3422 3379 3147 2933 2680 2439 2231 2072
2970.0 1949 1756 1597 1347 1174 990 839 697 594 495
3010.0 410 368 323 334 328 353 328 321 308 301
3050.0 334 372 437 422 410 336 327 307 314 325
3090.0 298 278 238 242 212 278 330 442 614 756
3130.0 745 599 360 208 162 99 99 82 70 64
3170.0 61 71 66 66 42 59 60 64 46 47
3210.0 58 38 67 24 62 47 65 37 54 51
3250.0 35 60 43 62 43 70 50 56 38 50
3290.0 55 47 67 29 62 28 61 37 48 67
3330.0 24 73 63 46 25 53 47 63 44 39
3370.0 27 51 49 58 57 23 65 52 50 53
3410.0 62 48 43 61 27 68 20 71 73 53
3450.0 47 73 82 51 73 40 71 41 81 45
3490.0 60 49 45 86 55 56 33 38 55 65
3530.0 31 51 35 37 72 38 49 58 76 92
3570.0 46 45 76 74 105 54 56 70 50 87
3610.0 86 87 75 59 97 43 61 66 88 113
3650.0 85 27 18 57 70 115 78 26 45 86
3690.0 43 26 18 60 66 88 68 82 111 75
3730.0 107 92 55 96 53 81 1 30 33 76
3770.0 70 74 75 88 92 96 123 117 124 91
3810.0 79 103 105 76 87 106 114 111 82 99
3850.0 143 125 62 93 77 92 115 116 99 80
3890.0 77 72 107 90 80 89 98 105 100 101
3930.0 111 147 140 137 112 123 126 141 125 114
##END=
