##TITLE=Tridecane, 1-bromo-
##JCAMP-DX=4.24
##DATA TYPE=INFRARED SPECTRUM
##ORIGIN=Sadtler Research Labs Under US-EPA Contract
##OWNER=NIST Standard Reference Data Program
##CAS REGISTRY NO=765-09-3
##MOLFORM=C 13 H 27 Br
##XUNITS=1/CM
##YUNITS=ABSORBANCE
##XFACTOR=1.0
##YFACTOR=0.000127664
##DELTAX=4.0
##FIRSTX=450.0
##LASTX=3966.0
##FIRSTY=0.005873
##MAXX=3966
##MINX=450
##MAXY=1.27664
##MINY=0
##NPOINTS=880
##XYDATA=(X++(Y..Y))
450.0 46 169 37 348 32 25 221 115 163 136
490.0 162 104 92 102 163 144 181 141 264 138
530.0 181 230 198 216 247 294 228 106 185 91
570.0 84 155 126 146 141 133 99 133 98 103
610.0 156 179 211 265 272 123 156 126 66 39
650.0 73 78 49 93 73 88 118 83 74 96
690.0 87 99 77 101 135 172 213 226 227 236
730.0 237 205 186 187 42 120 215 176 140 159
770.0 139 113 114 96 110 114 108 88 97 102
810.0 87 92 101 106 83 73 74 87 80 80
850.0 90 67 51 102 115 85 94 96 119 101
890.0 93 85 87 126 95 88 96 72 85 55
930.0 77 65 76 56 69 66 91 106 69 83
970.0 99 101 94 111 107 94 125 141 147 122
1010.0 149 170 115 104 92 80 106 108 79 87
1050.0 93 72 95 67 58 70 101 92 87 85
1090.0 103 104 100 76 106 102 116 124 151 167
1130.0 191 198 215 190 200 218 233 238 234 250
1170.0 258 259 261 263 287 311 325 342 336 342
1210.0 352 370 362 355 352 336 349 343 319 303
1250.0 293 279 262 239 237 239 233 210 204 222
1290.0 223 228 243 247 240 227 216 196 164 171
1330.0 165 187 185 205 239 282 310 308 282 280
1370.0 273 305 388 472 501 332 215 173 130 126
1410.0 108 127 105 134 158 217 270 362 470 580
1450.0 722 815 895 958 904 768 594 394 267 191
1490.0 139 121 93 94 89 76 53 45 51 57
1530.0 33 55 47 55 29 17 38 29 66 24
1570.0 29 40 21 39 26 24 37 17 30 25
1610.0 26 22 40 34 24 43 28 40 35 25
1650.0 40 44 63 41 27 55 19 38 49 41
1690.0 27 34 52 59 41 25 17 29 26 16
1730.0 18 39 24 11 24 32 20 23 19 13
1770.0 30 36 14 33 16 33 17 36 13 26
1810.0 22 11 24 12 21 24 22 20 8 23
1850.0 19 16 14 15 25 17 15 8 17 14
1890.0 10 13 14 10 22 12 17 12 19 16
1930.0 17 11 16 16 15 12 14 10 21 15
1970.0 14 14 13 13 21 15 14 7 13 16
2010.0 14 15 20 16 22 14 20 27 22 22
2050.0 25 20 22 18 18 14 15 14 15 18
2090.0 13 17 18 13 6 5 8 16 16 16
2130.0 15 19 13 7 11 10 10 10 13 9
2170.0 6 15 12 10 14 11 16 12 14 14
2210.0 17 16 18 16 12 18 12 18 17 17
2250.0 15 20 19 12 18 16 13 14 12 13
2290.0 10 11 11 2 6 3 3 5 4 4
2330.0 11 18 8 12 2 10 15 16 10 16
2370.0 19 15 13 14 11 18 17 17 17 16
2410.0 21 15 19 17 21 19 16 15 18 19
2450.0 17 19 17 16 16 16 20 20 18 18
2490.0 24 19 26 24 23 27 28 34 31 33
2530.0 34 34 36 39 38 34 36 39 35 38
2570.0 41 39 45 43 45 44 47 51 51 52
2610.0 55 59 57 58 63 63 64 70 66 70
2650.0 76 75 81 83 86 88 91 99 101 102
2690.0 103 97 97 95 93 91 92 94 95 99
2730.0 104 105 113 119 120 121 119 116 114 116
2770.0 118 123 131 139 152 167 181 194 214 230
2810.0 250 280 311 351 394 459 539 653 797 994
2850.0 1321 1889 2740 3555 3836 3514 2968 2484 2231 2098
2890.0 1982 1930 1995 2197 2512 2936 3479 4264 5496 7308
2930.0 9185 10000 9353 7931 6325 4884 3834 3269 3130 3226
2970.0 3310 3053 2456 1828 1421 1283 1277 1087 763 537
3010.0 416 345 298 267 241 216 197 180 164 148
3050.0 144 133 122 117 113 104 100 98 94 89
3090.0 89 83 80 75 74 75 74 74 70 68
3130.0 68 67 66 65 65 63 61 67 58 59
3170.0 58 53 53 56 58 53 53 55 58 50
3210.0 53 47 42 48 46 42 41 40 37 36
3250.0 29 31 35 30 30 32 39 26 27 22
3290.0 22 25 25 28 21 21 20 24 27 26
3330.0 16 19 18 22 21 18 22 29 23 19
3370.0 23 18 19 19 22 16 14 17 22 13
3410.0 20 21 21 21 28 22 17 15 26 24
3450.0 10 7 13 18 21 13 10 13 12 14
3490.0 9 15 16 16 12 14 8 11 15 15
3530.0 15 10 14 21 12 11 10 11 7 16
3570.0 8 20 9 8 9 11 17 9 20 8
3610.0 28 20 27 15 24 28 31 15 16 2
3650.0 26 37 22 22 5 25 11 43 8 16
3690.0 19 13 10 10 10 11 10 7 4 14
3730.0 9 25 21 6 41 22 46 8 17 8
3770.0 8 21 0 14 6 1 16 3 16 27
3810.0 2 10 6 44 25 12 19 20 45 11
3850.0 24 25 47 2 7 22 8 32 13 34
3890.0 5 24 8 10 40 14 8 13 38 7
3930.0 30 20 24 2 32 24 41 4 23 42
##END=
