##TITLE=Ethanone, 1-cyclopropyl-
##JCAMP-DX=4.24
##DATA TYPE=INFRARED SPECTRUM
##ORIGIN=Sadtler Research Labs Under US-EPA Contract
##OWNER=NIST Standard Reference Data Program
##CAS REGISTRY NO=765-43-5
##MOLFORM=C 5 H 8 O
##SOURCE REFERENCE=No.221898 (NIST/EPA/NIH MS Database)
##XUNITS=1/CM
##YUNITS=ABSORBANCE
##XFACTOR=1.0
##YFACTOR=0.000073584
##DELTAX=4.0
##FIRSTX=450.0
##LASTX=3966.0
##FIRSTY=0.004783
##MAXX=3966
##MINX=450
##MAXY=0.73584
##MINY=0
##NPOINTS=880
##XYDATA=(X++(Y..Y))
450.0 65 50 117 154 156 143 103 125 148 215
490.0 202 168 90 67 94 20 125 119 129 90
530.0 63 28 19 98 60 148 145 198 272 461
570.0 790 981 1216 1234 1254 1093 1053 765 400 254
610.0 143 183 133 123 91 103 117 138 144 117
650.0 88 66 89 85 113 173 132 92 61 82
690.0 89 119 152 152 117 100 99 136 151 193
730.0 177 118 158 104 163 165 160 139 130 171
770.0 122 147 142 241 303 408 474 561 640 682
810.0 806 863 1006 990 778 637 549 549 491 456
850.0 333 334 305 266 289 342 475 735 1217 1631
890.0 1854 1848 2158 1994 2008 1733 1228 855 710 670
930.0 713 802 945 1165 1457 1774 2035 2293 2340 2352
970.0 2259 1962 1615 1295 984 761 582 513 470 501
1010.0 575 714 878 1021 1177 1187 1199 1288 1334 1241
1050.0 1130 1058 940 887 840 914 952 1214 1599 1856
1090.0 1907 1947 1914 1708 1519 1123 834 630 542 552
1130.0 584 707 872 1188 1742 2593 3692 4665 5401 6001
1170.0 5987 6162 6081 5353 4667 3580 2820 2518 2234 2045
1210.0 1656 1174 787 534 422 398 419 518 629 674
1250.0 692 750 680 664 595 447 329 266 253 259
1290.0 233 250 245 263 292 330 393 433 508 573
1330.0 709 853 1052 1253 1456 1673 1974 2542 3491 4885
1370.0 6460 7622 7917 8221 7790 7339 6836 4762 2943 1980
1410.0 1613 1557 1654 1771 1773 1663 1621 1663 1575 1428
1450.0 1299 1199 1176 1019 938 805 751 642 579 524
1490.0 495 397 359 309 353 346 319 363 380 344
1530.0 326 357 372 403 380 356 367 379 326 261
1570.0 266 252 244 209 189 182 174 176 188 198
1610.0 217 215 262 231 256 269 296 322 299 347
1650.0 331 435 375 456 533 631 715 852 1098 1498
1690.0 1991 2730 3790 5075 6430 7984 9213 9891 9694 9458
1730.0 10000 8804 6717 4838 3379 2344 1536 1058 767 593
1770.0 543 505 473 457 423 361 325 267 239 198
1810.0 170 156 142 130 136 136 140 140 164 184
1850.0 169 162 161 161 156 187 158 162 144 143
1890.0 150 149 167 163 184 179 185 198 192 190
1930.0 172 176 153 156 134 123 128 122 126 117
1970.0 117 96 96 88 83 82 87 72 64 64
2010.0 62 68 74 74 67 67 61 62 75 89
2050.0 103 109 120 119 131 126 144 158 157 163
2090.0 172 192 198 220 219 220 214 203 191 162
2130.0 155 129 123 106 102 86 76 78 73 89
2170.0 80 93 80 80 80 79 85 80 79 70
2210.0 58 58 58 70 70 78 71 77 70 71
2250.0 76 84 89 90 90 82 82 86 88 82
2290.0 81 75 67 67 63 75 81 98 90 98
2330.0 88 96 99 110 113 92 132 73 81 68
2370.0 90 96 66 60 45 44 36 41 43 43
2410.0 48 28 40 25 39 34 37 44 33 41
2450.0 33 46 46 60 59 61 66 60 69 68
2490.0 80 73 72 71 64 63 64 70 77 77
2530.0 69 59 50 46 49 40 43 42 35 28
2570.0 21 21 34 33 42 33 33 36 36 54
2610.0 45 51 45 39 31 25 30 19 25 13
2650.0 19 6 7 18 14 30 16 29 8 4
2690.0 8 17 18 14 19 2 13 2 11 14
2730.0 14 26 7 14 5 17 19 30 30 27
2770.0 21 19 21 26 40 39 35 31 27 27
2810.0 29 44 50 66 65 66 80 100 121 142
2850.0 140 146 151 145 153 156 166 166 164 166
2890.0 165 180 194 223 254 294 324 362 401 420
2930.0 443 450 473 466 451 438 433 461 483 575
2970.0 575 532 497 485 520 576 714 924 1247 1626
3010.0 2011 2362 2599 2801 2727 2518 2301 1951 1628 1385
3050.0 1211 1085 969 845 732 636 588 566 595 650
3090.0 738 824 865 824 777 798 759 596 394 261
3130.0 166 131 99 86 79 55 54 40 53 46
3170.0 47 38 27 30 5 15 5 29 32 19
3210.0 15 1 14 1 23 11 16 14 3 3
3250.0 1 18 10 26 2 1 6 1 13 14
3290.0 22 10 10 2 1 13 3 27 21 14
3330.0 6 7 13 22 34 36 30 24 10 14
3370.0 19 20 39 33 46 34 51 72 98 139
3410.0 149 172 165 183 186 185 186 165 158 97
3450.0 84 47 42 49 29 39 1 13 1 6
3490.0 6 15 22 10 17 1 11 2 15 28
3530.0 18 15 1 6 14 33 25 20 23 21
3570.0 32 9 21 21 34 38 20 14 7 16
3610.0 46 40 35 35 14 43 14 26 32 38
3650.0 61 20 20 1 14 34 54 40 21 13
3690.0 19 8 5 33 14 34 18 2 14 17
3730.0 37 45 66 33 48 35 21 26 20 34
3770.0 12 7 1 3 6 9 28 14 29 1
3810.0 7 6 27 47 33 39 30 41 40 47
3850.0 59 83 56 35 34 34 47 48 67 63
3890.0 55 35 43 58 60 63 53 55 21 20
3930.0 20 28 33 34 22 0 1 1 1 1
##END=
