##TITLE=2,5-Dibromobenzotrifluoride
##JCAMP-DX=4.24
##DATA TYPE=INFRARED SPECTRUM
##ORIGIN=Sadtler Research Labs Under US-EPA Contract
##OWNER=NIST Standard Reference Data Program
##CAS REGISTRY NO=7657-09-2
##MOLFORM=C 7 H 3 Br 2 F 3
##XUNITS=1/CM
##YUNITS=ABSORBANCE
##XFACTOR=1.0
##YFACTOR=0.000101523
##DELTAX=4.0
##FIRSTX=450.0
##LASTX=3966.0
##FIRSTY=0.016548
##MAXX=3966
##MINX=450
##MAXY=1.01523
##MINY=0
##NPOINTS=880
##XYDATA=(X++(Y..Y))
450.0 163 205 222 195 312 450 560 460 326 162
490.0 113 63 67 77 132 175 236 290 238 198
530.0 112 59 51 63 41 46 16 14 39 37
570.0 38 32 25 36 54 91 133 120 81 56
610.0 40 47 26 25 0 12 11 26 52 69
650.0 286 460 506 279 49 35 34 33 39 44
690.0 46 57 80 109 199 557 949 989 526 181
730.0 91 46 30 18 9 29 33 33 20 36
770.0 22 22 26 40 44 64 74 91 168 387
810.0 784 1104 1378 1016 554 255 79 53 56 38
850.0 48 28 34 22 26 21 39 54 165 339
890.0 543 682 459 236 83 14 10 6 0 12
930.0 23 22 20 28 27 28 39 35 33 34
970.0 35 36 29 38 33 40 41 51 67 150
1010.0 368 926 2112 3322 3384 2109 872 393 244 189
1050.0 187 213 262 243 232 246 348 517 857 1287
1090.0 1696 2180 2434 2151 1204 557 414 446 626 1089
1130.0 1703 2085 1965 1848 2091 2584 3419 4697 6164 7204
1170.0 7061 6568 7030 7339 6000 3927 2351 1480 968 701
1210.0 537 450 452 557 685 739 789 946 1218 1313
1250.0 1147 870 819 1075 1343 1316 983 833 1117 1706
1290.0 2649 4395 7162 9798 10000 7147 3590 1395 568 332
1330.0 256 244 274 289 256 214 148 124 132 161
1370.0 217 362 632 1293 2316 2947 2385 1253 653 510
1410.0 393 285 271 209 187 159 190 212 263 338
1450.0 479 683 1082 1493 1699 1493 956 486 248 168
1490.0 151 113 123 122 170 187 143 129 124 77
1530.0 64 48 58 78 75 51 71 123 110 80
1570.0 66 61 82 110 109 99 56 34 12 13
1610.0 13 16 40 34 66 68 110 107 65 35
1650.0 41 35 8 2 2 12 25 5 39 49
1690.0 29 22 57 59 50 35 54 84 53 41
1730.0 58 87 57 58 74 90 88 94 103 111
1770.0 145 141 124 128 113 90 69 50 55 34
1810.0 36 40 32 33 33 41 35 33 47 59
1850.0 44 30 25 23 29 40 25 24 30 36
1890.0 49 56 68 79 82 71 52 34 32 22
1930.0 19 20 20 33 27 21 22 24 23 27
1970.0 26 25 27 25 25 30 25 19 18 18
2010.0 14 19 22 17 16 12 11 18 18 16
2050.0 16 17 20 19 20 18 17 13 14 17
2090.0 18 16 19 22 29 32 34 32 26 20
2130.0 17 11 12 13 13 13 11 11 10 14
2170.0 17 18 17 19 21 24 22 25 24 22
2210.0 22 19 21 19 20 18 20 18 20 21
2250.0 25 27 31 35 39 39 42 40 40 43
2290.0 48 52 54 56 58 64 59 54 56 59
2330.0 54 41 36 34 60 60 51 51 33 27
2370.0 40 39 39 43 38 29 22 23 23 18
2410.0 18 12 14 10 9 11 10 12 13 11
2450.0 12 13 13 13 13 16 13 13 12 9
2490.0 10 10 12 12 9 9 12 13 10 13
2530.0 13 13 12 11 14 16 16 13 13 13
2570.0 13 13 13 11 9 8 8 9 9 11
2610.0 9 7 7 5 5 8 6 9 10 6
2650.0 11 6 8 9 5 4 7 7 10 10
2690.0 11 14 11 9 5 6 7 7 7 6
2730.0 3 4 4 2 3 0 3 3 2 1
2770.0 4 3 3 5 10 10 16 17 20 18
2810.0 18 14 16 19 17 16 17 12 16 10
2850.0 13 13 18 17 20 22 21 22 21 20
2890.0 24 20 14 16 16 13 11 13 16 17
2930.0 19 19 23 18 18 18 16 17 16 23
2970.0 22 19 13 11 10 8 7 7 11 8
3010.0 10 12 12 14 14 11 9 9 6 6
3050.0 6 4 11 9 10 18 27 41 52 56
3090.0 52 39 33 33 34 28 20 11 10 11
3130.0 11 11 10 8 9 10 5 8 8 2
3170.0 5 1 6 4 3 4 2 4 5 3
3210.0 3 4 0 3 5 3 1 5 2 3
3250.0 5 5 2 4 1 0 3 2 6 4
3290.0 5 5 5 3 1 3 3 5 1 3
3330.0 5 2 5 7 2 6 8 4 7 7
3370.0 2 2 6 8 5 5 3 9 4 10
3410.0 7 5 6 5 6 4 2 9 7 5
3450.0 4 12 10 3 4 5 4 4 4 3
3490.0 7 3 5 7 3 6 5 3 11 8
3530.0 6 4 4 4 11 13 8 8 6 7
3570.0 11 9 19 18 25 19 22 4 7 10
3610.0 12 12 4 12 0 14 8 8 9 5
3650.0 8 10 0 17 6 11 6 12 11 11
3690.0 4 1 3 10 7 13 13 8 13 13
3730.0 9 14 18 11 12 1 14 16 9 10
3770.0 5 6 8 12 11 10 2 11 19 9
3810.0 11 9 6 20 17 9 19 12 10 8
3850.0 9 6 21 12 6 3 5 6 13 18
3890.0 10 16 11 20 17 10 2 11 13 9
3930.0 12 27 12 8 22 24 11 5 0 10
##END=
