##TITLE=Benzonitrile, 3-chloro-
##JCAMP-DX=4.24
##DATA TYPE=INFRARED SPECTRUM
##ORIGIN=Sadtler Research Labs Under US-EPA Contract
##OWNER=NIST Standard Reference Data Program
##CAS REGISTRY NO=766-84-7
##MOLFORM=C 7 H 4 Cl N
##XUNITS=1/CM
##YUNITS=ABSORBANCE
##XFACTOR=1.0
##YFACTOR=0.000108441
##DELTAX=4.0
##FIRSTX=450.0
##LASTX=3966.0
##FIRSTY=0.060402
##MAXX=3966
##MINX=450
##MAXY=1.08441
##MINY=0
##NPOINTS=880
##XYDATA=(X++(Y..Y))
450.0 557 1120 895 609 276 163 64 57 48 62
490.0 30 91 93 101 104 88 90 59 74 18
530.0 39 48 99 99 135 198 161 185 153 170
570.0 140 188 207 263 202 195 186 103 117 86
610.0 106 41 84 78 113 140 182 227 219 350
650.0 394 711 1057 1905 2563 3720 5017 6852 5620 4424
690.0 3801 2575 1564 1042 744 596 423 389 308 242
730.0 205 214 246 342 532 639 633 643 756 1146
770.0 2076 3421 4672 6107 10000 7789 5560 4785 3353 2127
810.0 1530 1570 1741 1885 2173 2720 3547 4634 6139 7040
850.0 6645 5720 4308 2221 1240 1218 1467 1869 2236 3191
890.0 2839 1978 1730 1248 900 643 413 307 233 160
930.0 95 66 62 67 91 121 130 151 173 179
970.0 164 163 137 116 105 130 182 171 159 201
1010.0 187 173 202 232 256 268 284 308 375 447
1050.0 483 517 569 621 764 1118 1826 2739 3194 4096
1090.0 5268 4863 4156 3432 2522 1653 958 526 369 291
1130.0 255 236 195 177 150 182 202 241 263 320
1170.0 319 329 447 813 1897 3487 4563 4410 4567 3018
1210.0 850 275 241 260 361 360 382 369 352 376
1250.0 505 649 728 720 681 584 391 255 186 164
1290.0 183 264 386 436 419 358 244 121 84 107
1330.0 122 119 111 110 119 143 151 147 140 113
1370.0 75 63 78 114 189 342 608 1087 1764 2371
1410.0 2632 2791 2845 2145 1475 1035 606 351 325 471
1450.0 942 1704 2806 3701 4385 5364 5666 4827 4147 3327
1490.0 1830 915 627 508 409 322 276 262 256 276
1530.0 339 477 737 1123 1658 2153 2749 3488 4571 5510
1570.0 6067 6151 6141 5211 4076 3658 3539 3292 2669 2038
1610.0 1370 744 380 241 172 150 124 110 102 96
1650.0 87 82 88 73 83 86 105 159 262 430
1690.0 585 627 575 478 296 159 110 111 103 103
1730.0 91 90 96 117 151 212 301 383 474 537
1770.0 539 490 460 382 296 245 220 216 235 276
1810.0 302 304 284 268 220 142 95 71 66 72
1850.0 87 107 127 163 226 323 433 492 482 417
1890.0 303 178 93 59 35 30 31 43 67 107
1930.0 165 236 304 345 359 338 303 223 151 98
1970.0 58 41 33 30 24 20 16 16 20 17
2010.0 20 23 21 17 15 11 11 10 6 6
2050.0 2 1 0 4 1 3 2 2 5 8
2090.0 11 12 16 21 23 17 12 6 3 3
2130.0 1 2 2 4 8 5 9 10 14 16
2170.0 23 25 28 27 25 19 15 13 13 21
2210.0 37 71 135 262 469 748 987 1088 1035 850
2250.0 516 205 86 63 40 31 27 27 32 40
2290.0 43 50 46 45 38 41 44 47 58 69
2330.0 88 108 110 106 126 122 118 113 105 120
2370.0 131 120 122 116 120 116 116 105 90 71
2410.0 55 46 39 34 38 35 35 31 29 21
2450.0 18 19 20 27 28 33 32 37 43 46
2490.0 49 56 61 64 64 61 70 85 92 92
2530.0 83 72 55 41 37 39 40 50 58 64
2570.0 68 64 61 56 55 57 54 55 56 52
2610.0 52 50 52 42 37 35 33 28 30 29
2650.0 32 30 35 41 42 40 43 53 59 72
2690.0 84 90 85 83 68 44 35 34 40 44
2730.0 48 49 47 54 48 57 61 64 75 88
2770.0 97 110 119 125 127 113 101 87 64 50
2810.0 47 45 44 46 44 39 40 38 33 39
2850.0 43 39 42 41 45 37 43 38 40 38
2890.0 33 34 32 27 25 24 18 32 33 45
2930.0 46 58 62 62 67 53 55 48 49 44
2970.0 40 38 39 38 38 38 42 45 47 52
3010.0 68 82 101 113 133 148 157 154 154 155
3050.0 151 165 209 289 432 645 898 1074 1123 1143
3090.0 1044 826 577 401 323 250 172 115 77 49
3130.0 45 42 42 38 37 40 43 47 42 48
3170.0 47 44 42 41 40 33 29 28 28 21
3210.0 19 19 19 15 26 23 23 15 18 15
3250.0 17 16 19 20 19 26 21 14 18 24
3290.0 21 24 32 17 16 12 19 16 17 23
3330.0 24 33 27 18 26 21 26 21 24 16
3370.0 19 15 21 24 17 20 20 23 27 30
3410.0 46 59 76 100 125 141 140 119 100 72
3450.0 42 29 27 28 29 41 32 21 27 21
3490.0 26 33 33 35 30 39 28 34 24 34
3530.0 41 38 37 43 39 34 39 35 28 38
3570.0 37 31 27 35 35 37 45 29 18 17
3610.0 24 27 29 33 32 40 40 38 28 30
3650.0 46 37 37 34 26 33 20 44 32 43
3690.0 41 44 41 47 59 61 62 59 60 50
3730.0 34 50 49 48 61 46 59 52 52 62
3770.0 70 79 60 78 57 54 48 42 42 44
3810.0 24 34 39 44 52 44 33 67 54 47
3850.0 29 40 40 25 25 23 27 33 18 31
3890.0 29 35 21 46 60 45 32 58 74 38
3930.0 60 76 44 52 37 29 30 28 13 13
##END=
