##TITLE=Benzene, 1-chloro-2-methoxy-
##JCAMP-DX=4.24
##DATA TYPE=INFRARED SPECTRUM
##ORIGIN=Sadtler Research Labs Under US-EPA Contract
##OWNER=NIST Standard Reference Data Program
##CAS REGISTRY NO=766-51-8
##MOLFORM=C 7 H 7 Cl O
##XUNITS=1/CM
##YUNITS=ABSORBANCE
##XFACTOR=1.0
##YFACTOR=0.000059149
##DELTAX=4.0
##FIRSTX=450.0
##LASTX=3966.0
##FIRSTY=0.005383
##MAXX=3966
##MINX=450
##MAXY=0.59149
##MINY=0
##NPOINTS=880
##XYDATA=(X++(Y..Y))
450.0 91 110 85 62 47 32 24 7 56 74
490.0 61 54 141 176 13 95 56 70 88 151
530.0 188 158 212 234 212 206 202 414 322 350
570.0 437 458 460 397 306 243 164 124 133 86
610.0 74 74 89 78 70 57 55 62 48 69
650.0 94 110 164 255 390 768 976 1299 1578 1681
690.0 1523 1282 955 597 454 508 691 803 1075 1460
730.0 2119 2913 3606 5055 5932 4260 3901 2840 1777 1088
770.0 667 394 299 389 426 572 666 697 684 607
810.0 463 323 200 174 127 91 83 109 108 112
850.0 114 112 94 86 83 73 66 74 73 73
890.0 66 64 57 57 59 82 106 137 177 229
930.0 173 158 115 90 73 66 75 84 105 126
970.0 147 193 220 277 342 420 507 637 814 1080
1010.0 1411 1793 2171 2581 3044 3570 3977 4119 3841 3290
1050.0 2844 2744 3213 4199 5051 5359 5125 4248 2938 1805
1090.0 1232 983 809 670 533 440 438 598 898 1160
1130.0 1242 1188 1044 733 445 370 404 387 380 386
1170.0 369 366 411 456 473 453 412 359 324 321
1210.0 355 399 504 667 956 1453 2267 3463 4908 6262
1250.0 6968 7210 7288 7090 6783 6809 6733 6310 5538 4640
1290.0 3942 3628 3429 3088 2645 1996 1169 618 367 263
1330.0 204 178 197 179 148 145 147 158 186 196
1370.0 222 282 307 311 326 310 295 282 242 247
1410.0 279 319 503 681 1094 1653 2179 2391 2552 2734
1450.0 2621 2555 2897 3264 3470 3860 5192 7074 8961 10000
1490.0 9730 8420 6341 3923 2304 1458 1017 768 560 347
1530.0 276 243 264 305 291 273 329 474 574 789
1570.0 1137 1519 1964 2504 3036 3246 3036 2659 2085 1380
1610.0 798 477 349 216 175 95 113 111 83 107
1650.0 137 169 119 132 149 161 175 126 165 166
1690.0 106 93 147 130 97 66 82 122 62 48
1730.0 80 142 96 102 132 179 163 171 178 165
1770.0 172 172 126 133 129 132 143 119 121 96
1810.0 91 85 73 81 80 88 75 75 96 119
1850.0 92 87 85 85 102 128 130 159 176 194
1890.0 201 184 148 118 95 87 105 125 156 160
1930.0 155 140 109 90 58 44 27 27 25 31
1970.0 19 16 17 16 16 26 19 19 16 26
2010.0 24 36 49 54 58 69 86 106 112 133
2050.0 139 149 156 166 183 186 178 161 153 127
2090.0 112 105 105 96 87 75 56 47 39 29
2130.0 30 31 31 31 31 24 31 31 40 41
2170.0 40 33 31 32 25 24 17 16 7 7
2210.0 9 9 9 9 16 8 8 9 9 17
2250.0 18 25 29 34 37 57 65 83 91 92
2290.0 92 82 71 53 36 24 28 37 40 31
2330.0 30 29 16 22 14 1 24 32 53 26
2370.0 36 40 43 42 51 48 49 42 43 25
2410.0 25 25 24 18 19 9 9 11 11 10
2450.0 10 10 11 11 12 17 22 20 27 21
2490.0 30 29 39 39 46 46 55 56 65 67
2530.0 85 93 98 113 120 133 132 126 117 110
2570.0 92 92 83 75 67 51 52 44 35 35
2610.0 35 35 37 36 37 38 36 30 30 30
2650.0 30 30 30 24 16 15 6 6 7 0
2690.0 0 0 9 0 0 1 6 9 10 17
2730.0 27 27 19 26 25 19 22 23 19 14
2770.0 5 12 20 21 29 30 45 48 66 84
2810.0 101 132 171 229 308 445 671 973 1263 1367
2850.0 1362 1255 976 659 483 426 424 445 489 532
2890.0 575 619 655 723 803 861 940 1018 1071 1075
2930.0 1127 1272 1515 1816 2034 2148 2220 2134 1934 1905
2970.0 1442 1174 982 784 672 625 659 778 1009 1330
3010.0 1578 1628 1569 1389 1082 786 624 543 505 493
3050.0 502 535 606 739 959 1232 1464 1613 1616 1480
3090.0 1222 889 635 481 384 297 213 143 94 65
3130.0 46 55 58 57 61 69 69 59 60 52
3170.0 27 37 27 29 29 28 30 21 21 31
3210.0 21 22 31 23 22 26 22 34 27 27
3250.0 33 34 34 34 34 34 18 26 17 10
3290.0 6 14 16 11 11 36 37 39 29 31
3330.0 23 16 31 21 5 16 25 20 16 33
3370.0 24 26 42 43 43 43 42 30 27 29
3410.0 19 30 14 23 21 14 13 22 7 32
3450.0 14 24 11 20 19 28 21 14 29 26
3490.0 52 27 28 43 37 28 28 27 43 28
3530.0 23 32 22 31 40 20 28 31 36 40
3570.0 41 33 29 27 33 41 36 19 36 18
3610.0 30 38 48 38 43 46 30 27 30 24
3650.0 22 23 25 24 14 18 4 8 14 10
3690.0 19 11 12 12 5 7 6 3 5 10
3730.0 4 0 2 2 5 13 10 12 5 7
3770.0 0 11 3 6 0 5 7 3 0 7
3810.0 1 4 11 5 0 0 4 2 2 15
3850.0 10 10 14 24 25 27 28 24 26 33
3890.0 28 22 14 16 10 10 24 24 25 27
3930.0 22 14 7 19 23 29 38 25 37 38
##END=
