##TITLE=Benzyl methyl sulfide
##JCAMP-DX=4.24
##DATA TYPE=INFRARED SPECTRUM
##ORIGIN=Sadtler Research Labs Under US-EPA Contract
##OWNER=NIST Standard Reference Data Program
##CAS REGISTRY NO=766-92-7
##MOLFORM=C 8 H 10 S
##XUNITS=1/CM
##YUNITS=ABSORBANCE
##XFACTOR=1.0
##YFACTOR=0.000045718
##DELTAX=4.0
##FIRSTX=450.0
##LASTX=3966.0
##FIRSTY=0.025237
##MAXX=3966
##MINX=450
##MAXY=0.45718
##MINY=0
##NPOINTS=880
##XYDATA=(X++(Y..Y))
450.0 552 467 806 1001 1250 1132 995 733 498 260
490.0 129 145 122 82 20 23 72 49 115 97
530.0 64 62 127 129 194 342 552 796 979 973
570.0 791 565 326 220 156 105 77 89 63 45
610.0 68 98 82 108 74 98 142 188 202 221
650.0 320 396 515 709 921 1478 2026 2855 3955 5451
690.0 7313 8951 10000 9397 8065 6566 5567 5170 5054 4877
730.0 4214 3321 2391 1727 1333 1265 1366 1590 1742 1844
770.0 1794 1513 1211 887 633 472 394 364 356 408
810.0 439 435 435 357 254 208 186 195 212 190
850.0 211 195 179 146 133 138 137 145 149 165
890.0 185 217 277 363 463 506 483 403 280 213
930.0 196 192 203 241 316 483 658 767 856 993
970.0 1115 1410 1597 1558 1370 1014 633 419 323 272
1010.0 273 294 463 818 1153 1180 1050 796 425 261
1050.0 299 437 650 931 1155 1238 1198 1064 807 577
1090.0 415 335 281 249 224 196 155 120 104 98
1130.0 96 91 103 121 152 176 202 235 254 267
1170.0 278 293 298 344 436 568 688 750 711 608
1210.0 462 405 437 575 915 1447 1970 2349 2442 2181
1250.0 1712 1201 767 516 397 348 331 349 367 378
1290.0 368 351 326 333 379 461 582 744 798 768
1330.0 695 500 391 320 247 213 194 192 217 229
1370.0 260 289 307 300 297 279 281 307 331 398
1410.0 537 734 1068 1463 1966 2370 2821 3309 3586 3733
1450.0 3691 3233 2659 2112 1484 1010 744 619 712 1300
1490.0 2461 3246 3390 3120 2128 919 439 311 297 285
1530.0 306 312 333 344 321 278 285 333 332 324
1570.0 336 342 347 409 517 721 1020 1389 1602 1584
1610.0 1373 1013 653 383 273 187 166 139 112 105
1650.0 115 119 105 102 123 150 172 156 169 161
1690.0 116 103 132 136 150 178 265 352 346 358
1730.0 406 455 394 371 373 370 327 278 235 201
1770.0 204 202 193 218 274 365 470 509 512 437
1810.0 351 277 234 199 168 132 96 82 86 95
1850.0 97 107 154 205 248 296 301 325 337 328
1890.0 292 237 172 111 83 71 83 102 140 180
1930.0 247 332 397 439 467 480 472 420 334 245
1970.0 125 60 43 48 51 57 60 55 58 61
2010.0 65 63 65 53 42 38 37 33 28 30
2050.0 24 18 12 9 9 7 8 7 7 6
2090.0 3 7 9 7 1 5 4 2 1 4
2130.0 5 12 10 15 14 14 11 15 8 15
2170.0 13 13 16 12 5 11 11 12 12 12
2210.0 11 17 14 22 20 24 25 32 42 41
2250.0 49 51 55 63 69 79 89 93 101 112
2290.0 121 137 152 151 174 211 204 190 170 121
2330.0 95 55 28 33 57 93 40 41 1 1
2370.0 0 25 36 66 61 43 26 32 30 31
2410.0 32 34 36 28 34 31 25 22 20 11
2450.0 10 3 7 9 10 8 10 9 11 6
2490.0 8 5 8 8 16 14 19 18 15 21
2530.0 19 17 18 8 10 11 18 17 20 18
2570.0 18 21 24 30 30 40 41 51 61 60
2610.0 68 71 68 70 77 71 73 71 63 60
2650.0 64 75 81 92 89 83 76 72 59 54
2690.0 49 51 46 42 44 43 45 49 52 67
2730.0 67 80 78 70 67 70 77 70 66 66
2770.0 74 86 106 117 142 158 173 204 227 251
2810.0 287 348 420 518 615 762 935 1152 1426 1623
2850.0 1660 1594 1411 1240 1170 1118 1083 1055 1008 973
2890.0 995 1070 1228 1539 2080 2957 4246 5923 7585 8298
2930.0 8058 6735 5056 3860 3146 2641 2315 2059 1849 1731
2970.0 1766 1892 2037 2136 2213 2342 2290 2149 1936 1636
3010.0 1457 1556 1865 2451 3383 4563 5525 5868 5566 4692
3050.0 3414 2652 2612 3225 4399 5512 5892 5793 5103 3974
3090.0 3283 2898 2586 2189 1788 1464 1167 912 665 460
3130.0 329 258 207 193 180 172 160 163 168 165
3170.0 161 142 124 97 74 53 49 45 45 47
3210.0 49 45 40 39 40 43 38 45 37 37
3250.0 35 35 45 43 39 34 47 42 43 38
3290.0 35 36 33 32 26 21 17 20 23 16
3330.0 19 22 17 9 20 13 14 23 16 21
3370.0 12 13 19 15 24 26 34 16 16 20
3410.0 13 12 26 18 25 10 25 17 31 15
3450.0 15 29 20 10 9 6 17 17 17 24
3490.0 3 19 24 16 20 34 35 32 43 38
3530.0 32 19 17 23 30 28 27 30 32 35
3570.0 47 40 52 50 35 32 22 32 22 33
3610.0 46 47 48 40 55 42 50 69 92 83
3650.0 85 95 101 80 63 65 43 48 48 46
3690.0 42 54 45 45 46 49 41 47 45 37
3730.0 39 24 27 32 14 22 17 33 35 23
3770.0 37 38 54 21 25 19 33 46 52 51
3810.0 43 34 45 35 42 58 37 38 35 34
3850.0 38 42 42 63 72 71 69 71 74 62
3890.0 72 52 49 37 38 59 50 64 76 71
3930.0 52 53 71 32 48 23 28 27 45 43
##END=
