##TITLE=Piperidine, 1-ethyl-
##JCAMP-DX=4.24
##DATA TYPE=INFRARED SPECTRUM
##ORIGIN=Sadtler Research Labs Under US-EPA Contract
##OWNER=NIST Standard Reference Data Program
##CAS REGISTRY NO=766-09-6
##MOLFORM=C 7 H 15 N
##XUNITS=1/CM
##YUNITS=ABSORBANCE
##XFACTOR=1.0
##YFACTOR=0.000130563
##DELTAX=4.0
##FIRSTX=450.0
##LASTX=3966.0
##FIRSTY=0.015145
##MAXX=3966
##MINX=450
##MAXY=1.30563
##MINY=0
##NPOINTS=880
##XYDATA=(X++(Y..Y))
450.0 116 137 159 182 126 183 110 166 0 143
490.0 66 41 98 109 153 122 121 88 107 135
530.0 142 147 187 123 157 145 172 144 207 191
570.0 230 99 134 152 160 177 145 122 137 134
610.0 140 130 137 133 124 127 122 133 127 126
650.0 113 126 108 114 112 143 116 120 117 125
690.0 114 125 129 121 127 120 124 156 124 131
730.0 157 196 229 271 340 413 440 547 513 403
770.0 375 307 249 201 178 164 168 162 169 169
810.0 165 166 150 156 134 134 133 167 185 202
850.0 255 268 287 302 269 227 209 178 157 143
890.0 152 153 161 170 171 183 186 205 228 280
930.0 331 369 369 356 308 239 181 167 159 148
970.0 159 157 152 154 166 181 199 220 256 313
1010.0 349 366 387 411 433 444 499 615 713 665
1050.0 640 602 507 444 397 403 461 525 609 706
1090.0 840 862 819 825 798 706 626 641 712 850
1130.0 989 1113 1202 1296 1345 1422 1545 1490 1463 1336
1170.0 1025 763 553 457 376 313 259 226 221 217
1210.0 229 257 311 366 435 499 548 514 526 550
1250.0 560 568 550 577 572 509 468 447 446 441
1290.0 474 543 668 784 879 914 886 810 727 624
1330.0 590 619 753 907 977 1014 1007 931 749 626
1370.0 665 806 915 932 936 906 758 562 458 387
1410.0 338 290 268 264 282 347 424 528 622 857
1450.0 1047 968 956 903 820 671 588 509 395 327
1490.0 258 199 159 127 113 100 98 98 90 91
1530.0 88 91 82 85 81 80 78 80 85 79
1570.0 82 79 81 79 81 83 84 82 81 76
1610.0 74 78 73 73 65 68 65 72 65 68
1650.0 65 74 69 64 69 72 75 81 80 90
1690.0 86 86 84 84 74 72 65 66 59 59
1730.0 58 50 56 53 55 52 57 55 58 56
1770.0 59 58 57 57 57 61 63 62 59 62
1810.0 59 58 56 55 55 56 54 58 58 63
1850.0 63 59 59 61 57 54 54 53 54 55
1890.0 61 63 59 61 62 64 62 58 56 54
1930.0 52 48 50 47 48 46 46 44 45 41
1970.0 40 41 46 46 41 44 41 44 42 44
2010.0 41 44 45 44 42 41 41 40 41 42
2050.0 47 46 48 50 42 48 52 53 48 45
2090.0 42 40 38 34 35 35 39 34 36 35
2130.0 34 36 34 35 35 35 34 36 37 36
2170.0 38 36 34 36 40 40 39 39 41 39
2210.0 36 39 42 45 48 50 54 51 45 44
2250.0 38 37 34 35 36 38 39 40 41 39
2290.0 38 37 38 32 31 27 27 24 21 21
2330.0 21 21 21 34 22 21 21 21 37 33
2370.0 34 40 37 38 41 53 57 61 62 62
2410.0 62 61 61 58 55 52 53 49 48 46
2450.0 45 46 48 46 50 55 58 58 61 68
2490.0 69 68 66 71 69 71 71 74 75 73
2530.0 71 73 75 75 79 80 82 83 86 92
2570.0 96 107 118 132 147 158 174 185 193 203
2610.0 205 206 209 217 218 232 251 261 287 310
2650.0 345 389 428 480 540 605 657 677 708 737
2690.0 755 780 769 772 794 812 840 889 960 1050
2730.0 1154 1282 1406 1555 1743 1965 2202 2351 2459 2567
2770.0 2631 2659 2699 2662 2590 2548 2511 2481 2451 2393
2810.0 2261 2024 1765 1506 1265 1062 904 819 806 886
2850.0 1075 1368 1700 1898 1963 2017 1927 1764 1620 1504
2890.0 1482 1497 1518 1542 1660 1898 2271 2870 3679 4725
2930.0 6171 7965 8842 10000 9883 8346 7053 5315 3867 3154
2970.0 2941 2814 2618 2398 2090 1602 1153 788 540 375
3010.0 277 224 194 183 167 169 153 150 137 136
3050.0 132 130 127 130 122 119 108 101 98 91
3090.0 91 88 93 92 96 92 92 86 79 74
3130.0 71 64 65 61 66 64 65 62 65 75
3170.0 78 76 86 84 83 75 72 71 62 55
3210.0 51 50 46 48 45 44 54 49 41 38
3250.0 38 42 39 35 32 35 34 42 33 37
3290.0 46 39 41 30 39 36 44 46 40 35
3330.0 37 42 35 39 38 41 44 50 52 46
3370.0 40 39 37 45 40 41 35 31 47 51
3410.0 49 49 47 40 34 42 34 42 28 29
3450.0 52 52 61 42 34 53 31 39 51 54
3490.0 66 56 62 57 55 53 48 63 40 36
3530.0 45 48 40 41 47 29 29 36 58 47
3570.0 50 36 47 57 39 50 52 34 49 55
3610.0 55 39 51 66 44 31 57 52 66 65
3650.0 58 70 79 64 70 81 56 63 74 66
3690.0 62 46 68 66 66 70 84 78 54 57
3730.0 65 83 71 76 98 80 68 58 92 71
3770.0 70 69 50 90 95 96 83 66 72 71
3810.0 69 79 85 91 102 64 48 95 79 38
3850.0 82 69 90 83 80 80 85 62 76 113
3890.0 105 84 126 95 106 73 99 88 120 103
3930.0 105 108 87 86 112 124 113 112 108 80
##END=
