##TITLE=1-(3-Aminopropyl)-2-pyrrolidone
##JCAMP-DX=4.24
##DATA TYPE=INFRARED SPECTRUM
##ORIGIN=Sadtler Research Labs Under US-EPA Contract
##OWNER=NIST Standard Reference Data Program
##CAS REGISTRY NO=7663-77-6
##MOLFORM=C 7 H 14 N 2 O
##XUNITS=1/CM
##YUNITS=ABSORBANCE
##XFACTOR=1.0
##YFACTOR=0.000073148
##DELTAX=4.0
##FIRSTX=450.0
##LASTX=3966.0
##FIRSTY=0.016751
##MAXX=3966
##MINX=450
##MAXY=0.73148
##MINY=0
##NPOINTS=880
##XYDATA=(X++(Y..Y))
450.0 229 175 143 139 113 148 125 85 65 39
490.0 22 61 31 80 34 59 74 77 68 88
530.0 68 0 24 30 45 47 44 91 124 108
570.0 98 103 106 73 66 41 37 22 54 57
610.0 76 85 101 106 125 127 147 146 131 159
650.0 174 168 169 152 147 152 136 125 121 127
690.0 136 149 169 178 181 209 261 280 327 379
730.0 395 448 485 539 579 637 677 707 736 770
770.0 793 817 798 779 744 673 611 566 526 497
810.0 472 442 436 432 428 423 426 426 429 411
850.0 396 359 315 269 235 203 173 150 133 130
890.0 130 129 119 108 98 106 111 128 131 148
930.0 165 132 95 93 99 93 93 93 94 103
970.0 64 43 55 48 55 67 93 104 118 145
1010.0 153 164 162 149 132 140 151 144 159 184
1050.0 195 207 231 253 290 309 326 325 313 306
1090.0 273 262 233 220 192 172 168 167 171 176
1130.0 192 215 248 277 294 311 328 344 357 360
1170.0 361 364 368 369 386 399 427 456 483 521
1210.0 561 610 648 680 688 684 690 713 785 904
1250.0 1103 1374 1697 2006 2252 2429 2540 2581 2520 2335
1290.0 2022 1614 1215 940 785 719 708 713 739 766
1330.0 779 773 753 732 698 680 667 660 646 620
1370.0 610 591 569 543 540 546 614 724 933 1228
1410.0 1630 2049 2446 2615 2516 2173 1766 1373 1064 911
1450.0 826 828 884 938 921 849 676 479 355 333
1490.0 393 457 465 420 342 202 133 86 83 63
1530.0 52 50 48 53 40 60 44 64 72 56
1570.0 65 72 78 89 89 105 112 139 149 184
1610.0 212 257 307 338 360 353 346 307 288 260
1650.0 285 337 428 548 736 858 980 1047 1095 1091
1690.0 1056 1171 1451 2055 3018 4483 6310 8247 9682 10000
1730.0 9334 7794 5448 3428 2014 1277 892 708 596 498
1770.0 427 341 262 187 152 114 92 78 67 62
1810.0 48 47 41 44 40 29 34 25 30 19
1850.0 25 20 25 21 23 14 23 25 20 17
1890.0 18 15 13 14 12 14 9 14 7 7
1930.0 11 9 10 8 6 10 12 9 7 7
1970.0 9 10 11 13 12 17 14 21 19 21
2010.0 22 19 22 23 18 19 21 18 20 19
2050.0 19 17 16 14 11 14 13 15 15 15
2090.0 14 12 11 10 13 15 19 19 16 16
2130.0 17 17 19 17 20 17 16 15 19 16
2170.0 17 16 14 16 14 15 13 8 11 13
2210.0 10 13 11 11 13 9 11 11 11 14
2250.0 11 10 10 9 13 14 19 17 17 22
2290.0 26 23 30 35 35 36 37 36 39 37
2330.0 31 30 27 28 23 31 28 21 13 16
2370.0 7 14 17 19 13 12 9 4 5 5
2410.0 7 1 2 2 2 4 9 11 9 13
2450.0 16 15 14 13 15 13 7 9 10 7
2490.0 9 6 7 4 8 7 8 8 10 8
2530.0 11 8 9 8 9 10 9 12 10 17
2570.0 15 18 16 14 16 18 18 20 19 18
2610.0 24 25 25 29 30 33 33 36 33 40
2650.0 41 44 46 48 53 49 54 60 64 70
2690.0 77 84 89 91 93 96 99 103 110 114
2730.0 118 122 121 122 128 132 135 141 144 150
2770.0 157 159 167 176 186 201 217 238 260 296
2810.0 330 377 430 495 571 666 787 933 1106 1306
2850.0 1523 1741 1940 2088 2166 2162 2097 1991 1861 1737
2890.0 1641 1595 1619 1701 1838 2014 2220 2411 2574 2701
2930.0 2807 2856 2844 2763 2609 2449 2290 2136 2010 1909
2970.0 1831 1800 1772 1731 1606 1394 1117 855 641 480
3010.0 362 273 213 174 149 126 115 102 95 86
3050.0 80 77 72 68 66 61 61 59 53 46
3090.0 47 46 38 40 32 29 29 25 29 22
3130.0 22 21 20 23 25 23 18 16 13 13
3170.0 13 14 13 15 14 12 9 11 10 12
3210.0 10 15 12 18 17 20 20 12 14 11
3250.0 14 14 19 19 20 22 22 23 21 19
3290.0 20 26 23 24 26 32 36 34 42 47
3330.0 56 72 87 92 102 98 84 65 55 39
3370.0 36 35 30 32 30 40 42 57 75 105
3410.0 117 132 124 108 100 96 96 77 73 61
3450.0 49 41 39 29 24 22 24 28 25 33
3490.0 28 34 24 12 13 19 9 18 19 2
3530.0 8 19 10 15 16 24 9 18 17 7
3570.0 22 10 12 3 11 24 9 8 8 13
3610.0 23 5 4 3 10 26 13 14 5 20
3650.0 7 5 11 12 22 18 18 5 7 7
3690.0 14 10 11 13 17 8 5 20 2 10
3730.0 10 20 15 11 25 16 16 14 12 16
3770.0 2 6 11 7 15 27 15 15 17 2
3810.0 22 24 16 14 8 21 23 17 1 24
3850.0 11 31 13 16 15 25 1 21 21 6
3890.0 22 10 7 29 19 13 28 23 19 14
3930.0 34 10 17 28 26 22 19 12 29 21
##END=
