##TITLE=Octyl thioglycolate
##JCAMP-DX=4.24
##DATA TYPE=INFRARED SPECTRUM
##ORIGIN=Sadtler Research Labs Under US-EPA Contract
##OWNER=NIST Standard Reference Data Program
##CAS REGISTRY NO=7664-80-4
##MOLFORM=C 10 H 20 O 2 S
##XUNITS=1/CM
##YUNITS=ABSORBANCE
##XFACTOR=1.0
##YFACTOR=0.000065668
##DELTAX=4.0
##FIRSTX=450.0
##LASTX=3966.0
##FIRSTY=0.038810
##MAXX=3966
##MINX=450
##MAXY=0.65668
##MINY=0
##NPOINTS=880
##XYDATA=(X++(Y..Y))
450.0 591 159 85 77 84 234 101 144 94 165
490.0 23 156 177 0 158 170 98 39 0 88
530.0 90 69 132 19 83 119 112 150 95 137
570.0 132 180 230 164 238 128 184 193 101 200
610.0 147 116 124 75 92 120 85 128 94 101
650.0 97 88 154 92 141 129 176 191 154 234
690.0 255 255 313 286 349 329 355 367 396 435
730.0 366 297 327 219 229 307 275 235 236 221
770.0 221 206 177 171 185 187 183 200 164 219
810.0 178 179 193 188 250 183 151 189 204 232
850.0 240 254 284 268 239 231 234 267 279 276
890.0 282 259 296 285 272 264 252 283 289 320
930.0 339 323 339 359 418 491 598 682 758 808
970.0 825 827 850 898 908 891 920 949 1035 1105
1010.0 1200 1312 1389 1445 1502 1493 1497 1425 1313 1233
1050.0 1103 1058 982 942 944 873 859 780 697 696
1090.0 662 728 746 847 948 1064 1308 1580 1882 2369
1130.0 2939 3612 4415 5185 5675 5587 5292 4983 4654 4303
1170.0 3817 3439 3061 2733 2472 2272 2076 1964 1914 1898
1210.0 1886 2042 2238 2298 2548 2708 2881 2976 2955 2942
1250.0 3040 3304 3812 4450 5038 5343 5471 5390 5318 5310
1290.0 5112 4823 4285 3594 2882 2283 1810 1447 1180 1020
1330.0 912 821 749 673 634 605 612 610 589 552
1370.0 570 558 621 705 742 688 599 503 446 451
1410.0 544 676 932 1055 1006 831 693 682 696 748
1450.0 888 1025 1141 1248 1332 1282 1071 865 604 462
1490.0 372 273 208 153 194 161 183 129 127 125
1530.0 113 118 102 37 58 96 79 93 40 81
1570.0 51 117 50 27 100 41 59 58 33 52
1610.0 66 41 54 54 83 60 86 54 31 82
1650.0 77 79 67 93 100 69 99 93 127 124
1690.0 148 211 227 293 389 477 606 714 870 1108
1730.0 1409 1899 2524 3399 4567 6121 7731 8519 7819 6045
1770.0 4402 3033 2191 1614 1159 911 707 537 458 340
1810.0 319 260 204 215 193 172 127 145 133 106
1850.0 129 101 118 107 100 108 117 107 107 110
1890.0 89 82 96 83 68 57 83 83 101 64
1930.0 83 65 79 83 67 89 78 77 67 66
1970.0 62 65 51 75 56 90 59 69 75 72
2010.0 97 80 87 76 78 90 88 96 84 77
2050.0 89 68 77 79 68 77 74 77 74 70
2090.0 61 65 65 66 70 64 58 66 67 60
2130.0 67 63 63 67 59 65 66 67 67 59
2170.0 62 65 68 62 54 61 59 55 57 53
2210.0 58 51 57 56 46 47 47 43 47 46
2250.0 54 56 51 57 50 59 53 56 64 70
2290.0 73 79 92 100 101 120 113 114 113 90
2330.0 95 77 71 74 92 114 143 107 140 97
2370.0 73 42 47 62 58 47 33 33 29 29
2410.0 35 32 31 29 29 28 28 26 29 21
2450.0 14 14 8 7 11 8 10 14 14 11
2490.0 15 13 13 18 13 16 13 12 14 7
2530.0 6 9 3 8 7 10 4 4 7 3
2570.0 10 20 15 25 36 54 81 84 69 39
2610.0 22 28 25 28 27 31 29 26 31 32
2650.0 32 41 39 38 42 34 39 41 54 51
2690.0 45 45 35 42 41 33 43 30 34 35
2730.0 37 43 47 63 58 63 58 55 62 54
2770.0 61 63 60 77 89 88 116 132 145 165
2810.0 183 215 249 286 336 391 462 552 691 909
2850.0 1252 1812 2558 3328 3801 3812 3497 3118 2879 2670
2890.0 2451 2288 2303 2527 2894 3363 3975 4761 5869 7302
2930.0 8786 9832 10000 9357 8215 6856 5817 5388 5515 5870
2970.0 5895 5112 3825 2691 1985 1524 1184 906 699 532
3010.0 424 347 288 238 208 168 143 116 114 91
3050.0 76 62 52 46 37 38 24 26 31 19
3090.0 23 33 16 15 26 9 12 22 17 19
3130.0 3 19 20 28 32 22 24 18 23 15
3170.0 24 21 25 29 26 13 20 16 3 13
3210.0 10 15 18 15 13 13 26 15 5 15
3250.0 16 13 17 20 33 10 23 21 17 23
3290.0 14 30 17 31 21 13 7 26 20 15
3330.0 14 32 15 13 20 13 22 34 16 22
3370.0 22 20 14 19 24 19 37 25 37 26
3410.0 27 21 16 38 35 27 19 13 24 34
3450.0 24 25 33 37 38 28 49 59 51 75
3490.0 68 89 78 65 66 46 46 31 26 35
3530.0 18 28 33 27 36 25 9 14 29 40
3570.0 26 21 46 37 33 26 17 36 18 38
3610.0 35 49 43 24 27 28 20 40 27 59
3650.0 52 48 65 68 79 42 97 37 72 79
3690.0 40 37 48 36 43 43 43 29 49 50
3730.0 51 36 21 56 3 44 7 45 11 10
3770.0 58 49 38 16 28 51 40 44 47 23
3810.0 67 62 24 8 49 37 56 54 10 44
3850.0 34 6 0 52 32 82 31 25 44 48
3890.0 53 23 77 50 10 56 35 31 7 47
3930.0 59 31 26 76 81 53 10 58 20 34
##END=
