##TITLE=Ammonia
##JCAMP-DX=4.24
##DATA TYPE=INFRARED SPECTRUM
##ORIGIN=Sadtler Research Labs Under US-EPA Contract
##OWNER=NIST Standard Reference Data Program
##CAS REGISTRY NO=7664-41-7
##MOLFORM=H 3 N
##XUNITS=1/CM
##YUNITS=ABSORBANCE
##XFACTOR=1.0
##YFACTOR=0.000044250
##DELTAX=4.0
##FIRSTX=450.0
##LASTX=3966.0
##FIRSTY=0.058455
##MAXX=3966
##MINX=450
##MAXY=0.4425
##MINY=0
##NPOINTS=880
##XYDATA=(X++(Y..Y))
450.0 1321 957 809 1067 718 1024 683 714 761 701
490.0 725 679 854 690 784 617 718 602 661 639
530.0 578 675 616 659 455 716 655 572 497 623
570.0 606 501 613 492 612 524 710 465 619 507
610.0 653 647 670 892 1029 1342 769 756 534 645
650.0 630 605 534 530 675 506 635 507 652 373
690.0 840 654 585 582 662 780 627 618 589 826
730.0 641 891 761 744 1005 898 728 874 925 996
770.0 933 789 1178 985 1336 1183 900 1353 541 1372
810.0 1057 1458 1383 664 1206 1713 1432 890 631 885
850.0 2003 1390 1157 194 1181 1718 835 838 315 1004
890.0 1424 1203 549 611 1036 1344 1112 1304 1977 3048
930.0 8285 5099 1771 722 1253 1421 1655 2023 5193 10000
970.0 3050 61 950 282 600 772 1880 637 323 1057
1010.0 1254 1846 413 746 886 1154 2729 694 744 1277
1050.0 1467 1844 970 633 1575 1129 1993 1431 635 2054
1090.0 794 1750 862 1320 1182 770 1378 1415 1706 688
1130.0 794 791 1427 1332 690 657 818 1463 1324 250
1170.0 808 626 1622 418 669 413 1068 864 534 456
1210.0 618 813 651 429 508 623 635 409 520 490
1250.0 556 437 492 471 481 514 432 478 438 509
1290.0 417 483 449 464 415 456 487 448 467 424
1330.0 471 420 517 467 446 437 441 467 472 484
1370.0 439 495 460 449 454 460 494 503 477 490
1410.0 527 496 563 509 562 447 495 664 530 443
1450.0 556 746 676 474 576 992 732 402 913 948
1490.0 649 686 948 853 874 752 1059 975 780 779
1530.0 1012 1034 683 863 930 792 713 659 1024 666
1570.0 588 508 856 665 536 618 676 771 651 758
1610.0 857 1121 1223 1517 2262 1782 913 728 707 711
1650.0 621 541 554 606 500 447 538 584 576 460
1690.0 547 866 683 491 602 581 694 745 600 569
1730.0 548 600 831 724 463 663 526 528 682 552
1770.0 531 515 495 530 511 520 472 442 445 437
1810.0 407 402 408 402 356 383 358 328 353 373
1850.0 323 301 321 310 314 332 303 286 291 290
1890.0 282 293 284 277 274 270 278 274 281 269
1930.0 263 258 264 275 265 248 255 249 242 256
1970.0 249 247 241 242 233 248 248 235 231 230
2010.0 237 224 242 221 230 227 219 221 222 218
2050.0 210 218 216 218 218 216 214 214 209 206
2090.0 208 206 204 196 209 199 210 198 201 203
2130.0 198 199 190 198 189 189 187 188 188 189
2170.0 185 181 184 183 188 177 173 178 180 173
2210.0 174 175 178 178 168 179 176 172 164 168
2250.0 161 160 173 159 158 153 162 149 154 153
2290.0 159 158 147 160 159 160 146 146 157 171
2330.0 157 135 147 130 144 159 156 155 162 146
2370.0 156 159 168 149 125 125 126 125 125 130
2410.0 119 126 122 119 115 117 120 117 114 108
2450.0 113 104 113 97 102 110 107 105 99 106
2490.0 101 113 106 108 97 91 91 95 96 93
2530.0 96 84 92 82 84 90 85 83 83 83
2570.0 77 78 69 74 70 82 75 65 76 73
2610.0 75 73 77 65 67 60 60 62 65 66
2650.0 65 58 50 58 57 59 49 48 50 50
2690.0 49 58 57 41 45 40 41 45 33 38
2730.0 38 38 30 29 25 35 29 25 28 21
2770.0 26 17 22 11 26 21 26 18 21 28
2810.0 25 23 30 19 27 32 16 23 20 18
2850.0 17 23 26 20 28 26 30 22 23 19
2890.0 17 28 28 27 12 34 27 31 15 27
2930.0 28 27 37 31 32 32 27 25 42 18
2970.0 42 27 36 40 23 38 23 30 19 34
3010.0 34 41 22 16 29 22 26 31 31 29
3050.0 40 22 26 22 19 32 33 40 26 43
3090.0 31 38 23 38 43 44 36 34 40 48
3130.0 49 40 70 57 40 35 63 88 40 53
3170.0 23 115 92 34 63 20 135 98 46 70
3210.0 58 151 171 65 65 35 147 141 67 42
3250.0 58 84 176 74 66 52 100 160 79 81
3290.0 67 92 180 49 132 63 98 124 210 190
3330.0 508 1358 713 57 189 60 107 123 106 130
3370.0 162 74 181 148 108 105 218 172 79 193
3410.0 46 353 163 98 69 191 424 193 84 62
3450.0 259 328 133 96 80 265 311 0 155 27
3490.0 279 225 88 114 86 202 185 113 92 133
3530.0 144 96 122 97 100 111 80 79 91 106
3570.0 91 68 73 52 73 94 69 68 46 48
3610.0 56 57 59 54 59 97 31 32 34 40
3650.0 54 56 51 48 30 42 42 37 27 45
3690.0 52 37 65 56 48 46 31 33 54 62
3730.0 44 42 58 49 79 46 61 31 12 15
3770.0 22 46 52 34 61 69 27 19 25 52
3810.0 38 61 38 48 50 27 34 41 29 29
3850.0 42 28 25 42 48 60 27 52 62 19
3890.0 73 42 35 120 74 44 10 41 29 43
3930.0 64 72 36 29 94 91 46 10 49 65
##END=
