##TITLE=Benzonitrile, 4-hydroxy-
##JCAMP-DX=4.24
##DATA TYPE=INFRARED SPECTRUM
##ORIGIN=Sadtler Research Labs Under US-EPA Contract
##OWNER=NIST Standard Reference Data Program
##CAS REGISTRY NO=767-00-0
##MOLFORM=C 7 H 5 N O
##XUNITS=1/CM
##YUNITS=ABSORBANCE
##XFACTOR=1.0
##YFACTOR=0.000069281
##DELTAX=4.0
##FIRSTX=450.0
##LASTX=3966.0
##FIRSTY=0.095054
##MAXX=3966
##MINX=450
##MAXY=0.69281
##MINY=0
##NPOINTS=880
##XYDATA=(X++(Y..Y))
450.0 1372 870 366 58 98 89 316 156 272 274
490.0 362 203 162 365 461 529 729 902 893 1141
530.0 1464 1590 2823 2856 2330 1628 1664 1180 982 672
570.0 632 597 406 488 344 289 354 308 267 314
610.0 261 210 238 288 343 411 456 481 476 496
650.0 334 385 269 381 207 684 995 1115 1158 1293
690.0 1063 811 629 478 424 300 245 224 325 254
730.0 251 212 249 150 133 119 156 143 168 160
770.0 180 226 253 291 452 610 777 929 1207 1531
810.0 1738 1949 2082 2669 3158 3345 4462 4638 3722 3154
850.0 2752 1704 1243 791 519 417 265 278 239 175
890.0 178 142 144 140 135 184 210 237 297 301
930.0 325 313 298 278 232 182 145 142 101 98
970.0 99 79 97 88 88 111 108 109 127 186
1010.0 200 228 249 266 246 261 240 254 285 304
1050.0 303 308 292 250 251 300 323 387 494 693
1090.0 983 1255 1330 1306 1301 1145 864 705 730 858
1130.0 1014 1194 1478 1829 2349 3564 5144 6509 7498 8739
1170.0 8351 8811 10000 9501 8382 8439 6236 3308 1860 1386
1210.0 1079 916 813 757 758 782 882 1019 1190 1490
1250.0 1883 2774 4462 6602 8360 8728 8584 7348 4458 1929
1290.0 971 751 660 621 612 609 783 1199 1754 1978
1330.0 1981 2030 1731 1239 1066 991 856 693 463 403
1370.0 333 228 249 202 205 161 171 150 265 416
1410.0 456 668 610 1014 1154 1330 1188 1109 1017 625
1450.0 287 256 140 283 279 419 397 447 615 612
1490.0 814 1335 2555 4801 7429 9320 8261 8397 6021 2884
1530.0 922 409 315 233 260 291 414 336 609 567
1570.0 836 1240 1591 2191 2481 2820 3225 3506 4694 5601
1610.0 6618 6729 5835 4891 2884 1574 579 380 375 234
1650.0 358 263 364 197 275 228 147 213 115 180
1690.0 162 187 130 189 69 120 61 33 141 86
1730.0 157 19 204 148 98 137 198 232 241 267
1770.0 216 215 182 136 116 122 67 109 0 119
1810.0 88 62 122 64 91 64 71 115 42 102
1850.0 83 156 156 139 185 132 225 231 267 282
1890.0 270 255 268 266 240 191 155 141 90 98
1930.0 90 84 78 49 78 99 92 97 91 94
1970.0 84 103 102 95 105 72 94 113 123 131
2010.0 122 109 90 95 104 96 95 81 66 62
2050.0 71 64 65 64 56 80 82 86 89 91
2090.0 96 108 126 135 145 135 130 107 82 65
2130.0 55 48 47 44 45 43 43 44 41 46
2170.0 47 55 65 60 63 58 65 69 79 119
2210.0 179 290 496 820 1229 1581 1748 1718 1505 1049
2250.0 511 184 110 94 100 102 113 125 121 125
2290.0 127 121 139 137 141 146 141 139 125 124
2330.0 109 81 149 26 204 58 146 38 131 144
2370.0 160 165 174 160 131 116 97 95 96 100
2410.0 101 118 127 145 166 181 202 234 259 270
2450.0 270 257 227 180 123 87 77 72 73 74
2490.0 73 74 73 80 81 92 97 109 132 144
2530.0 155 160 159 147 131 113 93 93 93 98
2570.0 94 88 94 92 95 95 90 85 81 76
2610.0 80 89 91 90 89 87 90 92 96 95
2650.0 92 79 62 56 48 51 48 54 49 51
2690.0 56 61 56 62 63 55 46 40 37 34
2730.0 29 27 27 27 32 44 49 50 59 68
2770.0 81 93 94 81 67 57 42 40 41 39
2810.0 33 28 26 31 19 24 26 21 25 24
2850.0 32 31 35 35 34 31 37 32 29 36
2890.0 36 33 30 40 44 45 48 45 50 64
2930.0 67 54 57 60 50 50 40 37 45 49
2970.0 43 35 34 44 43 44 62 78 106 143
3010.0 173 191 204 225 224 261 361 519 684 744
3050.0 723 690 527 335 253 266 276 289 306 293
3090.0 256 223 184 163 137 134 127 128 119 109
3130.0 101 91 77 63 43 25 31 19 24 38
3170.0 37 33 43 50 53 54 49 40 52 30
3210.0 41 40 43 38 29 38 38 44 38 29
3250.0 34 34 31 42 36 38 34 28 29 26
3290.0 39 46 54 62 69 77 89 94 82 90
3330.0 78 87 99 89 82 87 77 79 86 80
3370.0 94 83 80 86 87 88 89 90 99 108
3410.0 110 106 114 119 112 120 124 100 93 81
3450.0 65 61 54 51 49 50 53 63 55 46
3490.0 47 56 57 59 47 46 55 39 51 35
3530.0 54 49 55 60 47 49 88 62 92 71
3570.0 110 101 110 75 143 78 129 26 123 75
3610.0 160 204 250 502 669 1401 2410 3840 5971 6802
3650.0 6449 6182 4839 2824 1145 627 429 314 209 83
3690.0 217 89 127 60 68 116 137 68 128 66
3730.0 127 177 127 236 156 355 124 189 81 143
3770.0 93 79 89 116 109 103 72 184 106 252
3810.0 38 221 82 267 87 158 160 244 193 163
3850.0 153 271 236 88 153 171 106 140 103 144
3890.0 159 88 135 137 222 97 92 138 95 135
3930.0 102 108 105 107 177 79 118 82 74 104
##END=
