##TITLE=Benzenamine, N-(1-methylethyl)-
##JCAMP-DX=4.24
##DATA TYPE=INFRARED SPECTRUM
##ORIGIN=Sadtler Research Labs Under US-EPA Contract
##OWNER=NIST Standard Reference Data Program
##CAS REGISTRY NO=768-52-5
##MOLFORM=C 9 H 13 N
##XUNITS=1/CM
##YUNITS=ABSORBANCE
##XFACTOR=1.0
##YFACTOR=0.000136899
##DELTAX=4.0
##FIRSTX=450.0
##LASTX=3966.0
##FIRSTY=0.057087
##MAXX=3966
##MINX=450
##MAXY=1.36899
##MINY=0
##NPOINTS=880
##XYDATA=(X++(Y..Y))
450.0 417 303 328 385 468 451 486 491 491 517
490.0 588 625 678 757 797 795 760 713 594 536
530.0 464 424 421 411 436 429 424 427 440 432
570.0 439 439 430 413 377 374 337 280 232 229
610.0 229 268 309 336 369 353 361 351 370 369
650.0 386 397 411 470 498 633 809 1108 1424 1807
690.0 2263 2069 1832 1442 1084 762 555 456 491 648
730.0 991 1511 2093 2733 3219 3147 2504 2010 1401 893
770.0 556 382 283 216 171 160 148 128 143 115
810.0 135 128 134 116 102 79 84 110 176 260
850.0 305 331 322 289 268 259 215 170 121 66
890.0 42 19 17 11 24 23 32 45 57 63
930.0 53 58 48 55 43 46 33 33 48 59
970.0 76 75 85 83 109 211 327 326 330 237
1010.0 66 7 32 136 275 313 284 236 94 13
1050.0 1 6 41 82 151 210 243 240 213 167
1090.0 139 155 192 241 291 356 433 522 603 648
1130.0 663 658 691 751 862 981 1100 1267 1520 1919
1170.0 2407 2880 3028 2785 2290 1607 1039 708 548 454
1210.0 406 379 371 361 412 509 688 1060 1764 2694
1250.0 3223 3382 3115 2183 1492 1252 1145 1084 1060 1133
1290.0 1371 1778 2426 3180 3788 4041 3779 3150 2322 1743
1330.0 1401 1276 1180 1052 892 790 740 787 922 1068
1370.0 1216 1325 1526 1771 1827 1638 1400 871 616 561
1410.0 604 719 919 1245 1427 1494 1358 1088 755 574
1450.0 591 621 791 872 1053 1099 1278 1331 1415 1804
1490.0 2708 4810 6463 10000 9009 7983 5309 2854 1592 935
1530.0 655 547 438 459 370 424 394 450 433 441
1570.0 494 558 792 1158 1667 2733 3952 6792 6843 7964
1610.0 6828 5337 3429 2135 1570 898 672 454 393 309
1650.0 303 254 226 213 213 224 240 205 227 200
1690.0 178 157 166 154 150 135 138 162 144 140
1730.0 157 178 168 177 193 203 210 194 181 138
1770.0 124 96 76 60 62 49 70 68 86 95
1810.0 114 128 131 138 133 128 101 88 63 59
1850.0 34 30 29 30 33 44 36 26 31 35
1890.0 53 67 92 119 147 165 167 176 177 157
1930.0 139 120 94 68 49 36 32 29 23 21
1970.0 17 10 9 8 8 10 14 10 10 7
2010.0 5 5 5 5 5 4 4 4 1 1
2050.0 3 3 4 4 5 3 2 2 3 0
2090.0 4 2 7 8 10 12 17 21 21 25
2130.0 25 25 24 22 21 18 18 16 15 12
2170.0 10 10 7 6 2 2 0 3 2 2
2210.0 2 4 6 7 8 6 9 8 8 5
2250.0 4 3 2 0 1 1 3 2 3 2
2290.0 1 2 4 7 11 10 17 19 17 25
2330.0 22 23 21 27 11 25 1 10 18 25
2370.0 24 27 21 20 15 18 22 26 31 32
2410.0 33 31 27 23 21 22 22 21 20 20
2450.0 22 25 27 28 26 25 26 25 28 32
2490.0 33 33 33 33 32 29 30 33 31 35
2530.0 37 44 48 60 77 89 105 122 125 112
2570.0 101 83 70 60 60 53 51 52 49 50
2610.0 52 59 63 71 76 75 71 69 64 57
2650.0 52 48 48 45 46 47 48 47 44 42
2690.0 37 35 29 31 30 30 37 45 58 68
2730.0 76 78 78 75 76 79 78 78 81 86
2770.0 85 85 81 79 84 90 96 108 122 136
2810.0 155 171 185 197 203 213 223 234 246 261
2850.0 280 308 356 430 555 745 999 1222 1357 1383
2890.0 1320 1204 1125 1102 1117 1174 1247 1339 1425 1520
2930.0 1624 1750 1862 1901 1848 1785 1836 2081 2597 3227
2970.0 3919 4580 5156 4916 4261 3345 2036 1157 812 741
3010.0 815 980 1178 1341 1421 1417 1340 1198 1132 1204
3050.0 1423 1733 2011 2096 1977 1715 1385 1181 1110 1114
3090.0 1109 1052 948 819 690 586 495 402 312 232
3130.0 173 128 97 82 70 67 64 63 63 63
3170.0 64 63 61 63 60 57 58 60 58 59
3210.0 61 56 54 49 43 39 33 28 16 20
3250.0 15 13 11 7 11 10 10 12 16 19
3290.0 18 19 15 14 13 9 11 11 14 12
3330.0 10 14 17 19 14 14 15 19 21 22
3370.0 29 32 36 43 53 66 78 99 125 156
3410.0 184 215 236 257 265 260 251 230 210 187
3450.0 170 148 124 103 88 71 60 51 40 34
3490.0 24 26 23 19 24 19 20 14 20 26
3530.0 18 13 15 15 23 15 11 14 3 28
3570.0 23 20 10 13 20 19 32 13 26 11
3610.0 32 17 29 28 11 43 31 22 28 18
3650.0 55 34 29 30 2 55 18 71 11 33
3690.0 32 35 14 23 26 25 43 29 25 33
3730.0 24 42 32 41 50 35 65 28 32 26
3770.0 20 18 10 31 20 19 20 26 27 33
3810.0 20 40 22 60 29 30 35 41 35 48
3850.0 15 52 58 46 43 52 47 34 59 45
3890.0 35 46 37 63 60 46 32 34 34 46
3930.0 34 42 34 27 27 34 32 28 25 23
##END=
