##TITLE=Benzene, 3-butenyl-
##JCAMP-DX=4.24
##DATA TYPE=INFRARED SPECTRUM
##ORIGIN=Sadtler Research Labs Under US-EPA Contract
##OWNER=NIST Standard Reference Data Program
##CAS REGISTRY NO=768-56-9
##MOLFORM=C 10 H 12
##XUNITS=1/CM
##YUNITS=ABSORBANCE
##XFACTOR=1.0
##YFACTOR=0.000055881
##DELTAX=4.0
##FIRSTX=450.0
##LASTX=3966.0
##FIRSTY=0.000000
##MAXX=3966
##MINX=450
##MAXY=0.55881
##MINY=0
##NPOINTS=880
##XYDATA=(X++(Y..Y))
450.0 0 20 112 230 343 304 502 529 687 779
490.0 780 719 593 451 296 239 180 175 137 174
530.0 115 155 237 289 387 485 612 703 762 788
570.0 802 787 664 520 450 352 281 232 243 294
610.0 318 419 614 775 1016 1191 1313 1322 1256 1061
650.0 1030 992 892 820 757 945 1192 1632 2582 3908
690.0 5780 7256 8581 7619 6444 5008 3877 3150 2867 3024
730.0 3446 4079 4639 5054 4889 4329 3342 2466 1777 1256
770.0 903 628 441 297 243 188 172 154 166 159
810.0 182 223 287 332 363 338 284 213 167 134
850.0 142 160 181 220 260 336 398 525 657 845
890.0 1109 1451 1973 2779 4113 5370 6321 6325 5416 3939
930.0 2805 2069 1574 1224 1034 927 896 911 973 1041
970.0 1139 1245 1441 1847 2232 2572 2660 2566 2169 1765
1010.0 1420 1173 1056 1180 1496 1589 1418 1164 681 423
1050.0 408 480 609 725 835 894 908 856 784 702
1090.0 663 665 687 747 802 784 740 670 541 428
1130.0 338 291 279 305 362 450 582 741 903 1030
1170.0 1107 1106 1049 948 808 675 590 521 429 329
1210.0 223 140 111 120 142 180 227 238 238 227
1250.0 217 234 253 257 255 225 177 147 145 156
1290.0 199 259 324 368 372 346 303 310 344 444
1330.0 605 730 790 734 591 417 317 259 239 231
1370.0 240 248 261 263 279 269 261 271 286 353
1410.0 454 603 741 809 890 1001 1240 1676 2265 2757
1450.0 3041 2992 2708 2289 1758 1298 1002 795 776 1053
1490.0 1908 3082 3552 3408 2663 1179 398 232 192 195
1530.0 199 219 227 243 216 204 181 204 198 202
1570.0 250 306 391 486 632 832 1128 1576 2068 2306
1610.0 2159 1788 1246 905 895 1169 1672 2458 3018 2959
1650.0 2561 1580 737 501 339 281 216 193 182 191
1690.0 191 227 303 346 445 582 733 777 727 615
1730.0 658 750 834 1094 1317 1372 1216 890 635 535
1770.0 496 462 389 405 456 573 682 685 633 490
1810.0 365 330 366 456 614 757 788 738 617 464
1850.0 389 366 360 362 380 395 369 329 271 200
1890.0 151 129 117 104 103 102 122 155 200 267
1930.0 348 418 447 480 506 523 489 414 325 212
1970.0 133 128 129 133 125 115 101 86 74 65
2010.0 60 54 54 49 48 55 54 59 58 53
2050.0 54 48 47 42 44 39 35 33 30 26
2090.0 32 30 27 32 29 24 26 25 23 28
2130.0 24 23 28 32 34 37 40 43 41 40
2170.0 40 42 43 43 41 41 41 41 45 45
2210.0 45 47 46 44 41 42 43 42 41 45
2250.0 43 47 49 48 52 55 54 59 63 63
2290.0 71 79 81 83 108 125 118 109 92 63
2330.0 54 58 49 58 64 82 48 51 54 51
2370.0 51 67 62 72 64 53 45 42 42 40
2410.0 38 39 39 34 45 36 32 34 33 33
2450.0 29 28 27 31 25 23 23 21 21 26
2490.0 25 27 28 26 30 32 37 42 41 42
2530.0 42 42 45 42 44 46 44 46 49 54
2570.0 55 60 73 82 92 99 103 100 95 101
2610.0 98 96 87 88 94 95 91 96 101 96
2650.0 97 94 101 107 106 112 114 109 103 99
2690.0 104 107 113 113 120 123 120 127 136 136
2730.0 124 136 136 130 129 125 124 121 127 132
2770.0 136 157 186 217 244 279 297 306 313 315
2810.0 313 316 346 376 435 527 652 840 1095 1464
2850.0 1913 2426 2931 3344 3566 3548 3253 2874 2497 2214
2890.0 2083 2109 2296 2643 3188 3913 4773 5688 6744 7846
2930.0 8936 9708 10000 9529 8274 6865 5429 4226 3449 3070
2970.0 2932 2898 2948 3058 3186 3211 3157 3114 3243 3497
3010.0 3713 3915 3979 4408 5519 7023 8120 8318 7632 5938
3050.0 4311 3618 3660 4425 5963 7410 8049 8349 8318 7815
3090.0 7302 6568 5033 3524 2600 2007 1628 1306 995 705
3130.0 503 389 316 278 245 232 216 209 209 212
3170.0 199 187 157 118 94 73 64 59 65 60
3210.0 53 53 49 51 44 49 39 47 38 42
3250.0 42 52 41 40 46 46 44 44 48 46
3290.0 48 43 42 38 47 41 33 46 36 41
3330.0 34 38 35 47 49 44 29 38 45 49
3370.0 60 51 42 44 39 40 38 48 45 46
3410.0 34 48 45 39 47 53 50 47 50 48
3450.0 51 56 51 43 44 47 38 39 36 29
3490.0 33 37 32 28 23 30 41 40 42 38
3530.0 34 29 35 42 37 37 41 42 51 49
3570.0 58 80 94 107 93 77 74 57 38 30
3610.0 20 38 48 39 54 47 58 59 71 82
3650.0 81 82 71 79 70 51 60 53 61 51
3690.0 59 60 53 48 41 50 50 45 30 23
3730.0 24 22 24 30 31 38 27 45 55 31
3770.0 35 23 24 33 35 30 42 32 42 50
3810.0 57 30 39 54 55 54 57 52 47 40
3850.0 58 57 60 58 34 34 39 48 58 39
3890.0 51 56 40 54 43 46 60 47 54 56
3930.0 62 38 48 40 40 39 58 52 32 37
##END=
