##TITLE=1-Bromoadamantane
##JCAMP-DX=4.24
##DATA TYPE=INFRARED SPECTRUM
##ORIGIN=Sadtler Research Labs Under US-EPA Contract
##OWNER=NIST Standard Reference Data Program
##CAS REGISTRY NO=768-90-1
##MOLFORM=C 10 H 15 Br
##XUNITS=1/CM
##YUNITS=ABSORBANCE
##XFACTOR=1.0
##YFACTOR=0.000128113
##DELTAX=4.0
##FIRSTX=450.0
##LASTX=3966.0
##FIRSTY=0.007046
##MAXX=3966
##MINX=450
##MAXY=1.28113
##MINY=0
##NPOINTS=880
##XYDATA=(X++(Y..Y))
450.0 55 10 130 231 328 388 298 254 243 192
490.0 159 163 122 128 153 142 153 129 122 153
530.0 170 175 193 178 184 174 181 194 195 202
570.0 209 239 223 235 233 241 241 246 219 223
610.0 245 225 238 242 239 224 239 236 213 213
650.0 199 203 180 225 186 559 759 726 709 526
690.0 306 287 307 302 286 265 254 235 250 246
730.0 238 239 246 255 264 272 313 370 408 417
770.0 393 305 282 280 291 300 335 377 469 658
810.0 990 1271 1250 1050 610 373 318 294 295 282
850.0 275 261 276 270 271 263 257 257 259 260
890.0 262 258 248 247 242 249 242 244 248 247
930.0 257 256 288 396 540 577 583 466 303 258
970.0 269 291 317 328 314 302 269 238 216 214
1010.0 220 282 467 888 1417 1536 1578 1015 462 399
1050.0 337 335 340 334 330 305 276 238 254 273
1090.0 337 395 483 538 523 502 460 425 393 379
1130.0 350 301 244 193 159 151 160 167 186 209
1170.0 235 252 274 287 289 277 254 234 210 192
1210.0 183 184 188 192 198 195 192 188 183 185
1250.0 185 193 198 192 184 181 205 267 376 611
1290.0 882 986 981 734 348 276 259 232 206 189
1330.0 193 218 274 365 437 421 367 262 183 171
1370.0 153 152 145 148 141 145 143 142 148 161
1410.0 172 177 190 207 231 253 287 320 403 520
1450.0 696 910 988 904 752 480 284 191 143 116
1490.0 111 118 124 121 124 124 130 133 135 135
1530.0 137 140 140 131 135 137 130 130 127 128
1570.0 129 132 140 137 126 112 96 90 88 91
1610.0 97 96 95 102 110 112 110 113 118 117
1650.0 118 116 122 117 118 117 118 117 115 117
1690.0 118 118 118 117 122 127 133 141 155 166
1730.0 172 178 184 185 191 196 212 230 248 250
1770.0 235 209 183 158 141 130 126 124 121 119
1810.0 117 118 116 116 115 114 115 117 117 114
1850.0 112 115 116 112 111 109 111 111 110 108
1890.0 109 108 110 111 114 114 115 116 119 116
1930.0 118 118 118 114 113 114 112 113 112 112
1970.0 113 112 111 113 114 112 111 111 110 110
2010.0 113 111 111 112 111 113 113 111 111 114
2050.0 115 113 115 115 114 114 115 113 112 111
2090.0 109 112 112 113 119 119 122 122 119 121
2130.0 118 117 115 114 113 111 112 111 112 111
2170.0 108 107 106 106 105 105 106 104 105 104
2210.0 108 107 109 109 107 108 107 106 110 109
2250.0 108 108 106 103 103 99 99 96 90 83
2290.0 75 61 48 41 29 12 24 32 38 60
2330.0 59 71 66 72 30 33 43 65 62 64
2370.0 51 53 49 55 71 92 101 97 100 97
2410.0 100 101 101 104 107 105 104 103 102 96
2450.0 98 98 96 99 100 97 93 92 91 91
2490.0 89 91 91 89 88 89 93 99 100 101
2530.0 97 96 96 95 97 95 97 98 98 102
2570.0 107 104 101 96 91 87 89 90 97 101
2610.0 107 113 117 126 128 125 125 125 127 131
2650.0 137 151 162 164 155 153 157 161 152 141
2690.0 119 101 94 90 88 85 85 89 87 87
2730.0 94 94 94 97 99 102 98 95 92 92
2770.0 90 91 92 95 102 104 109 112 118 119
2810.0 122 125 131 141 147 147 154 175 220 335
2850.0 585 1053 1653 2042 2079 1785 1281 898 658 524
2890.0 468 508 712 1228 2247 3808 5756 8142 10000 8996
2930.0 7676 5612 4422 4330 4293 3469 2344 1302 642 335
2970.0 211 160 126 112 101 92 86 79 70 70
3010.0 68 64 68 64 66 60 60 64 60 60
3050.0 58 56 54 53 54 54 51 54 53 50
3090.0 53 58 60 63 59 58 51 50 45 48
3130.0 44 45 42 43 40 43 38 40 35 36
3170.0 41 37 37 34 37 37 36 39 37 36
3210.0 37 39 37 34 35 37 36 36 34 36
3250.0 39 41 45 56 58 59 49 42 33 34
3290.0 35 34 32 29 29 30 30 34 35 37
3330.0 30 36 30 27 30 27 28 28 26 32
3370.0 34 39 41 40 45 50 49 41 33 28
3410.0 21 23 17 20 20 17 15 13 15 16
3450.0 17 11 17 16 13 17 21 18 12 18
3490.0 10 12 16 10 12 10 14 14 12 12
3530.0 13 10 20 18 16 16 16 18 17 21
3570.0 15 19 18 16 18 26 24 21 27 24
3610.0 21 22 20 30 21 23 28 22 20 10
3650.0 4 16 10 10 7 12 10 2 10 14
3690.0 17 10 7 7 14 12 4 14 16 20
3730.0 19 18 18 8 12 0 0 0 0 0
3770.0 0 0 0 0 1 0 0 4 3 0
3810.0 0 0 2 3 0 0 4 8 0 0
3850.0 2 5 0 0 0 0 0 0 0 0
3890.0 0 3 4 1 0 0 0 0 0 0
3930.0 0 0 3 1 8 4 1 0 0 0
##END=
