##TITLE=Propyl nicotinate
##JCAMP-DX=4.24
##DATA TYPE=INFRARED SPECTRUM
##ORIGIN=Sadtler Research Labs Under US-EPA Contract
##OWNER=NIST Standard Reference Data Program
##CAS REGISTRY NO=7681-15-4
##MOLFORM=C 9 H 11 N O 2
##XUNITS=1/CM
##YUNITS=ABSORBANCE
##XFACTOR=1.0
##YFACTOR=0.000176959
##DELTAX=4.0
##FIRSTX=450.0
##LASTX=3966.0
##FIRSTY=0.000000
##MAXX=3966
##MINX=450
##MAXY=1.76959
##MINY=0
##NPOINTS=880
##XYDATA=(X++(Y..Y))
450.0 0 66 94 219 201 190 153 182 143 171
490.0 86 132 285 300 207 234 285 242 211 249
530.0 160 191 182 148 123 152 100 169 188 152
570.0 118 155 127 108 121 135 163 147 162 185
610.0 208 187 243 231 206 156 166 140 144 183
650.0 142 164 174 153 163 213 204 209 271 346
690.0 500 675 835 936 826 676 563 487 492 632
730.0 842 1105 1298 1463 1259 1254 767 540 409 324
770.0 296 252 230 204 195 185 188 192 189 224
810.0 252 289 349 353 371 352 340 319 296 244
850.0 275 247 260 302 271 257 281 309 278 211
890.0 303 264 304 247 296 350 361 337 347 366
930.0 396 499 611 660 641 562 463 420 429 433
970.0 446 384 345 296 230 245 239 215 249 317
1010.0 424 747 1349 1767 1782 1363 800 530 524 465
1050.0 430 417 411 439 445 522 658 812 998 1149
1090.0 1365 1794 2635 3867 4928 5597 5791 5092 4614 4039
1130.0 3478 2923 2164 1599 1209 958 801 702 630 571
1170.0 526 519 518 562 619 627 617 552 473 412
1210.0 404 440 490 580 701 824 918 969 1043 1198
1250.0 1438 1845 2480 3708 5578 7684 9477 10000 9493 7951
1290.0 6367 3995 2448 1707 1347 1301 1259 1215 1197 1051
1330.0 913 723 513 443 453 461 469 417 380 371
1370.0 389 458 515 608 641 668 685 620 603 593
1410.0 724 1104 1342 1339 1121 709 492 440 413 441
1450.0 467 483 575 631 718 724 691 609 529 429
1490.0 322 268 214 203 192 158 190 156 153 178
1530.0 172 199 177 184 209 248 267 273 345 441
1570.0 493 631 726 1017 1394 1630 1714 1198 736 398
1610.0 278 231 227 202 200 197 201 192 198 201
1650.0 164 186 162 187 188 178 181 228 210 246
1690.0 294 336 365 362 442 464 523 673 956 1597
1730.0 2512 3865 6028 6638 6366 6707 4168 2733 1610 904
1770.0 582 434 359 339 322 330 318 305 291 241
1810.0 223 195 175 171 142 135 140 135 143 125
1850.0 137 131 132 135 128 132 133 129 141 137
1890.0 143 148 158 170 166 164 174 179 195 186
1930.0 170 152 140 142 141 148 147 138 141 128
1970.0 125 120 115 113 106 101 96 100 99 100
2010.0 100 101 102 103 101 103 105 106 107 105
2050.0 108 110 108 108 108 109 109 111 107 105
2090.0 104 105 102 107 101 98 97 99 90 91
2130.0 90 87 81 87 88 83 86 84 84 84
2170.0 87 86 83 87 87 87 90 91 93 94
2210.0 93 98 95 98 97 97 96 93 93 90
2250.0 88 88 82 84 83 82 84 82 84 85
2290.0 86 89 91 89 88 87 81 80 79 70
2330.0 68 67 67 71 69 88 75 82 69 80
2370.0 76 88 92 97 102 95 95 92 91 88
2410.0 87 85 83 80 80 79 78 79 75 74
2450.0 74 74 72 70 71 69 69 70 67 69
2490.0 70 72 75 74 76 78 76 76 76 76
2530.0 78 79 80 79 80 80 81 82 81 79
2570.0 81 77 77 76 78 78 81 79 81 83
2610.0 81 84 84 82 82 79 78 78 77 76
2650.0 75 75 77 75 77 75 76 75 77 82
2690.0 80 83 80 77 81 80 78 80 80 83
2730.0 81 86 91 96 102 104 105 106 103 105
2770.0 103 103 103 101 103 104 106 106 103 106
2810.0 109 113 118 123 129 132 144 151 160 172
2850.0 187 209 236 267 311 345 376 415 486 589
2890.0 685 729 727 687 648 616 590 585 607 676
2930.0 773 879 961 1031 1112 1179 1240 1301 1392 1559
2970.0 1719 1938 2159 2168 1968 1553 1089 779 603 482
3010.0 403 354 326 311 303 304 324 375 473 595
3050.0 688 707 648 555 470 391 325 304 324 388
3090.0 445 449 396 294 200 163 147 139 135 130
3130.0 130 132 131 133 136 136 128 121 117 110
3170.0 110 112 111 106 103 103 98 94 96 95
3210.0 97 93 92 90 92 91 88 90 88 88
3250.0 84 92 87 88 87 88 85 83 89 84
3290.0 88 87 91 86 90 91 89 93 92 90
3330.0 95 93 98 93 92 92 87 89 94 94
3370.0 90 91 91 87 93 93 94 90 93 90
3410.0 94 92 94 97 96 101 99 101 99 105
3450.0 114 122 129 142 154 150 144 139 130 116
3490.0 96 98 93 97 93 92 96 92 94 99
3530.0 92 92 98 94 95 102 94 101 90 100
3570.0 102 99 103 106 116 107 110 91 102 83
3610.0 99 97 86 98 81 80 85 88 93 100
3650.0 79 102 72 105 84 102 84 77 101 92
3690.0 104 82 109 94 95 89 98 104 98 103
3730.0 103 86 99 93 79 100 67 104 95 101
3770.0 96 94 104 99 94 105 105 100 81 106
3810.0 84 105 94 98 98 99 92 98 94 95
3850.0 108 99 99 101 97 81 99 112 101 104
3890.0 116 81 108 99 101 88 105 104 120 105
3930.0 80 117 95 98 105 111 98 100 94 76
##END=
