##TITLE=4-t-Butylbenzeneamine
##JCAMP-DX=4.24
##DATA TYPE=INFRARED SPECTRUM
##ORIGIN=Sadtler Research Labs Under US-EPA Contract
##OWNER=NIST Standard Reference Data Program
##CAS REGISTRY NO=769-92-6
##MOLFORM=C 10 H 15 N
##XUNITS=1/CM
##YUNITS=ABSORBANCE
##XFACTOR=1.0
##YFACTOR=0.000123230
##DELTAX=4.0
##FIRSTX=450.0
##LASTX=3966.0
##FIRSTY=0.170181
##MAXX=3966
##MINX=450
##MAXY=1.2323
##MINY=0
##NPOINTS=880
##XYDATA=(X++(Y..Y))
450.0 1381 702 18 423 121 988 1001 1074 638 602
490.0 707 563 715 528 577 531 448 492 525 673
530.0 894 1095 1289 1592 1561 1313 1136 916 690 545
570.0 399 412 264 359 378 358 370 382 409 448
610.0 477 549 630 758 903 1128 1470 1862 2225 2389
650.0 2364 2099 1755 1517 1497 1558 1586 1569 1408 1194
690.0 1089 1064 1045 1015 929 846 758 729 710 714
730.0 710 751 760 772 719 640 616 541 532 505
770.0 512 560 592 629 695 767 873 1021 1255 1565
810.0 1946 2312 2632 2618 2318 1947 1605 1265 989 794
850.0 660 554 493 428 402 366 340 332 319 316
890.0 306 317 312 327 329 331 327 326 321 319
930.0 322 314 308 294 292 285 292 291 292 292
970.0 293 293 293 294 284 284 272 282 294 373
1010.0 485 512 514 467 396 377 374 393 415 443
1050.0 487 530 585 613 631 619 577 527 482 462
1090.0 467 501 555 654 787 864 873 823 712 636
1130.0 624 602 580 538 473 407 361 335 312 309
1170.0 313 353 509 1037 1886 2159 2242 1898 1058 589
1210.0 457 390 374 360 383 400 453 541 694 929
1250.0 1347 2066 3107 4199 4921 5093 4514 3558 2774 2140
1290.0 1597 1212 943 729 575 459 391 335 323 318
1330.0 327 336 339 406 508 624 794 1013 1240 1459
1370.0 1485 1354 1097 838 664 707 797 788 777 630
1410.0 450 427 358 413 415 449 428 459 513 564
1450.0 636 730 824 1002 1129 1215 1208 1216 1200 1107
1490.0 1031 1083 1263 1871 3057 5018 6452 6711 6002 3972
1530.0 2287 1395 931 638 535 492 428 331 356 388
1570.0 400 433 476 518 594 647 762 899 1135 1457
1610.0 1968 2742 3702 4716 5273 5206 4416 3252 2247 1415
1650.0 899 615 501 419 358 321 264 290 210 194
1690.0 209 230 170 183 198 226 188 122 165 180
1730.0 158 115 184 194 185 162 173 144 117 117
1770.0 85 72 89 81 77 67 54 66 53 82
1810.0 77 79 94 89 89 85 108 126 117 118
1850.0 160 194 217 237 238 224 241 231 211 182
1890.0 152 137 129 125 125 127 124 121 105 106
1930.0 104 95 93 77 80 80 78 72 68 56
1970.0 56 63 60 64 65 54 55 61 68 65
2010.0 69 65 65 69 73 74 75 68 69 72
2050.0 76 82 87 93 90 93 87 83 76 72
2090.0 68 66 65 60 63 57 58 58 59 56
2130.0 54 52 47 45 41 44 42 42 36 34
2170.0 37 35 35 38 39 35 34 32 30 29
2210.0 29 33 30 30 28 28 24 25 25 28
2250.0 25 27 30 32 35 41 46 49 52 50
2290.0 51 50 48 48 50 49 44 45 49 42
2330.0 31 30 29 27 28 31 22 30 20 19
2370.0 31 40 39 39 38 35 34 31 26 26
2410.0 25 24 26 26 23 29 22 27 26 22
2450.0 19 17 18 17 17 17 17 15 10 8
2490.0 9 7 4 2 2 1 1 6 8 13
2530.0 21 24 22 24 31 30 34 37 40 41
2570.0 41 39 39 33 28 32 31 30 25 30
2610.0 30 34 32 34 30 30 29 32 36 38
2650.0 44 49 51 49 51 49 46 50 44 45
2690.0 47 48 51 53 63 74 85 91 96 100
2730.0 90 85 78 77 79 84 83 84 79 74
2770.0 72 73 83 87 94 95 99 94 94 100
2810.0 109 131 146 153 160 172 184 207 238 286
2850.0 357 469 649 908 1233 1593 1897 2106 2167 2139
2890.0 2062 1960 1918 2010 2237 2553 2749 2773 2640 2422
2930.0 2272 2251 2346 2583 3051 3947 5394 7227 8847 10000
2970.0 9871 8540 6621 4549 3009 2083 1541 1263 1146 1101
3010.0 1087 1093 1155 1319 1598 1894 2031 1951 1683 1255
3050.0 968 873 853 852 840 821 763 695 631 566
3090.0 513 483 468 441 420 390 351 298 258 223
3130.0 198 182 156 135 121 123 118 118 113 106
3170.0 105 106 106 99 92 89 91 100 114 122
3210.0 119 114 119 114 118 126 126 132 116 102
3250.0 89 87 68 73 62 51 52 56 56 42
3290.0 36 42 38 54 40 28 35 33 25 20
3330.0 22 25 38 39 29 22 35 32 41 34
3370.0 53 55 78 89 111 182 250 365 454 531
3410.0 588 544 436 351 195 120 97 83 73 73
3450.0 87 96 123 139 170 201 245 291 348 354
3490.0 369 398 390 342 287 258 171 115 100 48
3530.0 62 47 51 31 30 25 19 19 10 21
3570.0 12 15 18 13 20 12 20 10 12 12
3610.0 22 11 2 14 8 0 19 15 13 14
3650.0 11 14 9 13 21 16 6 20 17 16
3690.0 23 30 10 2 25 25 31 14 2 0
3730.0 12 44 14 9 27 0 0 0 29 37
3770.0 5 0 1 25 38 27 4 0 9 19
3810.0 32 29 2 17 17 4 1 15 34 53
3850.0 49 59 60 34 29 29 48 55 69 76
3890.0 80 62 51 42 52 58 65 36 22 18
3930.0 39 89 18 23 9 29 69 33 28 95
##END=
