##TITLE=Propanedioic acid, ethyl(3-methylbutyl)-, diethyl ester
##JCAMP-DX=4.24
##DATA TYPE=INFRARED SPECTRUM
##ORIGIN=Sadtler Research Labs Under US-EPA Contract
##OWNER=NIST Standard Reference Data Program
##CAS REGISTRY NO=77-24-7
##MOLFORM=C 14 H 26 O 4
##XUNITS=1/CM
##YUNITS=ABSORBANCE
##XFACTOR=1.0
##YFACTOR=0.000110687
##DELTAX=4.0
##FIRSTX=450.0
##LASTX=3966.0
##FIRSTY=0.027229
##MAXX=3966
##MINX=450
##MAXY=1.10687
##MINY=0
##NPOINTS=880
##XYDATA=(X++(Y..Y))
450.0 246 320 336 277 280 275 175 216 108 126
490.0 296 66 282 192 151 145 218 166 161 241
530.0 84 182 102 84 283 207 1 183 331 303
570.0 278 317 267 272 161 220 281 96 178 259
610.0 285 166 89 63 154 183 78 90 10 215
650.0 175 208 118 204 184 203 225 222 279 287
690.0 311 267 235 199 195 205 155 206 231 212
730.0 231 308 295 191 215 283 341 290 317 289
770.0 341 390 386 413 377 363 391 398 373 337
810.0 341 369 294 310 365 333 315 306 272 303
850.0 412 405 556 633 670 596 489 400 309 231
890.0 264 253 229 175 215 237 247 268 314 275
930.0 303 327 289 285 299 308 301 297 345 355
970.0 378 374 438 508 538 528 531 544 585 649
1010.0 780 932 1209 1650 2152 2679 3011 2883 2421 1904
1050.0 1429 1172 1061 1012 981 987 1027 1105 1234 1460
1090.0 1776 2265 2812 3214 3370 3178 3042 3162 3599 4174
1130.0 4586 4710 4669 4677 4718 4471 3918 3291 2840 2601
1170.0 2485 2457 2539 2898 3544 4295 4967 5365 5569 5798
1210.0 6132 6729 7273 7521 7195 6352 5545 4828 4343 4094
1250.0 3914 3702 3353 2892 2468 2141 1944 1804 1664 1535
1290.0 1474 1518 1616 1668 1655 1496 1251 1043 922 862
1330.0 839 829 838 846 828 744 665 640 765 1096
1370.0 1379 1424 1174 994 1054 1152 1080 856 655 558
1410.0 501 461 452 441 457 495 557 668 788 936
1450.0 1115 1280 1391 1488 1560 1602 1494 1188 884 658
1490.0 496 414 346 306 286 253 243 229 225 212
1530.0 196 206 199 187 197 178 179 180 174 166
1570.0 156 162 154 152 155 140 154 146 139 149
1610.0 144 147 154 152 155 151 162 158 159 177
1650.0 173 198 193 189 225 225 253 273 283 335
1690.0 364 425 512 595 706 786 918 1072 1315 1876
1730.0 2770 4359 7068 9229 10000 9411 7181 5940 4784 3283
1770.0 2047 1281 937 747 602 540 452 406 369 310
1810.0 297 258 233 217 193 185 168 156 152 138
1850.0 131 114 116 117 115 120 118 116 123 119
1890.0 124 123 115 117 103 99 96 90 86 76
1930.0 80 76 74 79 71 78 79 77 87 80
1970.0 85 84 82 83 82 88 84 81 83 79
2010.0 79 75 73 74 68 70 68 64 70 73
2050.0 76 80 76 79 80 87 88 83 88 81
2090.0 81 81 74 74 70 63 65 61 58 60
2130.0 58 58 53 58 53 52 52 51 51 53
2170.0 49 52 51 50 48 44 43 41 43 39
2210.0 39 38 37 36 39 39 39 38 36 41
2250.0 36 37 34 36 41 42 41 39 38 36
2290.0 35 38 36 34 31 32 31 28 30 28
2330.0 12 25 15 21 24 25 28 31 42 33
2370.0 19 34 39 42 44 43 41 47 47 46
2410.0 42 44 43 38 37 34 34 32 26 26
2450.0 20 24 21 19 20 19 19 18 21 16
2490.0 19 19 19 19 19 19 16 12 15 11
2530.0 9 11 10 5 7 7 7 9 8 13
2570.0 9 15 19 15 19 25 28 26 28 31
2610.0 29 31 30 33 32 30 26 26 25 24
2650.0 23 21 19 15 18 18 19 23 14 23
2690.0 21 23 26 29 34 36 47 51 59 75
2730.0 84 85 81 81 77 78 82 84 84 87
2770.0 96 99 95 100 94 98 100 114 122 129
2810.0 144 161 177 193 210 223 248 264 292 335
2850.0 384 451 542 651 779 958 1249 1648 1995 2127
2890.0 2060 1907 1737 1657 1719 1886 2058 2153 2178 2247
2930.0 2437 2758 3129 3461 3623 3608 3707 4320 5575 6645
2970.0 6442 5595 4990 4772 4534 3858 2989 2285 1797 1413
3010.0 1104 876 685 545 437 371 320 276 240 217
3050.0 196 180 162 156 147 141 138 130 127 123
3090.0 118 107 101 111 101 99 99 99 103 98
3130.0 97 95 91 95 89 93 90 91 86 88
3170.0 81 86 82 74 69 71 60 60 55 51
3210.0 53 43 34 41 42 40 41 33 36 34
3250.0 36 35 32 30 26 22 32 28 23 20
3290.0 20 20 26 21 26 27 24 23 22 29
3330.0 37 31 36 30 34 47 43 43 51 56
3370.0 38 42 41 40 40 41 31 28 29 32
3410.0 31 25 24 34 37 38 40 39 47 51
3450.0 59 61 61 61 75 88 92 96 100 104
3490.0 92 85 72 53 44 39 32 29 26 29
3530.0 25 26 28 32 32 28 21 37 46 35
3570.0 37 34 28 40 37 32 26 17 22 26
3610.0 20 21 8 15 24 21 18 24 24 30
3650.0 28 17 30 39 38 25 29 30 43 29
3690.0 34 28 33 31 29 27 16 24 31 12
3730.0 18 32 30 28 34 37 30 33 29 34
3770.0 53 36 39 39 39 42 55 43 36 48
3810.0 29 36 41 19 21 28 24 38 37 32
3850.0 29 41 47 32 56 48 51 43 52 31
3890.0 56 56 40 22 9 19 35 29 21 41
3930.0 43 5 0 11 9 3 17 50 57 42
##END=
