##TITLE=1,3-Cyclopentadiene, 1,2,3,4,5,5-hexachloro-
##JCAMP-DX=4.24
##DATA TYPE=INFRARED SPECTRUM
##ORIGIN=Sadtler Research Labs Under US-EPA Contract
##OWNER=NIST Standard Reference Data Program
##CAS REGISTRY NO=77-47-4
##MOLFORM=C 5 Cl 6
##XUNITS=1/CM
##YUNITS=ABSORBANCE
##XFACTOR=1.0
##YFACTOR=0.000099414
##DELTAX=4.0
##FIRSTX=450.0
##LASTX=3966.0
##FIRSTY=0.000000
##MAXX=3966
##MINX=450
##MAXY=0.99414
##MINY=0
##NPOINTS=880
##XYDATA=(X++(Y..Y))
450.0 0 266 304 305 213 344 250 291 270 319
490.0 257 269 295 263 259 234 294 255 291 226
530.0 253 237 263 355 382 471 421 402 316 314
570.0 260 254 249 278 262 272 303 317 329 345
610.0 382 351 338 289 300 288 316 351 398 432
650.0 458 525 617 752 816 1044 1724 3664 5372 5607
690.0 3720 1482 1445 2491 3731 4150 3825 2870 1899 1208
730.0 826 626 507 494 514 524 528 572 652 636
770.0 578 509 506 598 667 829 1247 2190 3930 6348
810.0 8721 10000 7727 4143 1710 637 438 392 349 314
850.0 300 305 338 374 397 372 334 295 269 265
890.0 269 280 291 291 282 266 256 261 295 332
930.0 402 457 507 500 459 411 424 536 743 855
970.0 770 696 630 532 402 316 300 286 283 282
1010.0 298 335 419 524 568 516 406 320 285 261
1050.0 245 242 247 261 274 289 295 298 294 284
1090.0 282 287 297 314 340 387 490 647 876 1253
1130.0 1988 3123 4121 4157 3000 1590 871 852 965 906
1170.0 774 756 861 1123 1436 1582 1406 1016 778 754
1210.0 918 1271 2062 3684 6428 9223 9021 6031 2231 572
1250.0 391 324 299 283 286 280 264 264 254 267
1290.0 261 269 256 258 245 234 233 230 238 235
1330.0 248 245 244 236 240 238 236 241 247 258
1370.0 256 252 245 240 246 255 264 259 251 226
1410.0 228 218 215 210 213 211 209 211 214 224
1450.0 216 228 219 233 242 223 225 209 217 207
1490.0 225 219 227 235 230 219 230 221 211 227
1530.0 222 228 221 257 266 303 348 391 524 729
1570.0 1049 1162 1015 837 931 1530 2446 4255 5537 6915
1610.0 5710 3423 1267 510 452 332 337 295 329 308
1650.0 329 273 273 254 239 234 234 221 241 217
1690.0 229 224 225 206 213 207 208 206 210 213
1730.0 213 216 209 224 216 219 228 243 268 304
1770.0 332 335 332 312 306 267 262 248 257 266
1810.0 274 261 248 236 223 231 223 240 227 239
1850.0 229 230 224 224 218 216 217 210 218 215
1890.0 222 225 236 241 247 253 252 250 241 234
1930.0 232 235 237 233 236 231 229 226 224 219
1970.0 223 221 221 221 219 218 221 220 217 210
2010.0 209 207 206 204 204 204 204 204 205 206
2050.0 204 204 205 204 204 204 205 208 206 208
2090.0 209 209 207 208 207 210 207 212 212 215
2130.0 216 217 222 222 228 233 234 231 226 223
2170.0 219 218 214 212 215 216 212 210 209 209
2210.0 205 205 205 204 206 205 205 207 210 211
2250.0 211 212 211 209 209 213 213 216 219 222
2290.0 219 217 214 213 213 211 214 215 214 217
2330.0 215 211 200 221 197 220 209 216 222 224
2370.0 223 222 219 214 209 209 207 207 208 205
2410.0 205 205 205 203 202 199 200 198 202 199
2450.0 199 199 200 200 198 197 202 202 201 204
2490.0 206 204 204 204 204 205 205 205 207 210
2530.0 212 216 215 219 218 214 213 211 212 215
2570.0 213 212 209 210 208 207 207 207 209 206
2610.0 204 204 205 209 208 207 207 206 203 204
2650.0 204 204 204 205 205 207 205 208 204 201
2690.0 206 203 203 204 206 203 205 204 207 210
2730.0 209 207 210 209 208 210 213 209 207 210
2770.0 209 207 214 210 215 215 220 220 220 216
2810.0 214 210 211 212 206 208 210 208 207 207
2850.0 208 206 205 210 211 209 208 210 208 206
2890.0 211 209 212 209 208 210 209 212 210 212
2930.0 212 214 211 211 217 208 210 209 212 212
2970.0 213 209 211 211 207 206 210 212 209 208
3010.0 209 210 206 206 208 209 208 208 209 207
3050.0 205 204 210 208 207 206 208 208 208 210
3090.0 208 208 207 207 209 210 209 212 212 207
3130.0 209 208 207 208 208 212 214 213 215 213
3170.0 212 205 204 203 203 197 203 198 199 200
3210.0 203 204 201 202 207 211 215 215 212 213
3250.0 211 212 209 210 213 208 213 210 212 210
3290.0 213 214 212 212 214 213 210 212 212 207
3330.0 214 214 216 211 213 213 212 208 214 207
3370.0 210 213 213 215 211 211 213 217 207 210
3410.0 210 211 215 216 212 212 215 217 215 210
3450.0 205 215 217 214 212 212 212 216 218 219
3490.0 211 214 213 217 225 211 216 211 216 221
3530.0 223 217 215 213 226 220 213 223 205 241
3570.0 223 216 220 214 229 219 228 220 224 217
3610.0 235 232 229 224 218 230 229 208 232 221
3650.0 248 243 210 234 197 255 209 259 207 226
3690.0 229 222 218 220 218 229 230 220 224 229
3730.0 237 241 241 220 263 206 253 207 218 236
3770.0 227 219 209 229 214 219 217 226 215 249
3810.0 197 236 204 256 224 218 233 247 222 236
3850.0 240 240 237 226 219 245 230 223 227 223
3890.0 214 237 217 244 228 225 215 238 225 215
3930.0 224 229 222 220 213 218 215 206 224 214
##END=
