##TITLE=Meparfynol
##JCAMP-DX=4.24
##DATA TYPE=INFRARED SPECTRUM
##ORIGIN=Sadtler Research Labs Under US-EPA Contract
##OWNER=NIST Standard Reference Data Program
##CAS REGISTRY NO=77-75-8
##MOLFORM=C 6 H 10 O
##XUNITS=1/CM
##YUNITS=ABSORBANCE
##XFACTOR=1.0
##YFACTOR=0.000074835
##DELTAX=4.0
##FIRSTX=450.0
##LASTX=3966.0
##FIRSTY=0.020729
##MAXX=3966
##MINX=450
##MAXY=0.74835
##MINY=0
##NPOINTS=880
##XYDATA=(X++(Y..Y))
450.0 277 478 401 311 182 196 199 205 140 96
490.0 94 95 81 91 168 73 175 181 230 290
530.0 412 548 850 1104 1208 1569 1791 1605 1184 1208
570.0 948 834 773 822 859 1049 658 601 636 577
610.0 841 1290 2203 3101 3691 6588 7329 8451 10000 9741
650.0 6527 6585 6543 3856 2776 2224 1474 927 622 428
690.0 281 249 185 170 127 120 95 53 53 30
730.0 10 37 89 52 39 22 40 44 42 50
770.0 50 66 91 101 118 145 134 127 119 102
810.0 78 73 66 72 52 57 65 61 59 55
850.0 60 66 74 93 109 167 265 390 571 794
890.0 1113 1585 1928 2466 3111 3679 3908 4433 5062 4008
930.0 3166 2788 1998 1263 747 497 383 359 375 442
970.0 587 803 1144 1530 1948 2443 3110 3311 3285 3256
1010.0 3136 2930 2647 2474 2444 2461 2441 2245 2102 2008
1050.0 1754 1528 1278 1046 911 813 749 755 824 958
1090.0 1121 1320 1570 1821 2101 2384 2689 2999 3328 3649
1130.0 3938 4215 4382 4438 4423 4416 4392 4403 4424 4367
1170.0 4198 3909 3537 3095 2701 2384 2116 1915 1763 1640
1210.0 1546 1454 1391 1361 1347 1363 1432 1639 2007 2528
1250.0 3066 3543 3650 3344 3349 3346 2923 2607 2503 2480
1290.0 2408 2381 2611 2873 2939 3018 3266 3423 3460 3454
1330.0 3419 3325 3282 3239 3156 3049 2916 2816 2736 2728
1370.0 2703 2735 2927 2743 2447 2164 1684 1276 912 655
1410.0 515 451 460 475 508 605 773 953 1156 1322
1450.0 1577 1748 1877 1888 1758 1622 1348 1103 860 674
1490.0 465 344 275 201 188 156 89 108 127 89
1530.0 85 63 138 102 94 83 124 128 186 90
1570.0 135 89 151 57 82 81 70 62 71 87
1610.0 50 98 97 82 70 51 85 75 34 101
1650.0 44 141 83 19 64 85 32 88 26 119
1690.0 36 68 82 126 60 60 81 99 91 88
1730.0 120 90 128 71 78 82 83 44 59 46
1770.0 36 51 10 39 1 47 25 30 21 30
1810.0 25 35 35 39 68 57 81 48 85 56
1850.0 58 45 39 18 30 29 28 27 27 34
1890.0 33 33 32 37 43 51 57 62 53 60
1930.0 62 58 56 52 55 42 44 42 44 46
1970.0 36 43 39 31 28 42 33 30 33 33
2010.0 33 32 26 26 33 26 17 19 21 24
2050.0 10 22 47 48 29 25 26 27 30 42
2090.0 51 66 70 72 76 75 74 73 58 63
2130.0 56 49 41 37 33 36 42 39 37 34
2170.0 37 37 33 35 32 41 34 34 37 37
2210.0 32 34 39 36 43 40 44 42 48 46
2250.0 51 50 52 55 59 51 47 49 41 33
2290.0 34 26 25 31 39 45 86 105 132 147
2330.0 167 157 124 172 49 87 237 208 200 71
2370.0 4 4 4 4 4 28 51 58 66 55
2410.0 55 50 60 50 45 40 36 42 39 35
2450.0 36 37 34 42 33 34 31 36 41 41
2490.0 33 29 32 24 36 30 34 30 32 29
2530.0 22 25 20 19 16 26 29 17 24 17
2570.0 9 13 15 12 17 14 21 27 33 41
2610.0 45 50 53 53 46 44 53 46 49 75
2650.0 98 83 83 73 63 64 44 40 49 59
2690.0 44 39 37 29 33 32 31 43 65 60
2730.0 62 90 105 112 113 119 118 120 124 110
2770.0 95 106 102 99 107 107 120 126 133 139
2810.0 160 167 191 214 239 273 294 341 399 470
2850.0 527 661 801 906 1038 1226 1457 1735 2057 2231
2890.0 2406 2559 2383 2245 2156 2007 1976 2189 2582 3195
2930.0 4034 4901 5368 5764 6190 5766 5090 4745 4582 4873
2970.0 5685 6667 8282 9797 9370 9593 8617 6577 5072 3488
3010.0 2264 1365 766 476 302 247 218 194 173 178
3050.0 145 153 157 160 199 188 215 225 240 244
3090.0 197 191 184 148 112 127 124 114 138 128
3130.0 139 113 126 110 108 102 96 101 92 109
3170.0 91 112 92 110 90 109 93 93 99 89
3210.0 112 89 96 88 107 92 116 107 88 94
3250.0 109 112 92 141 160 221 249 303 413 566
3290.0 795 1065 1405 1608 2322 3135 4257 5465 5118 6314
3330.0 5902 4482 4484 2770 1299 589 369 319 240 233
3370.0 183 180 138 120 81 81 102 91 101 91
3410.0 116 76 87 62 73 106 82 88 65 66
3450.0 76 92 81 107 112 104 126 135 135 111
3490.0 138 140 122 112 99 97 86 68 83 39
3530.0 62 83 103 91 20 31 135 76 62 32
3570.0 48 70 63 98 97 39 78 31 157 136
3610.0 174 189 362 565 855 1387 1709 2014 2329 2828
3650.0 2467 1722 1455 1055 706 414 229 189 96 125
3690.0 72 53 78 67 77 79 73 61 19 90
3730.0 96 125 36 132 60 87 56 27 50 68
3770.0 92 68 92 82 101 106 94 45 94 65
3810.0 105 73 79 53 79 63 91 81 19 0
3850.0 95 114 20 87 57 22 37 78 49 58
3890.0 56 133 58 101 13 86 80 104 120 53
3930.0 86 52 136 164 82 82 114 86 147 117
##END=
