##TITLE=4,7-Methano-1H-indene, 3a,4,7,7a-tetrahydro-
##JCAMP-DX=4.24
##DATA TYPE=INFRARED SPECTRUM
##ORIGIN=Sadtler Research Labs Under US-EPA Contract
##OWNER=NIST Standard Reference Data Program
##CAS REGISTRY NO=77-73-6
##MOLFORM=C 10 H 12
##XUNITS=1/CM
##YUNITS=ABSORBANCE
##XFACTOR=1.0
##YFACTOR=0.000133661
##DELTAX=4.0
##FIRSTX=450.0
##LASTX=3966.0
##FIRSTY=0.000000
##MAXX=3966
##MINX=450
##MAXY=1.33661
##MINY=0
##NPOINTS=880
##XYDATA=(X++(Y..Y))
450.0 0 274 408 439 520 879 879 1053 1067 990
490.0 730 572 311 243 162 145 143 86 132 87
530.0 128 74 120 88 85 79 86 91 62 107
570.0 57 96 78 117 75 99 99 85 106 109
610.0 143 99 162 155 188 182 240 261 280 290
650.0 283 259 313 1207 1030 593 867 1067 841 805
690.0 845 697 676 651 834 714 1273 1995 2046 2478
730.0 2686 2127 2430 1866 2211 2728 3169 3127 2650 1979
770.0 1321 632 381 276 259 285 385 490 647 777
810.0 903 880 874 764 566 437 333 206 158 143
850.0 136 153 163 193 221 241 263 277 306 329
890.0 512 798 750 706 946 958 980 979 805 633
930.0 648 605 617 583 550 486 408 323 268 225
970.0 211 223 238 265 266 342 338 267 264 235
1010.0 224 253 287 315 345 322 264 224 154 118
1050.0 97 106 110 118 130 133 128 129 157 164
1090.0 168 218 179 201 182 157 157 175 213 249
1130.0 266 331 288 272 274 254 262 262 272 248
1170.0 203 172 135 110 98 92 92 96 99 116
1210.0 138 168 195 229 274 301 334 391 497 611
1250.0 609 654 576 444 370 309 270 247 250 252
1290.0 246 249 286 326 330 361 321 298 308 354
1330.0 493 656 808 997 979 839 739 583 406 301
1370.0 263 237 230 228 225 216 201 189 180 169
1410.0 159 163 164 187 212 282 368 483 604 727
1450.0 797 753 709 550 412 316 197 136 135 115
1490.0 114 104 110 92 98 89 82 83 77 83
1530.0 70 82 78 89 77 86 93 103 127 144
1570.0 176 194 204 193 195 191 199 224 260 321
1610.0 359 385 395 377 360 328 320 308 322 297
1650.0 259 217 170 149 135 135 136 145 156 161
1690.0 163 162 154 136 125 117 114 113 107 106
1730.0 104 101 96 95 89 93 88 92 90 88
1770.0 91 90 86 88 91 89 90 89 96 97
1810.0 105 104 110 116 118 120 119 115 104 102
1850.0 95 98 101 105 106 106 102 99 97 91
1890.0 92 88 89 89 89 91 95 97 99 101
1930.0 96 94 87 83 79 76 77 77 78 79
1970.0 78 79 76 74 73 69 69 68 68 69
2010.0 70 71 71 74 76 81 86 91 95 103
2050.0 105 101 100 95 94 93 97 100 102 106
2090.0 103 100 96 93 87 84 81 80 80 76
2130.0 79 78 80 85 90 93 100 101 100 101
2170.0 99 104 101 104 107 110 107 109 111 111
2210.0 112 115 117 110 112 103 100 95 88 85
2250.0 81 80 77 79 77 78 78 78 77 79
2290.0 81 79 83 80 80 78 78 75 72 71
2330.0 67 62 57 62 59 68 71 69 62 71
2370.0 67 66 70 72 74 71 70 67 65 65
2410.0 66 65 67 66 66 70 70 75 75 73
2450.0 70 66 66 61 63 63 64 67 67 67
2490.0 68 69 71 76 77 78 77 79 75 72
2530.0 71 68 65 64 67 69 70 72 73 75
2570.0 74 75 75 78 79 80 78 77 73 68
2610.0 65 64 61 54 55 54 56 53 55 54
2650.0 55 56 57 57 53 54 52 51 52 56
2690.0 57 60 65 67 70 68 71 67 68 70
2730.0 71 71 74 77 73 76 75 81 83 84
2770.0 84 81 79 75 75 72 82 80 88 91
2810.0 99 100 104 114 122 154 212 367 629 1023
2850.0 1330 1665 1952 1896 2029 1963 1960 2015 1884 2000
2890.0 2256 2466 2868 3979 3932 3984 4213 3736 3915 3963
2930.0 4511 4829 5721 6497 5414 4957 4928 5400 6358 7895
2970.0 9681 10000 9686 7736 5641 3761 1867 771 347 212
3010.0 181 165 167 178 201 269 409 714 1247 2033
3050.0 2684 3315 3929 3512 3448 2959 2414 1694 1204 933
3090.0 613 410 313 274 254 232 217 194 191 190
3130.0 200 202 212 217 220 215 178 151 122 99
3170.0 79 69 68 68 62 59 62 62 65 68
3210.0 83 91 105 115 120 120 115 104 90 83
3250.0 78 79 72 72 69 68 65 65 64 60
3290.0 62 57 59 56 60 55 58 57 56 58
3330.0 57 58 59 64 61 62 62 64 64 64
3370.0 71 72 72 76 81 83 77 77 73 69
3410.0 72 85 85 94 100 102 98 91 83 67
3450.0 67 65 67 64 61 59 56 57 56 56
3490.0 53 60 59 56 57 55 54 54 58 55
3530.0 56 61 60 56 58 55 60 56 59 58
3570.0 54 57 52 59 58 55 56 56 51 53
3610.0 57 54 61 59 55 59 54 57 60 61
3650.0 62 56 56 53 63 62 63 69 64 67
3690.0 72 66 67 58 58 59 59 58 59 65
3730.0 58 62 51 59 51 53 52 55 61 74
3770.0 67 78 81 76 79 69 58 51 51 51
3810.0 51 51 51 63 62 67 70 62 67 61
3850.0 55 64 67 75 76 60 65 58 62 59
3890.0 56 52 53 51 54 64 66 65 69 77
3930.0 71 70 64 53 58 51 52 55 51 62
##END=
