##TITLE=3-Pentanol, 3-methyl-
##JCAMP-DX=4.24
##DATA TYPE=INFRARED SPECTRUM
##ORIGIN=Sadtler Research Labs Under US-EPA Contract
##OWNER=NIST Standard Reference Data Program
##CAS REGISTRY NO=77-74-7
##MOLFORM=C 6 H 14 O
##XUNITS=1/CM
##YUNITS=ABSORBANCE
##XFACTOR=1.0
##YFACTOR=0.000128763
##DELTAX=4.0
##FIRSTX=450.0
##LASTX=3966.0
##FIRSTY=0.000000
##MAXX=3966
##MINX=450
##MAXY=1.28763
##MINY=0
##NPOINTS=880
##XYDATA=(X++(Y..Y))
450.0 0 53 117 106 110 122 76 143 181 105
490.0 116 61 30 22 41 40 36 77 92 95
530.0 100 89 100 86 95 98 96 96 102 102
570.0 69 51 68 73 68 77 79 82 81 80
610.0 78 70 76 81 75 67 75 75 81 70
650.0 68 63 59 55 70 60 53 56 66 56
690.0 71 77 116 129 139 117 121 118 113 75
730.0 65 43 42 33 31 43 36 41 61 85
770.0 89 82 119 100 133 136 120 121 117 89
810.0 71 61 61 59 36 34 45 43 48 44
850.0 60 68 64 115 170 205 285 379 520 687
890.0 904 1177 1461 1667 1935 2119 1920 1627 1361 1015
930.0 705 477 355 315 338 408 535 707 911 1141
970.0 1354 1475 1599 1615 1471 1351 1267 1127 1007 871
1010.0 764 664 568 496 463 464 503 570 612 673
1050.0 737 783 794 762 716 650 573 496 442 406
1090.0 398 419 458 519 611 726 858 1008 1162 1302
1130.0 1409 1489 1533 1566 1609 1676 1769 1874 1987 2074
1170.0 2063 2010 1930 1798 1646 1465 1290 1124 963 832
1210.0 723 654 604 580 569 581 607 648 698 753
1250.0 812 854 890 899 900 887 870 854 840 834
1290.0 831 821 816 794 757 723 699 682 675 675
1330.0 676 693 718 741 778 828 890 992 1144 1329
1370.0 1506 1711 1911 1902 1835 1636 1341 1060 775 569
1410.0 439 372 341 339 343 378 441 544 706 909
1450.0 1148 1388 1622 1791 1846 1648 1446 1223 938 681
1490.0 478 345 251 196 166 140 124 116 106 100
1530.0 95 95 92 96 94 102 101 103 108 98
1570.0 97 96 94 86 79 78 73 73 65 64
1610.0 61 63 59 56 52 51 52 55 51 55
1650.0 51 61 54 55 55 53 54 59 55 62
1690.0 56 55 54 52 49 43 40 41 42 38
1730.0 40 35 41 36 33 32 40 34 37 35
1770.0 39 37 38 36 34 34 37 38 37 38
1810.0 36 37 36 35 29 30 27 24 22 24
1850.0 19 22 23 23 21 26 27 28 29 27
1890.0 28 27 27 25 24 24 25 27 22 27
1930.0 24 23 22 21 23 22 21 18 19 19
1970.0 19 17 20 18 17 16 15 13 13 12
2010.0 15 15 15 16 16 18 20 19 17 21
2050.0 22 23 25 25 27 30 29 29 31 27
2090.0 27 25 22 21 23 25 24 22 24 23
2130.0 26 24 28 28 28 28 30 29 32 30
2170.0 29 29 28 27 24 23 22 18 21 21
2210.0 17 15 20 19 20 17 22 21 22 26
2250.0 31 28 27 29 30 32 33 31 31 37
2290.0 41 43 40 40 42 47 43 38 42 41
2330.0 40 35 37 24 40 35 32 27 28 38
2370.0 35 42 43 52 47 45 44 42 41 43
2410.0 41 44 42 42 36 41 39 44 41 39
2450.0 37 39 35 37 34 37 33 34 33 33
2490.0 35 35 36 35 35 34 37 36 32 34
2530.0 34 31 33 33 33 38 37 36 39 37
2570.0 40 44 44 43 46 49 50 53 55 54
2610.0 54 54 53 54 54 56 60 59 66 70
2650.0 68 66 65 73 70 75 77 78 80 76
2690.0 78 82 83 84 85 92 98 105 120 131
2730.0 136 146 164 171 175 171 174 171 164 168
2770.0 165 166 171 172 183 195 199 212 225 246
2810.0 264 274 297 321 350 384 433 498 601 733
2850.0 895 1086 1277 1470 1657 1807 1999 2312 2689 2958
2890.0 3197 3348 3313 3275 3217 3145 3267 3589 4086 4627
2930.0 5201 5648 5907 5951 5797 5624 5569 5779 6523 7555
2970.0 8474 9643 10000 9349 8217 6513 4735 3262 2144 1393
3010.0 925 654 515 427 379 346 319 303 276 271
3050.0 264 261 269 271 269 263 260 263 262 245
3090.0 240 224 208 200 187 179 156 150 141 127
3130.0 127 119 124 121 122 122 122 124 128 134
3170.0 133 134 143 128 121 116 119 107 105 97
3210.0 92 84 84 73 70 53 54 50 45 32
3250.0 41 42 39 40 34 39 55 44 40 39
3290.0 28 25 28 34 32 32 28 37 33 34
3330.0 31 37 47 31 34 45 38 45 40 29
3370.0 45 47 47 52 46 47 42 37 49 64
3410.0 41 52 49 53 46 42 53 46 46 47
3450.0 43 38 41 34 38 37 39 33 29 23
3490.0 22 27 32 29 31 27 31 30 26 16
3530.0 20 22 34 27 14 26 23 21 19 21
3570.0 24 25 40 33 41 51 34 39 43 53
3610.0 50 90 129 191 271 380 474 568 645 637
3650.0 557 471 368 265 180 121 67 53 52 46
3690.0 37 31 34 31 28 23 34 25 32 23
3730.0 16 23 29 35 22 26 24 26 38 44
3770.0 36 46 36 37 39 24 27 62 30 32
3810.0 47 24 46 33 13 32 62 10 13 28
3850.0 32 30 21 24 30 30 54 61 51 52
3890.0 63 29 32 36 44 21 63 50 55 30
3930.0 33 69 56 54 87 65 69 74 34 52
##END=
