##TITLE=Acetyl triethyl citrate
##JCAMP-DX=4.24
##DATA TYPE=INFRARED SPECTRUM
##ORIGIN=Sadtler Research Labs Under US-EPA Contract
##OWNER=NIST Standard Reference Data Program
##CAS REGISTRY NO=77-89-4
##MOLFORM=C 14 H 22 O 8
##XUNITS=1/CM
##YUNITS=ABSORBANCE
##XFACTOR=1.0
##YFACTOR=0.000135660
##DELTAX=4.0
##FIRSTX=450.0
##LASTX=3966.0
##FIRSTY=0.002985
##MAXX=3966
##MINX=450
##MAXY=1.3566
##MINY=0
##NPOINTS=880
##XYDATA=(X++(Y..Y))
450.0 22 156 249 216 147 176 162 202 145 196
490.0 177 194 181 193 176 148 160 145 129 134
530.0 133 122 129 115 100 100 106 100 89 96
570.0 101 90 102 101 94 97 133 219 211 191
610.0 152 138 118 106 106 114 125 140 169 195
650.0 226 221 209 152 134 117 74 57 34 28
690.0 6 12 9 13 1 15 17 9 23 12
730.0 23 17 35 30 47 51 69 75 93 125
770.0 150 181 215 234 230 241 220 199 190 170
810.0 168 155 161 155 162 157 175 192 200 235
850.0 260 303 347 380 367 313 256 209 183 144
890.0 136 120 127 126 155 169 195 226 267 326
930.0 372 416 433 449 459 474 461 429 362 299
970.0 258 241 254 267 305 350 412 502 627 807
1010.0 1046 1370 1766 2236 2762 3200 3454 3374 3157 2891
1050.0 2669 2449 2273 2164 2077 1994 1866 1736 1629 1602
1090.0 1642 1761 1873 1904 1844 1754 1713 1710 1774 1892
1130.0 2079 2281 2482 2675 2846 3084 3396 3907 4500 5189
1170.0 5830 6390 6824 6996 7089 6815 6567 6205 6023 5792
1210.0 5702 5715 5753 5846 5794 5664 5188 4736 4226 3804
1250.0 3428 3197 3092 3066 3134 3181 3237 3185 3109 2895
1290.0 2612 2309 2079 1922 1781 1649 1532 1473 1454 1458
1330.0 1467 1514 1603 1722 1778 1724 1542 1415 1508 2006
1370.0 2662 2930 2475 1801 1311 1063 956 919 850 811
1410.0 793 810 861 884 892 877 861 807 731 673
1450.0 638 610 604 589 626 674 676 612 481 385
1490.0 310 241 211 181 188 174 146 155 150 136
1530.0 119 120 121 140 114 98 103 126 108 84
1570.0 94 91 88 89 73 86 75 92 72 86
1610.0 81 85 96 89 105 83 115 114 121 122
1650.0 169 162 148 153 159 177 192 214 233 289
1690.0 286 335 388 457 534 583 708 835 1033 1200
1730.0 1632 2070 2891 3862 5562 7014 8711 10000 9431 8976
1770.0 7453 5785 3868 2906 2005 1521 1085 910 690 589
1810.0 500 425 360 313 297 247 236 197 203 169
1850.0 163 141 131 127 122 131 106 116 100 106
1890.0 100 101 90 82 85 73 76 63 72 54
1930.0 54 51 50 52 48 48 41 47 41 46
1970.0 38 43 41 38 39 39 42 33 41 35
2010.0 39 41 46 47 46 51 47 54 50 54
2050.0 47 52 50 47 48 45 46 41 45 42
2090.0 43 38 40 39 34 35 32 34 27 34
2130.0 28 29 25 24 22 20 22 17 18 15
2170.0 18 14 15 15 12 11 8 14 7 10
2210.0 9 12 8 10 11 13 15 12 14 9
2250.0 15 11 13 13 14 14 12 15 15 18
2290.0 17 20 18 22 24 27 27 24 33 19
2330.0 30 26 25 17 24 29 24 27 19 21
2370.0 11 23 22 22 19 16 17 14 19 18
2410.0 18 16 18 14 15 16 14 14 12 13
2450.0 12 14 11 14 12 12 13 10 10 9
2490.0 8 7 8 4 5 7 4 3 1 2
2530.0 1 4 1 5 2 3 6 4 4 2
2570.0 5 3 4 1 3 3 5 5 3 6
2610.0 4 7 7 8 6 4 3 1 3 2
2650.0 1 2 2 3 2 2 3 4 4 6
2690.0 5 5 3 7 6 10 9 11 15 16
2730.0 18 18 20 19 21 23 24 28 30 34
2770.0 38 44 45 45 43 43 40 42 42 45
2810.0 51 49 58 64 68 73 74 76 79 88
2850.0 96 110 123 139 158 184 217 265 331 379
2890.0 387 369 369 399 447 504 547 551 530 528
2930.0 573 687 876 1116 1266 1200 1032 932 951 1043
2970.0 1165 1304 1518 1902 2270 2218 1817 1455 1218 1023
3010.0 845 695 562 452 369 307 261 221 193 166
3050.0 149 134 122 112 102 97 93 91 83 80
3090.0 74 70 68 69 66 63 59 60 58 55
3130.0 54 51 49 47 47 44 42 40 38 38
3170.0 33 34 31 33 31 29 27 26 26 25
3210.0 19 21 24 21 21 21 19 16 15 15
3250.0 14 15 11 13 11 10 10 13 10 9
3290.0 11 11 9 6 11 9 10 9 8 10
3330.0 10 9 10 12 10 12 9 11 13 12
3370.0 13 14 11 13 15 14 14 16 17 17
3410.0 18 17 11 17 16 24 22 26 16 20
3450.0 28 27 37 39 53 52 59 69 80 80
3490.0 86 86 85 85 73 70 67 62 57 54
3530.0 57 56 62 65 63 61 65 69 67 64
3570.0 59 57 55 56 45 39 37 37 42 34
3610.0 31 28 30 26 16 21 22 9 11 6
3650.0 17 9 4 16 0 12 5 15 4 7
3690.0 11 14 4 7 10 6 12 8 8 5
3730.0 13 15 17 11 19 14 18 10 9 11
3770.0 16 12 13 15 12 12 9 19 14 19
3810.0 7 15 13 28 16 19 20 24 18 19
3850.0 16 25 21 17 17 19 19 13 14 21
3890.0 18 15 10 24 8 17 13 21 20 13
3930.0 24 18 16 21 13 17 15 16 20 16
##END=
