##TITLE=1,3-Propanediol, 2-(hydroxymethyl)-2-methyl-
##JCAMP-DX=4.24
##DATA TYPE=INFRARED SPECTRUM
##ORIGIN=Sadtler Research Labs Under US-EPA Contract
##OWNER=NIST Standard Reference Data Program
##CAS REGISTRY NO=77-85-0
##MOLFORM=C 5 H 12 O 3
##XUNITS=1/CM
##YUNITS=ABSORBANCE
##XFACTOR=1.0
##YFACTOR=0.000040225
##DELTAX=4.0
##FIRSTX=450.0
##LASTX=3966.0
##FIRSTY=0.051126
##MAXX=3966
##MINX=450
##MAXY=0.40225
##MINY=0
##NPOINTS=880
##XYDATA=(X++(Y..Y))
450.0 1271 1272 1448 1292 1203 1221 1228 1071 1115 1038
490.0 970 984 921 908 778 755 742 751 573 501
530.0 481 419 391 345 380 346 372 347 393 398
570.0 492 529 524 554 543 524 544 535 522 544
610.0 456 412 303 239 179 156 111 95 101 74
650.0 79 85 71 57 103 74 55 52 34 58
690.0 57 44 37 45 30 41 86 62 28 40
730.0 62 67 81 86 129 130 153 125 106 98
770.0 97 81 109 93 88 81 101 93 99 105
810.0 105 103 89 98 106 119 116 124 147 178
850.0 208 252 315 367 423 474 521 543 552 580
890.0 595 600 629 668 685 707 705 678 653 645
930.0 661 631 621 655 720 812 911 1024 1124 1257
970.0 1306 1369 1511 1643 1831 2043 2324 2677 3110 3739
1010.0 4481 5361 6276 7250 8107 8898 9483 9837 10000 9918
1050.0 9532 8813 7839 6743 5535 4316 3381 2606 2034 1732
1090.0 1556 1540 1574 1664 1737 1813 1825 1792 1731 1650
1130.0 1543 1505 1515 1543 1566 1607 1632 1650 1655 1611
1170.0 1587 1541 1489 1393 1316 1220 1185 1179 1177 1198
1210.0 1155 1183 1173 1181 1174 1170 1185 1198 1211 1217
1250.0 1234 1248 1270 1282 1295 1289 1278 1261 1250 1240
1290.0 1222 1214 1199 1176 1143 1105 1077 1040 1022 1010
1330.0 1003 1004 1012 1023 1044 1074 1119 1180 1245 1300
1370.0 1368 1423 1461 1473 1488 1497 1528 1574 1661 1754
1410.0 1862 1900 1927 1861 1716 1497 1316 1163 1036 1008
1450.0 1045 1203 1362 1493 1665 1696 1605 1525 1293 1049
1490.0 814 623 464 326 290 205 189 146 155 135
1530.0 121 121 111 98 95 120 89 101 107 91
1570.0 88 100 102 107 101 101 99 119 108 115
1610.0 103 96 95 93 87 92 93 82 92 80
1650.0 61 94 66 54 54 41 50 40 36 49
1690.0 55 67 93 88 101 94 117 99 107 110
1730.0 108 111 98 80 72 82 75 77 61 67
1770.0 44 45 33 43 42 46 16 22 27 26
1810.0 14 15 29 12 25 0 23 9 21 13
1850.0 20 22 23 27 22 16 20 29 31 24
1890.0 19 24 28 19 26 19 23 27 16 32
1930.0 32 38 40 38 41 53 63 67 73 76
1970.0 80 82 84 88 91 87 95 84 85 75
2010.0 70 64 61 71 76 83 87 95 104 114
2050.0 123 126 133 129 140 143 143 135 123 109
2090.0 96 90 82 72 63 58 54 50 41 42
2130.0 36 30 29 21 19 19 27 21 22 22
2170.0 24 19 21 19 20 18 18 24 22 23
2210.0 28 29 27 27 31 34 41 40 47 45
2250.0 44 48 52 47 45 43 52 59 63 65
2290.0 69 69 66 68 70 56 58 62 61 51
2330.0 65 54 57 56 67 80 77 73 68 52
2370.0 43 56 67 72 54 50 51 46 51 46
2410.0 49 53 54 59 50 56 56 56 48 55
2450.0 48 46 48 52 51 51 43 43 46 49
2490.0 51 40 45 44 39 39 50 43 42 42
2530.0 40 38 41 41 44 44 44 40 42 43
2570.0 46 43 43 42 43 41 49 48 56 56
2610.0 58 57 66 70 72 80 73 81 84 96
2650.0 102 104 113 122 134 150 152 161 178 170
2690.0 171 180 187 197 208 223 234 252 273 290
2730.0 317 344 362 377 397 422 438 445 471 484
2770.0 501 510 529 528 546 556 577 602 627 650
2810.0 686 727 780 843 904 982 1089 1199 1363 1546
2850.0 1763 2025 2340 2706 3118 3598 4094 4518 4825 4991
2890.0 4896 4605 4288 4038 3889 3895 4048 4330 4635 4907
2930.0 5153 5288 5337 5305 5189 5041 4911 4745 4553 4360
2970.0 4000 3465 2998 2485 1935 1466 1092 824 608 462
3010.0 376 307 265 231 212 184 184 168 166 154
3050.0 150 144 141 129 123 119 114 119 103 109
3090.0 107 98 101 93 87 82 80 77 83 77
3130.0 76 76 61 67 64 64 63 64 60 66
3170.0 63 62 62 60 56 58 57 50 48 46
3210.0 40 39 38 43 38 30 35 41 39 39
3250.0 39 36 39 47 41 45 47 35 44 33
3290.0 34 24 31 45 34 35 25 31 37 29
3330.0 44 45 34 46 37 34 40 40 38 46
3370.0 50 50 44 43 45 47 63 54 64 74
3410.0 69 78 89 89 94 105 119 123 122 108
3450.0 119 126 118 113 112 118 107 103 97 102
3490.0 106 111 116 114 126 149 162 180 205 222
3530.0 274 308 388 478 574 707 833 967 1113 1207
3570.0 1342 1435 1555 1697 1866 2069 2193 2269 2299 2222
3610.0 2038 1771 1519 1287 1100 975 905 887 895 1001
3650.0 1116 1329 1624 1935 2231 2348 2415 2297 2002 1627
3690.0 1224 864 616 435 331 285 236 232 186 207
3730.0 174 171 142 141 121 107 97 91 95 90
3770.0 76 88 62 83 82 86 81 51 73 55
3810.0 46 30 40 45 15 62 44 38 41 41
3850.0 38 74 45 45 28 42 33 45 44 18
3890.0 40 43 71 83 51 51 78 70 69 47
3930.0 71 47 46 17 40 15 46 67 76 84
##END=
