##TITLE=Tributyl acetylcitrate
##JCAMP-DX=4.24
##DATA TYPE=INFRARED SPECTRUM
##ORIGIN=Sadtler Research Labs Under US-EPA Contract
##OWNER=NIST Standard Reference Data Program
##CAS REGISTRY NO=77-90-7
##MOLFORM=C 20 H 34 O 8
##XUNITS=1/CM
##YUNITS=ABSORBANCE
##XFACTOR=1.0
##YFACTOR=0.000129984
##DELTAX=4.0
##FIRSTX=450.0
##LASTX=3966.0
##FIRSTY=0.018588
##MAXX=3966
##MINX=450
##MAXY=1.29984
##MINY=0
##NPOINTS=880
##XYDATA=(X++(Y..Y))
450.0 143 122 153 158 60 121 97 124 116 157
490.0 174 122 172 135 164 160 182 189 158 166
530.0 138 140 119 107 89 80 87 88 107 72
570.0 67 69 78 93 86 152 143 145 208 183
610.0 127 129 89 89 91 114 106 124 157 162
650.0 211 222 222 169 154 124 102 66 53 38
690.0 10 22 3 14 0 16 14 17 26 35
730.0 57 58 89 103 111 104 115 116 110 136
770.0 142 165 179 210 221 230 221 210 196 189
810.0 189 177 186 184 209 209 231 237 246 231
850.0 209 191 157 167 160 164 154 165 164 169
890.0 188 189 202 210 227 225 228 239 261 289
930.0 336 408 496 617 721 849 968 1072 1148 1162
970.0 1119 1034 956 909 917 939 981 1088 1261 1496
1010.0 1723 1898 1974 1904 1767 1651 1657 1741 1875 1974
1050.0 2054 2159 2336 2530 2592 2512 2276 1973 1698 1522
1090.0 1406 1335 1292 1289 1322 1394 1519 1663 1818 1991
1130.0 2212 2439 2661 2886 3091 3357 3667 4182 4810 5602
1170.0 6363 6966 7259 7096 6903 6457 6169 5845 5727 5590
1210.0 5565 5643 5733 5878 5850 5739 5296 4890 4395 3971
1250.0 3574 3337 3234 3221 3306 3379 3496 3497 3479 3268
1290.0 2913 2482 2103 1836 1654 1533 1454 1434 1442 1481
1330.0 1513 1557 1639 1750 1868 1950 1958 1904 1895 1945
1370.0 2019 1918 1602 1366 1304 1321 1223 1034 855 762
1410.0 735 762 817 841 854 857 877 856 799 724
1450.0 732 772 868 917 940 934 846 693 519 396
1490.0 327 252 232 199 196 189 159 160 159 144
1530.0 130 127 127 135 119 98 108 111 101 82
1570.0 92 81 81 82 69 77 70 83 66 82
1610.0 77 78 91 84 99 81 111 110 118 119
1650.0 164 152 146 147 157 177 183 217 227 282
1690.0 283 332 382 460 539 596 719 839 1042 1215
1730.0 1667 2137 3037 4159 6085 7550 9053 10000 9265 8674
1770.0 7020 5273 3596 2775 1948 1493 1078 914 702 597
1810.0 506 428 360 309 294 241 232 192 196 163
1850.0 158 137 124 119 110 115 87 96 79 84
1890.0 77 79 73 65 70 60 65 52 65 47
1930.0 48 46 44 47 42 45 35 44 38 45
1970.0 37 42 39 35 38 38 41 34 40 39
2010.0 41 41 47 47 44 49 44 49 45 50
2050.0 42 44 42 42 44 40 42 37 41 38
2090.0 41 34 36 36 31 35 31 33 27 32
2130.0 27 28 26 26 25 22 25 21 25 22
2170.0 25 20 22 20 17 18 16 17 13 14
2210.0 14 14 11 12 13 11 12 10 15 9
2250.0 13 11 11 11 12 12 10 16 13 15
2290.0 17 20 20 21 21 20 24 14 22 12
2330.0 15 18 14 15 19 21 12 16 10 9
2370.0 4 16 14 20 20 17 18 15 18 14
2410.0 16 13 15 13 11 13 13 13 10 11
2450.0 12 10 10 10 7 6 8 3 8 6
2490.0 3 3 4 2 1 3 2 2 0 1
2530.0 1 1 2 1 1 0 1 3 3 4
2570.0 9 8 9 10 11 11 10 13 11 13
2610.0 12 11 11 10 12 12 10 11 11 11
2650.0 12 11 15 16 18 19 23 25 24 25
2690.0 26 27 26 30 31 33 35 35 40 41
2730.0 45 48 54 59 70 73 73 74 73 76
2770.0 74 75 79 79 80 85 87 92 100 109
2810.0 118 128 140 153 167 184 207 239 276 337
2850.0 418 519 602 652 727 874 1099 1339 1532 1624
2890.0 1541 1374 1288 1300 1353 1455 1618 1789 1874 1920
2930.0 2036 2270 2601 2907 3098 3054 3019 3246 3802 4476
2970.0 4826 4539 3612 2611 1967 1551 1238 985 779 636
3010.0 526 454 393 351 318 287 262 236 213 188
3050.0 169 151 139 128 120 114 104 104 97 95
3090.0 88 84 78 75 73 70 64 59 58 54
3130.0 51 49 47 45 47 43 43 38 38 38
3170.0 34 31 31 31 26 30 31 28 27 23
3210.0 22 18 22 14 12 15 12 10 7 6
3250.0 8 7 7 11 6 8 7 8 7 6
3290.0 9 7 7 6 9 6 8 9 6 9
3330.0 8 9 10 11 10 10 9 10 9 10
3370.0 13 6 9 6 10 10 10 14 15 10
3410.0 11 12 8 15 17 21 17 22 19 18
3450.0 20 23 31 31 44 46 50 58 67 72
3490.0 73 70 73 64 56 51 49 39 39 34
3530.0 27 32 33 36 30 28 31 36 40 30
3570.0 36 35 36 41 28 28 28 28 26 25
3610.0 19 18 14 9 6 7 8 11 8 3
3650.0 5 10 7 7 4 7 2 10 3 6
3690.0 12 14 10 11 12 4 9 3 6 8
3730.0 7 5 6 12 11 18 5 8 6 5
3770.0 7 11 0 6 12 11 15 10 9 10
3810.0 8 7 6 9 4 8 3 9 6 18
3850.0 12 19 15 10 11 16 14 8 10 8
3890.0 11 13 11 4 12 7 4 3 11 3
3930.0 1 9 9 10 8 3 4 4 2 10
##END=
