##TITLE=Butyl citrate
##JCAMP-DX=4.24
##DATA TYPE=INFRARED SPECTRUM
##ORIGIN=Sadtler Research Labs Under US-EPA Contract
##OWNER=NIST Standard Reference Data Program
##CAS REGISTRY NO=77-94-1
##MOLFORM=C 18 H 32 O 7
##XUNITS=1/CM
##YUNITS=ABSORBANCE
##XFACTOR=1.0
##YFACTOR=0.000094727
##DELTAX=4.0
##FIRSTX=450.0
##LASTX=3966.0
##FIRSTY=0.027565
##MAXX=3966
##MINX=450
##MAXY=0.94727
##MINY=0
##NPOINTS=880
##XYDATA=(X++(Y..Y))
450.0 291 304 325 307 310 328 333 346 342 325
490.0 301 327 345 427 417 328 264 247 242 288
530.0 249 288 235 239 232 260 220 183 226 238
570.0 270 254 215 224 225 233 197 208 190 232
610.0 243 178 271 199 178 170 138 182 109 130
650.0 127 166 179 128 197 32 34 48 107 13
690.0 27 47 79 51 59 54 60 72 42 77
730.0 128 102 123 114 137 163 130 151 87 142
770.0 121 163 189 237 215 243 207 206 242 272
810.0 210 190 263 178 209 218 298 264 311 197
850.0 284 202 143 144 173 156 179 200 192 236
890.0 251 255 302 273 291 280 322 300 300 370
930.0 419 494 587 739 901 1054 1199 1277 1306 1288
970.0 1180 1093 972 985 950 953 991 1124 1273 1434
1010.0 1579 1585 1530 1431 1214 1082 1004 975 1034 1117
1050.0 1313 1535 1917 2172 2314 2283 2153 1963 1822 1737
1090.0 1713 1725 1776 1833 1903 2013 2114 2112 2127 2156
1130.0 2182 2359 2517 2771 3141 3615 4204 4912 5721 6779
1170.0 7639 8489 8980 9151 9110 8654 8227 7686 7095 6589
1210.0 5958 5410 5040 4588 4468 4243 4087 4075 3997 3896
1250.0 3815 3631 3571 3385 3149 3037 2948 2786 2658 2477
1290.0 2374 2273 2247 2196 2257 2239 2281 2335 2403 2525
1330.0 2628 2711 2764 2769 2706 2536 2240 1962 1658 1464
1370.0 1302 1274 1253 1365 1569 1687 1665 1497 1342 1260
1410.0 1200 1154 1130 1046 1023 955 959 886 828 748
1450.0 825 905 1074 1085 1207 1137 1078 826 604 449
1490.0 363 273 241 203 247 177 137 171 149 156
1530.0 112 156 100 168 82 79 90 176 109 86
1570.0 84 69 72 72 38 42 57 35 46 51
1610.0 52 39 106 57 90 49 115 89 85 107
1650.0 109 162 106 113 136 179 196 203 261 342
1690.0 332 402 515 659 722 901 1101 1472 1854 2385
1730.0 2915 3613 4486 5976 7744 9450 10000 9409 7933 6066
1770.0 4346 3066 2142 1585 1186 911 745 570 476 367
1810.0 340 250 227 192 175 124 143 115 122 90
1850.0 98 58 69 58 60 67 52 47 54 38
1890.0 36 54 37 50 34 66 33 51 29 41
1930.0 21 47 23 41 23 44 28 26 10 38
1970.0 24 37 26 31 34 25 23 29 43 25
2010.0 49 29 57 25 52 37 52 38 69 33
2050.0 57 24 68 20 44 50 52 44 45 41
2090.0 40 40 27 52 30 49 35 55 14 39
2130.0 33 45 18 56 19 44 25 49 26 28
2170.0 38 30 37 28 35 36 31 24 49 13
2210.0 47 20 48 26 41 27 37 23 55 28
2250.0 38 33 44 38 39 46 40 49 46 48
2290.0 49 62 32 66 64 88 60 112 79 95
2330.0 75 105 81 115 114 81 73 112 119 124
2370.0 97 95 75 66 68 40 63 40 46 37
2410.0 58 27 73 38 47 14 56 45 41 28
2450.0 43 29 44 38 42 34 40 49 30 52
2490.0 31 49 39 44 12 41 14 56 17 45
2530.0 23 49 20 44 40 42 37 41 43 41
2570.0 40 46 61 49 59 35 64 50 56 40
2610.0 52 46 61 35 49 39 57 46 55 57
2650.0 50 56 57 46 51 73 68 83 69 72
2690.0 60 101 60 80 65 74 58 90 63 88
2730.0 88 95 75 117 126 125 126 126 116 121
2770.0 125 120 130 125 157 135 163 144 174 154
2810.0 182 177 220 193 262 256 295 318 385 443
2850.0 571 692 788 866 965 1153 1415 1743 1968 2106
2890.0 1983 1799 1644 1663 1741 1864 2049 2284 2387 2483
2930.0 2639 2963 3365 3787 3991 3947 3873 4091 4774 5636
2970.0 6139 5830 4707 3438 2578 2015 1646 1290 1051 792
3010.0 668 533 471 410 374 301 307 257 244 199
3050.0 194 189 161 159 131 121 130 124 110 117
3090.0 94 108 103 116 71 78 56 79 53 74
3130.0 54 74 60 69 58 56 59 57 77 62
3170.0 76 57 81 35 49 39 51 53 70 48
3210.0 47 41 41 29 36 39 42 29 36 26
3250.0 33 30 36 35 28 47 36 36 30 29
3290.0 39 31 12 42 34 40 20 28 17 35
3330.0 51 35 12 31 30 34 48 43 42 42
3370.0 61 45 56 56 57 48 69 56 78 64
3410.0 79 75 94 77 122 157 125 152 156 184
3450.0 193 198 207 206 247 253 248 294 266 276
3490.0 271 284 255 283 294 316 312 333 344 362
3530.0 419 424 450 465 508 514 512 495 483 438
3570.0 433 374 349 301 288 278 251 256 261 219
3610.0 238 211 183 174 136 128 111 89 57 35
3650.0 77 46 52 41 36 49 46 65 28 18
3690.0 47 28 10 14 1 15 19 12 3 0
3730.0 1 16 50 20 40 40 43 1 4 1
3770.0 1 1 1 1 1 1 1 1 7 2
3810.0 1 1 1 1 1 1 1 1 1 1
3850.0 1 4 1 1 1 1 1 1 1 1
3890.0 1 1 1 1 1 1 1 1 1 1
3930.0 1 1 1 1 1 1 1 1 1 1
##END=
