##TITLE=Ethyl citrate
##JCAMP-DX=4.24
##DATA TYPE=INFRARED SPECTRUM
##ORIGIN=Sadtler Research Labs Under US-EPA Contract
##OWNER=NIST Standard Reference Data Program
##CAS REGISTRY NO=77-93-0
##MOLFORM=C 12 H 20 O 7
##XUNITS=1/CM
##YUNITS=ABSORBANCE
##XFACTOR=1.0
##YFACTOR=0.000133340
##DELTAX=4.0
##FIRSTX=450.0
##LASTX=3966.0
##FIRSTY=0.030402
##MAXX=3966
##MINX=450
##MAXY=1.3334
##MINY=0
##NPOINTS=880
##XYDATA=(X++(Y..Y))
450.0 228 168 82 141 115 51 113 66 120 55
490.0 103 18 57 38 63 25 16 84 29 64
530.0 41 88 51 75 74 79 85 75 95 63
570.0 108 95 95 82 97 77 82 88 79 104
610.0 76 119 98 96 89 90 97 88 93 85
650.0 105 96 129 107 109 77 52 31 18 20
690.0 2 21 10 23 13 25 27 24 34 39
730.0 49 28 49 36 42 50 64 69 75 104
770.0 122 159 172 204 213 202 211 202 199 167
810.0 204 190 192 176 192 194 211 238 250 289
850.0 316 369 407 443 421 373 297 238 182 147
890.0 145 144 170 183 235 267 307 334 358 390
930.0 409 441 441 438 404 355 290 239 206 177
970.0 177 170 191 201 245 285 352 442 569 755
1010.0 997 1342 1785 2321 2886 3239 3278 2942 2529 2176
1050.0 1962 1830 1766 1739 1714 1692 1661 1653 1667 1759
1090.0 1917 2147 2381 2514 2527 2437 2342 2214 2115 2068
1130.0 2101 2179 2304 2507 2788 3206 3741 4448 5199 6014
1170.0 6779 7505 8152 8499 8891 8697 8529 7983 7577 6950
1210.0 6376 5849 5330 4928 4561 4329 4083 3941 3790 3693
1250.0 3569 3446 3311 3140 2990 2813 2662 2501 2399 2301
1290.0 2236 2205 2228 2279 2318 2338 2324 2347 2379 2460
1330.0 2538 2619 2696 2641 2434 2043 1640 1376 1367 1710
1370.0 2260 2598 2392 1941 1579 1406 1342 1337 1295 1267
1410.0 1237 1197 1192 1129 1090 1001 948 840 758 703
1450.0 693 678 680 693 744 811 815 737 579 463
1490.0 361 269 232 190 188 177 147 144 143 128
1530.0 115 109 118 126 109 91 101 107 98 78
1570.0 90 75 81 77 66 73 70 78 65 81
1610.0 75 75 91 80 103 74 113 105 115 111
1650.0 157 146 156 155 169 197 206 250 269 340
1690.0 355 425 496 619 734 848 1070 1353 1786 2194
1730.0 2895 3386 4350 5402 7334 8461 9823 10000 8652 6999
1770.0 5138 3578 2404 1812 1258 990 720 614 466 397
1810.0 334 285 244 209 200 157 155 123 131 111
1850.0 109 96 89 91 89 101 76 89 77 83
1890.0 79 80 71 63 66 53 56 49 57 43
1930.0 42 42 40 44 39 42 31 38 32 40
1970.0 31 32 29 26 27 29 32 22 30 25
2010.0 29 29 36 34 33 40 34 42 40 45
2050.0 41 43 40 40 42 40 42 34 41 38
2090.0 41 33 35 30 28 29 26 25 21 23
2130.0 20 19 16 15 15 10 11 6 9 5
2170.0 8 3 3 3 2 2 1 5 1 4
2210.0 3 5 3 6 7 6 8 7 10 9
2250.0 10 9 9 11 11 10 10 13 8 9
2290.0 6 7 4 5 7 3 7 1 8 4
2330.0 3 3 10 8 11 11 1 9 5 5
2370.0 5 14 16 17 19 17 18 17 21 20
2410.0 20 17 20 17 17 17 15 14 9 11
2450.0 9 8 10 11 10 10 9 8 9 8
2490.0 8 6 6 4 2 6 4 5 1 3
2530.0 2 3 3 3 1 3 4 4 5 3
2570.0 3 3 6 5 3 2 4 5 6 7
2610.0 6 8 7 5 3 4 3 1 2 1
2650.0 4 2 3 3 6 6 5 7 5 8
2690.0 9 9 6 9 9 10 13 11 16 16
2730.0 22 22 25 25 27 27 27 30 35 38
2770.0 42 48 50 51 50 51 50 50 52 54
2810.0 59 64 72 74 81 86 89 92 95 103
2850.0 109 127 141 160 183 213 256 316 391 453
2890.0 469 453 451 484 545 609 664 675 660 666
2930.0 726 866 1099 1382 1558 1488 1282 1132 1127 1224
2970.0 1380 1571 1863 2346 2815 2823 2374 1911 1587 1326
3010.0 1089 880 697 551 437 353 289 243 207 178
3050.0 155 138 124 110 103 94 89 85 81 77
3090.0 71 67 66 68 65 64 61 61 57 56
3130.0 56 55 58 53 50 49 48 48 48 44
3170.0 42 42 39 36 35 33 30 35 31 30
3210.0 28 25 25 26 24 20 21 22 19 21
3250.0 17 18 13 11 9 15 11 13 13 14
3290.0 17 15 14 19 19 14 18 16 18 21
3330.0 15 21 19 25 21 25 22 24 26 26
3370.0 31 27 33 36 39 42 47 49 50 52
3410.0 60 67 65 77 86 99 105 115 122 136
3450.0 150 167 178 188 204 213 218 231 233 242
3490.0 248 252 254 258 257 274 285 296 320 334
3530.0 365 397 419 456 471 488 492 480 451 410
3570.0 378 345 308 283 246 238 222 219 213 207
3610.0 195 174 164 145 119 97 70 69 39 31
3650.0 22 17 27 10 20 3 16 5 10 7
3690.0 2 9 5 4 2 1 4 2 1 1
3730.0 2 3 3 9 0 11 1 6 6 7
3770.0 3 7 8 2 4 3 11 2 8 1
3810.0 19 6 8 10 9 15 3 4 6 7
3850.0 2 8 9 11 11 1 8 6 10 3
3890.0 4 6 4 1 5 1 7 7 5 3
3930.0 2 7 1 1 2 3 1 5 5 14
##END=
