##TITLE=9-Octadecene-1,12-diol
##JCAMP-DX=4.24
##DATA TYPE=INFRARED SPECTRUM
##ORIGIN=Sadtler Research Labs Under US-EPA Contract
##OWNER=NIST Standard Reference Data Program
##CAS REGISTRY NO=7706-08-3
##MOLFORM=C 18 H 36 O 2
##XUNITS=1/CM
##YUNITS=ABSORBANCE
##XFACTOR=1.0
##YFACTOR=0.000045639
##DELTAX=4.0
##FIRSTX=450.0
##LASTX=3966.0
##FIRSTY=0.000000
##MAXX=3966
##MINX=450
##MAXY=0.45639
##MINY=0
##NPOINTS=880
##XYDATA=(X++(Y..Y))
450.0 0 663 805 836 656 830 732 833 687 900
490.0 776 808 718 752 855 729 942 700 807 714
530.0 870 845 742 819 792 816 704 839 713 752
570.0 849 807 682 723 893 548 815 758 868 742
610.0 872 771 779 741 756 882 844 786 733 794
650.0 761 806 802 723 741 709 797 769 870 848
690.0 872 873 929 972 943 1002 974 1032 877 1051
730.0 965 1062 1004 900 903 866 903 799 851 807
770.0 847 826 798 780 731 818 775 809 771 816
810.0 779 804 803 783 810 791 847 802 840 837
850.0 894 871 894 852 969 966 908 943 892 906
890.0 896 877 893 890 914 888 916 881 896 888
930.0 919 911 920 950 949 965 984 1017 1014 1051
970.0 1058 1105 1126 1130 1184 1190 1218 1235 1301 1340
1010.0 1412 1458 1529 1650 1717 1836 1910 2023 2069 2135
1050.0 2101 2094 2004 1903 1828 1713 1658 1539 1500 1424
1090.0 1381 1332 1287 1267 1232 1238 1195 1208 1209 1197
1130.0 1165 1128 1114 1068 1083 1064 1054 1038 1067 1053
1170.0 1071 1078 1085 1079 1066 1089 1062 1077 1057 1076
1210.0 1071 1090 1090 1085 1116 1099 1128 1100 1114 1115
1250.0 1128 1134 1133 1150 1147 1167 1158 1144 1115 1122
1290.0 1097 1082 1081 1076 1075 1065 1066 1069 1078 1081
1330.0 1092 1096 1129 1179 1210 1257 1272 1284 1273 1269
1370.0 1273 1284 1310 1327 1340 1287 1252 1186 1179 1141
1410.0 1079 1011 978 973 965 1000 1044 1119 1184 1238
1450.0 1325 1391 1484 1481 1413 1300 1175 1048 973 883
1490.0 835 817 780 765 741 751 719 726 722 719
1530.0 704 704 709 693 713 690 702 681 709 690
1570.0 686 688 695 686 680 695 678 686 690 690
1610.0 683 695 703 691 704 704 712 706 706 727
1650.0 711 740 712 707 695 714 702 726 721 750
1690.0 738 740 758 768 804 820 868 854 826 816
1730.0 825 849 872 896 905 922 907 892 889 904
1770.0 915 925 913 899 869 828 809 775 766 745
1810.0 728 710 699 689 677 670 668 656 660 654
1850.0 653 649 646 645 653 642 646 644 647 641
1890.0 638 645 634 649 639 648 640 647 648 641
1930.0 637 632 639 637 644 648 640 631 639 641
1970.0 642 640 633 638 635 641 637 645 634 642
2010.0 641 637 641 633 651 641 651 652 650 646
2050.0 651 649 651 648 630 651 647 648 664 655
2090.0 651 648 646 638 644 644 648 640 641 635
2130.0 633 637 637 645 636 639 633 647 641 639
2170.0 633 627 628 633 632 628 640 626 622 630
2210.0 621 621 614 624 617 620 619 621 625 622
2250.0 625 621 626 627 630 629 622 629 639 649
2290.0 643 656 650 662 663 683 658 659 673 638
2330.0 660 613 592 588 614 640 647 648 577 577
2370.0 577 577 578 598 619 608 601 613 612 612
2410.0 607 605 618 605 609 608 614 622 611 617
2450.0 605 619 615 609 616 610 605 601 611 608
2490.0 614 605 611 605 617 616 607 603 596 611
2530.0 598 604 608 597 604 614 604 593 606 592
2570.0 584 577 589 598 612 615 607 607 613 619
2610.0 612 620 612 621 605 603 609 611 603 608
2650.0 634 639 681 680 691 707 706 696 699 712
2690.0 719 716 708 721 732 724 748 732 754 736
2730.0 764 745 752 753 768 761 759 775 768 781
2770.0 777 774 807 797 817 834 875 880 902 921
2810.0 935 982 1007 1065 1107 1175 1276 1398 1578 1851
2850.0 2241 2789 3501 4131 4400 4229 3889 3554 3365 3194
2890.0 3077 3029 3134 3375 3756 4262 4829 5572 6577 7906
2930.0 9227 10000 9769 8675 7208 5902 4836 4186 3895 3653
2970.0 3398 2925 2348 1908 1592 1394 1286 1226 1207 1266
3010.0 1351 1464 1453 1311 1166 1009 909 826 794 788
3050.0 768 754 728 709 714 669 711 689 673 668
3090.0 641 676 659 664 638 648 633 639 639 642
3130.0 616 601 638 629 627 663 633 668 649 653
3170.0 664 659 661 652 647 633 625 636 642 656
3210.0 643 646 666 688 688 702 701 669 663 671
3250.0 698 655 647 657 646 651 642 632 628 614
3290.0 629 619 595 624 632 622 608 618 669 656
3330.0 592 637 612 609 607 592 641 599 629 626
3370.0 658 614 594 607 607 636 599 645 637 627
3410.0 659 591 604 645 650 643 656 623 596 582
3450.0 647 599 646 603 623 671 637 645 636 615
3490.0 598 646 587 608 632 662 649 643 619 646
3530.0 650 631 646 645 627 639 637 682 686 677
3570.0 731 739 765 741 717 738 707 690 724 730
3610.0 731 774 753 799 771 782 780 796 784 822
3650.0 849 867 1011 908 956 951 911 845 772 775
3690.0 695 674 683 657 644 607 659 688 646 660
3730.0 602 661 669 596 639 656 601 686 674 695
3770.0 630 605 580 654 629 679 670 607 631 637
3810.0 645 620 654 700 615 684 653 691 639 638
3850.0 656 629 578 673 632 657 726 672 620 709
3890.0 644 652 646 593 715 639 655 659 682 678
3930.0 712 610 715 661 711 602 629 642 645 694
##END=
