##TITLE=Benzenethiol, pentafluoro-
##JCAMP-DX=4.24
##DATA TYPE=INFRARED SPECTRUM
##ORIGIN=Sadtler Research Labs Under US-EPA Contract
##OWNER=NIST Standard Reference Data Program
##CAS REGISTRY NO=771-62-0
##MOLFORM=C 6 H F 5 S
##XUNITS=1/CM
##YUNITS=ABSORBANCE
##XFACTOR=1.0
##YFACTOR=0.000088559
##DELTAX=4.0
##FIRSTX=450.0
##LASTX=3966.0
##FIRSTY=0.002037
##MAXX=3966
##MINX=450
##MAXY=0.88559
##MINY=0
##NPOINTS=880
##XYDATA=(X++(Y..Y))
450.0 23 14 19 25 31 34 39 43 44 65
490.0 52 26 31 50 33 39 57 49 49 40
530.0 48 53 32 38 33 48 44 32 32 37
570.0 20 9 52 24 33 46 37 31 30 34
610.0 46 45 46 46 12 54 45 46 21 33
650.0 31 24 21 26 27 37 29 20 21 18
690.0 25 34 44 35 43 42 42 53 42 53
730.0 47 17 57 55 47 51 43 41 37 40
770.0 41 35 40 53 37 36 27 32 36 48
810.0 54 66 70 78 77 78 78 78 101 140
850.0 262 570 1138 1810 2190 2191 1676 732 266 186
890.0 146 148 159 172 191 299 592 1057 1282 1295
930.0 1079 642 372 253 205 195 216 244 298 344
970.0 412 478 602 849 1078 984 710 566 572 669
1010.0 888 1320 1881 2372 2496 2034 1493 781 358 210
1050.0 170 172 189 195 199 196 212 316 620 1163
1090.0 1945 2443 2317 1676 809 288 121 84 80 91
1130.0 99 102 108 107 113 125 119 96 78 78
1170.0 80 83 79 76 74 67 68 61 57 50
1210.0 44 50 45 45 46 44 49 60 72 76
1250.0 77 72 67 62 62 56 56 61 62 77
1290.0 90 121 135 104 72 61 68 76 78 94
1330.0 113 135 158 151 124 105 116 152 187 196
1370.0 178 144 102 81 92 84 96 133 166 133
1410.0 117 100 112 97 87 92 103 108 121 133
1450.0 147 145 155 182 229 335 548 963 1780 3398
1490.0 5961 8800 10000 9391 8305 7183 6921 6269 4702 2650
1530.0 1394 1009 808 603 418 263 184 148 119 128
1570.0 125 125 96 89 80 85 105 108 114 113
1610.0 115 136 151 190 227 257 305 297 241 175
1650.0 139 67 50 47 52 60 84 83 100 72
1690.0 68 59 58 41 56 53 77 80 75 81
1730.0 93 106 88 82 72 64 55 55 43 39
1770.0 39 30 32 30 29 32 27 31 34 26
1810.0 28 28 29 25 22 30 22 18 24 22
1850.0 22 18 18 18 22 27 21 20 26 23
1890.0 30 24 19 24 18 19 19 20 22 18
1930.0 17 13 16 20 19 16 16 16 16 18
1970.0 17 16 16 15 15 25 26 29 32 36
2010.0 42 44 52 39 37 32 19 16 17 15
2050.0 16 16 9 15 11 15 15 21 16 15
2090.0 15 15 19 15 15 14 14 16 16 14
2130.0 14 15 15 16 16 16 14 14 14 14
2170.0 21 16 15 20 15 14 14 14 15 15
2210.0 15 17 19 19 19 15 15 15 14 14
2250.0 14 13 14 11 14 14 14 14 13 17
2290.0 11 11 15 9 20 12 14 17 26 16
2330.0 21 13 12 21 10 12 31 35 5 0
2370.0 0 0 0 7 27 36 35 36 30 24
2410.0 24 24 24 23 25 27 36 42 41 43
2450.0 36 25 20 14 14 14 14 14 13 13
2490.0 13 13 14 14 13 13 14 14 14 14
2530.0 14 13 17 21 17 15 19 14 20 20
2570.0 20 20 21 27 31 48 62 73 78 81
2610.0 85 82 64 52 30 25 24 22 29 32
2650.0 31 34 32 32 32 26 15 14 9 5
2690.0 3 5 5 4 7 11 4 5 9 9
2730.0 15 10 15 10 9 9 13 9 11 16
2770.0 13 14 15 15 15 10 13 15 15 11
2810.0 14 14 14 15 15 15 14 10 10 14
2850.0 13 14 11 14 14 14 15 15 15 20
2890.0 20 25 26 26 32 36 39 40 40 43
2930.0 36 39 38 32 32 15 15 20 21 14
2970.0 14 15 15 18 16 16 20 15 15 20
3010.0 16 16 16 18 17 20 17 16 15 15
3050.0 10 10 15 16 9 10 12 15 12 17
3090.0 15 12 15 16 16 17 15 15 15 17
3130.0 17 17 17 16 16 16 16 16 11 17
3170.0 10 11 6 17 17 17 11 7 15 18
3210.0 11 12 18 17 18 18 17 13 13 13
3250.0 17 18 18 18 14 26 20 20 14 20
3290.0 20 16 19 23 20 20 18 19 20 20
3330.0 20 20 24 20 25 23 19 20 20 20
3370.0 19 20 19 25 25 20 20 19 17 20
3410.0 33 20 28 32 26 19 24 19 18 25
3450.0 17 9 18 21 21 20 21 19 24 17
3490.0 23 17 27 17 27 18 15 18 23 35
3530.0 28 27 25 26 15 26 18 11 16 14
3570.0 14 12 19 11 12 13 17 11 9 12
3610.0 13 9 9 13 16 11 19 13 15 15
3650.0 12 12 10 0 12 18 19 8 13 14
3690.0 12 12 23 13 6 12 8 13 16 14
3730.0 8 14 8 12 1 0 0 0 6 5
3770.0 5 7 14 7 5 14 13 14 5 13
3810.0 13 17 14 7 11 10 10 8 5 2
3850.0 8 6 6 6 6 5 11 9 14 20
3890.0 18 11 11 11 10 13 14 11 22 22
3930.0 14 20 18 11 11 13 17 18 23 22
##END=
