##TITLE=Benzene, pentafluoromethyl-
##JCAMP-DX=4.24
##DATA TYPE=INFRARED SPECTRUM
##ORIGIN=Sadtler Research Labs Under US-EPA Contract
##OWNER=NIST Standard Reference Data Program
##CAS REGISTRY NO=771-56-2
##MOLFORM=C 7 H 3 F 5
##XUNITS=1/CM
##YUNITS=ABSORBANCE
##XFACTOR=1.0
##YFACTOR=0.000132196
##DELTAX=4.0
##FIRSTX=450.0
##LASTX=3966.0
##FIRSTY=0.001586
##MAXX=3966
##MINX=450
##MAXY=1.32196
##MINY=0
##NPOINTS=880
##XYDATA=(X++(Y..Y))
450.0 12 46 67 30 68 71 52 67 55 57
490.0 10 73 22 47 48 57 46 49 79 39
530.0 53 48 88 70 154 161 184 149 105 77
570.0 43 47 17 60 52 99 163 212 203 209
610.0 147 86 85 84 64 53 63 26 43 41
650.0 37 36 31 46 24 30 24 39 6 35
690.0 19 35 28 33 42 27 30 10 67 41
730.0 28 37 31 36 33 35 23 35 25 25
770.0 6 43 39 35 28 34 42 38 23 27
810.0 43 24 26 37 37 30 52 38 27 57
850.0 54 80 90 67 33 70 52 66 52 64
890.0 57 47 59 58 78 85 149 280 652 1467
930.0 2663 3579 3772 3605 2815 2542 2953 3176 3050 2539
970.0 1871 1446 1199 950 603 368 301 299 298 282
1010.0 314 392 563 872 1255 1532 1615 1409 1029 691
1050.0 420 320 306 439 798 1553 2537 3196 3513 3182
1090.0 2464 1838 1486 1207 935 776 905 1559 2615 3062
1130.0 3070 2455 981 270 177 152 177 146 103 80
1170.0 77 71 69 68 74 68 62 58 56 55
1210.0 55 56 48 55 48 52 57 72 77 79
1250.0 86 92 96 95 108 101 101 98 91 73
1290.0 81 123 238 458 665 718 658 479 233 134
1330.0 122 158 179 178 181 152 111 89 106 165
1370.0 290 338 339 309 196 122 107 113 127 126
1410.0 116 128 106 129 131 157 176 213 251 270
1450.0 267 244 264 328 422 538 697 956 1403 2219
1490.0 3530 5402 7263 8905 9527 9608 9554 9846 10000 9033
1530.0 7618 5023 2676 1410 971 771 655 553 537 553
1570.0 554 499 373 292 254 224 190 143 112 82
1610.0 62 58 58 74 78 106 114 132 199 302
1650.0 434 532 531 434 267 118 45 41 16 12
1690.0 23 32 18 20 32 39 47 49 93 112
1730.0 115 99 112 142 164 160 156 105 54 43
1770.0 29 26 28 22 21 13 8 6 4 9
1810.0 10 5 11 10 8 1 10 14 12 11
1850.0 18 26 20 19 12 6 15 15 15 11
1890.0 11 9 14 13 15 13 15 12 5 7
1930.0 7 8 7 6 4 9 10 10 13 9
1970.0 8 7 9 6 12 6 8 9 10 7
2010.0 8 8 10 11 14 19 19 22 24 33
2050.0 45 51 56 56 55 52 53 48 46 39
2090.0 32 26 27 26 23 22 14 15 10 8
2130.0 9 10 8 10 8 9 12 10 11 10
2170.0 12 14 15 15 15 13 12 11 8 12
2210.0 9 10 11 15 13 17 19 19 22 25
2250.0 33 30 27 19 12 4 5 0 3 4
2290.0 2 0 2 5 6 7 5 6 9 11
2330.0 11 11 14 12 19 27 32 38 42 49
2370.0 56 65 65 62 53 47 45 48 45 42
2410.0 38 40 37 42 48 52 57 59 63 72
2450.0 83 94 90 77 52 36 28 26 22 24
2490.0 22 17 19 15 18 19 23 22 22 21
2530.0 18 17 11 12 15 13 12 10 13 13
2570.0 11 16 19 22 25 26 28 31 29 29
2610.0 34 35 40 46 49 58 63 67 74 84
2650.0 82 76 65 62 58 49 41 22 22 11
2690.0 8 7 15 12 12 11 11 8 15 11
2730.0 8 15 13 16 15 19 27 28 24 24
2770.0 22 13 18 13 19 17 9 9 13 12
2810.0 8 8 10 14 10 11 15 9 14 21
2850.0 19 25 27 30 44 56 76 97 112 112
2890.0 113 92 75 66 57 57 67 72 75 84
2930.0 95 116 152 213 271 310 323 297 254 206
2970.0 172 156 136 111 93 72 56 41 32 32
3010.0 33 34 38 44 63 71 78 78 82 72
3050.0 60 51 52 48 61 55 58 57 45 37
3090.0 30 24 22 17 8 13 14 13 16 9
3130.0 17 15 11 13 16 14 17 15 11 11
3170.0 12 11 9 6 10 11 10 6 5 13
3210.0 12 8 4 5 10 8 14 0 15 7
3250.0 11 8 8 9 5 3 3 3 14 16
3290.0 9 10 2 6 11 6 7 7 13 8
3330.0 15 11 6 15 9 13 8 10 6 16
3370.0 13 24 1 17 15 9 12 20 23 19
3410.0 12 4 11 9 12 7 18 20 9 15
3450.0 15 13 14 3 2 8 15 18 24 21
3490.0 12 15 27 14 16 17 28 13 13 21
3530.0 10 12 18 21 20 8 25 21 17 23
3570.0 10 14 15 24 25 23 37 20 23 6
3610.0 14 23 30 31 34 25 21 18 14 22
3650.0 28 26 30 18 16 25 16 16 32 37
3690.0 23 23 21 37 17 19 33 30 20 28
3730.0 55 47 44 32 27 39 34 16 8 29
3770.0 32 15 18 20 47 38 25 26 20 21
3810.0 28 32 20 12 7 33 30 46 13 25
3850.0 38 39 0 31 56 42 11 14 34 19
3890.0 20 51 24 13 51 35 48 28 62 36
3930.0 46 5 34 9 30 37 57 24 45 29
##END=
