##TITLE=4-Phenylpiperidine
##JCAMP-DX=4.24
##DATA TYPE=INFRARED SPECTRUM
##ORIGIN=Sadtler Research Labs Under US-EPA Contract
##OWNER=NIST Standard Reference Data Program
##CAS REGISTRY NO=771-99-3
##MOLFORM=C 11 H 15 N
##XUNITS=1/CM
##YUNITS=ABSORBANCE
##XFACTOR=1.0
##YFACTOR=0.000087164
##DELTAX=4.0
##FIRSTX=450.0
##LASTX=3966.0
##FIRSTY=0.037132
##MAXX=3966
##MINX=450
##MAXY=0.87164
##MINY=0
##NPOINTS=880
##XYDATA=(X++(Y..Y))
450.0 426 368 439 447 352 243 248 229 218 291
490.0 316 370 368 444 551 766 1141 1610 1853 1917
530.0 1609 1159 709 429 235 146 108 61 57 40
570.0 23 18 38 40 33 61 75 116 140 184
610.0 250 358 480 630 814 909 815 636 397 253
650.0 243 265 304 412 475 677 779 906 1327 1900
690.0 2820 3418 4028 3773 3395 2863 2669 2804 3136 3588
730.0 3797 3959 3924 4028 3978 3813 3346 2709 2037 1458
770.0 1053 765 579 476 438 456 498 535 534 546
810.0 542 513 477 401 319 254 208 194 238 290
850.0 306 281 212 109 61 51 51 67 79 119
890.0 176 230 255 235 202 148 94 65 49 32
930.0 18 24 29 59 95 128 151 153 141 120
970.0 106 106 112 125 141 167 213 291 419 632
1010.0 821 971 1024 897 769 561 375 281 195 176
1050.0 185 244 317 409 473 483 454 394 333 294
1090.0 289 311 345 373 392 390 398 438 529 665
1130.0 831 1032 1217 1381 1448 1381 1183 925 682 492
1170.0 368 306 282 275 278 283 274 264 242 216
1210.0 198 207 231 266 307 333 347 341 342 347
1250.0 397 457 479 462 418 375 323 282 247 237
1290.0 255 289 337 422 569 787 1061 1320 1431 1372
1330.0 1161 876 655 486 409 428 529 706 848 873
1370.0 795 672 595 657 775 798 719 545 340 281
1410.0 298 368 489 580 705 834 1008 1216 1541 1772
1450.0 1860 1731 1408 1122 970 857 751 668 671 893
1490.0 1152 1279 1274 1061 803 593 357 199 150 122
1530.0 115 103 101 87 102 77 101 89 123 121
1570.0 158 201 279 361 481 618 798 1044 1159 1087
1610.0 807 505 244 184 140 155 132 149 129 153
1650.0 127 169 116 116 103 112 98 134 127 173
1690.0 148 162 187 239 296 339 361 282 196 147
1730.0 133 117 102 71 77 79 73 69 62 60
1770.0 68 80 78 126 155 238 236 233 177 115
1810.0 72 64 51 31 37 24 33 20 58 60
1850.0 76 76 93 102 121 135 128 123 105 96
1890.0 87 81 66 51 42 38 47 56 76 99
1930.0 124 154 173 188 185 186 172 140 96 58
1970.0 26 18 14 16 14 22 15 12 10 8
2010.0 4 8 12 9 9 12 14 14 14 13
2050.0 13 15 9 12 13 10 11 8 9 6
2090.0 8 7 4 6 6 5 3 5 5 5
2130.0 4 4 3 0 0 1 3 5 6 7
2170.0 9 13 15 15 20 22 16 20 19 21
2210.0 21 23 23 28 27 25 30 30 36 34
2250.0 39 37 39 34 35 40 45 55 62 78
2290.0 97 128 147 165 186 224 211 206 216 180
2330.0 179 174 153 198 224 191 259 178 237 207
2370.0 188 158 156 147 101 55 37 37 43 46
2410.0 44 48 47 48 46 48 56 55 55 57
2450.0 63 64 67 72 74 75 71 71 68 69
2490.0 70 66 65 65 63 58 60 63 64 61
2530.0 66 70 75 76 78 82 86 95 99 103
2570.0 112 120 128 134 142 147 152 158 166 175
2610.0 187 201 214 239 265 285 300 301 293 272
2650.0 251 242 243 255 273 300 332 374 408 438
2690.0 454 463 467 471 495 536 599 679 797 969
2730.0 1180 1392 1516 1513 1369 1171 1009 919 911 967
2770.0 1068 1210 1385 1564 1734 1909 2149 2505 2978 3438
2810.0 3691 3586 3146 2541 2000 1623 1422 1376 1471 1708
2850.0 2030 2380 2671 2858 2893 2787 2595 2391 2210 2041
2890.0 1913 1860 1936 2172 2605 3215 4014 5019 6137 7144
2930.0 7874 8466 8880 9458 10000 9795 8668 6721 4569 2791
2970.0 1651 1047 734 566 466 409 386 406 467 551
3010.0 656 795 1011 1369 1846 2285 2517 2494 2219 1836
3050.0 1549 1423 1477 1831 2426 2783 2776 2431 1862 1485
3090.0 1333 1208 1062 899 751 617 502 387 291 207
3130.0 156 124 107 100 99 98 104 113 117 114
3170.0 109 94 80 73 71 69 66 63 52 47
3210.0 44 42 41 39 36 40 32 30 25 27
3250.0 32 25 27 28 31 30 24 24 25 27
3290.0 20 22 26 28 26 25 24 30 31 32
3330.0 51 57 64 49 38 35 35 29 35 36
3370.0 46 46 38 46 50 52 48 51 48 51
3410.0 45 40 44 43 45 41 45 46 54 51
3450.0 52 50 57 56 51 54 51 45 42 38
3490.0 33 35 32 37 48 35 27 25 37 46
3530.0 40 33 34 34 58 45 36 47 32 67
3570.0 51 39 39 46 63 54 64 43 52 45
3610.0 64 54 54 53 50 89 63 73 89 85
3650.0 107 82 80 59 46 73 29 77 24 67
3690.0 41 69 51 70 56 50 70 70 46 70
3730.0 53 70 48 80 46 51 68 26 44 43
3770.0 42 27 27 32 26 26 28 13 46 17
3810.0 39 29 23 42 14 31 55 44 30 53
3850.0 16 47 43 28 54 56 43 31 63 31
3890.0 55 27 44 45 62 51 51 62 57 48
3930.0 36 59 60 71 59 68 42 49 64 52
##END=
