##TITLE=1,4-Benzenediol, 2,3,5,6-tetrafluoro-
##JCAMP-DX=4.24
##DATA TYPE=INFRARED SPECTRUM
##ORIGIN=Sadtler Research Labs Under US-EPA Contract
##OWNER=NIST Standard Reference Data Program
##CAS REGISTRY NO=771-63-1
##MOLFORM=C 6 H 2 F 4 O 2
##XUNITS=1/CM
##YUNITS=ABSORBANCE
##XFACTOR=1.0
##YFACTOR=0.000101724
##DELTAX=4.0
##FIRSTX=450.0
##LASTX=3966.0
##FIRSTY=0.003662
##MAXX=3966
##MINX=450
##MAXY=1.01724
##MINY=0
##NPOINTS=880
##XYDATA=(X++(Y..Y))
450.0 36 13 96 86 63 126 107 80 76 102
490.0 108 126 116 152 140 114 181 159 137 142
530.0 104 78 90 77 50 81 35 70 37 62
570.0 70 81 82 95 106 98 88 76 84 86
610.0 94 95 98 105 85 72 65 77 52 47
650.0 42 41 36 42 40 66 62 49 67 48
690.0 53 48 54 53 55 71 53 71 61 63
730.0 48 46 54 43 46 55 77 110 182 283
770.0 366 386 378 296 193 128 89 72 50 62
810.0 67 72 82 94 90 88 98 84 81 62
850.0 58 66 88 102 107 113 109 106 98 103
890.0 89 93 105 115 149 188 268 370 500 646
930.0 833 1068 1445 2103 3063 4073 4832 5121 4788 4080
970.0 3318 2926 2981 3507 4338 5059 5453 5665 5784 5775
1010.0 5854 5714 5190 4154 2961 1943 1256 857 608 488
1050.0 419 395 366 344 320 290 282 263 257 241
1090.0 217 177 154 125 116 132 171 251 299 338
1130.0 339 312 301 315 312 303 282 235 221 203
1170.0 216 236 268 316 412 611 984 1668 2565 3408
1210.0 3810 3790 3203 2399 1821 1527 1336 1127 969 854
1250.0 873 1046 1499 2298 3322 3829 3738 3346 2341 1445
1290.0 1108 1064 1119 1237 1405 1622 1905 2220 2606 2905
1330.0 2990 2713 2290 1693 1163 854 687 590 504 433
1370.0 359 286 227 186 172 141 149 127 144 122
1410.0 134 107 97 111 109 121 122 185 179 206
1450.0 236 307 357 424 461 472 484 504 712 1014
1490.0 1824 3311 5344 7569 9007 10000 9767 8401 7619 7193
1530.0 7027 6916 6867 5994 4574 3296 2043 1038 447 330
1570.0 256 223 228 196 230 181 191 133 138 98
1610.0 94 102 77 102 80 113 103 122 134 199
1650.0 210 366 564 645 734 670 490 338 139 113
1690.0 116 178 232 446 601 700 723 640 498 379
1730.0 317 235 248 198 167 144 191 148 158 132
1770.0 109 80 91 105 80 99 69 70 48 76
1810.0 22 36 41 20 34 10 32 16 27 15
1850.0 27 25 37 28 21 22 27 32 27 28
1890.0 21 21 27 24 23 20 17 26 8 18
1930.0 19 19 18 15 13 19 22 22 18 18
1970.0 17 20 20 21 20 15 19 14 21 16
2010.0 23 14 18 15 20 18 22 22 19 28
2050.0 32 40 45 57 62 66 69 69 72 64
2090.0 72 73 78 70 65 54 47 43 39 42
2130.0 42 50 47 48 47 43 40 39 39 33
2170.0 28 24 23 20 19 20 19 23 21 27
2210.0 25 28 27 32 34 39 39 33 34 32
2250.0 34 33 38 37 40 41 41 39 36 38
2290.0 33 36 33 38 34 36 45 45 64 64
2330.0 73 66 77 71 66 62 61 55 32 38
2370.0 34 38 35 37 32 29 34 38 45 54
2410.0 71 79 89 102 109 111 111 114 114 120
2450.0 128 144 145 140 126 111 100 95 91 82
2490.0 75 62 50 43 36 34 33 34 34 36
2530.0 35 35 35 35 29 29 32 28 33 33
2570.0 35 34 39 40 43 49 49 51 52 52
2610.0 49 51 48 52 58 67 73 83 100 110
2650.0 122 125 130 116 104 92 77 64 54 53
2690.0 45 39 31 25 20 17 19 14 16 16
2730.0 13 15 17 15 11 12 12 10 9 11
2770.0 12 12 13 14 11 15 17 20 22 21
2810.0 27 23 26 23 23 20 19 22 19 22
2850.0 21 27 24 27 23 21 23 24 23 21
2890.0 22 19 20 21 24 27 27 30 32 38
2930.0 47 54 54 50 46 53 45 47 57 59
2970.0 63 64 64 58 60 52 46 41 41 35
3010.0 35 37 29 26 22 24 23 19 24 19
3050.0 16 13 12 10 12 12 12 10 12 11
3090.0 14 10 12 14 11 17 17 15 14 15
3130.0 16 18 21 17 17 21 16 20 17 18
3170.0 18 19 23 23 15 14 16 17 15 14
3210.0 16 13 17 13 12 16 16 12 11 10
3250.0 9 13 8 17 13 15 15 18 15 24
3290.0 28 26 36 40 58 59 64 62 67 55
3330.0 46 52 53 49 53 57 69 71 65 61
3370.0 51 44 47 51 53 52 61 65 61 52
3410.0 52 46 45 48 39 33 33 32 33 34
3450.0 23 17 27 25 27 17 20 15 28 23
3490.0 14 22 19 30 36 21 21 15 26 56
3530.0 30 14 22 16 55 49 17 47 19 93
3570.0 95 33 63 39 121 130 119 155 160 291
3610.0 490 960 2088 4516 6841 7622 7164 5665 2651 920
3650.0 356 215 97 101 56 117 89 104 47 38
3690.0 86 46 37 33 39 47 72 27 57 78
3730.0 33 103 84 70 119 67 57 23 23 20
3770.0 21 3 2 15 21 36 1 39 35 58
3810.0 0 23 35 64 34 35 88 102 66 41
3850.0 42 116 79 29 51 62 55 31 72 64
3890.0 37 62 47 137 110 64 39 87 75 37
3930.0 57 41 53 48 85 92 85 36 49 14
##END=
