##TITLE=Phenol, pentafluoro-
##JCAMP-DX=4.24
##DATA TYPE=INFRARED SPECTRUM
##ORIGIN=Sadtler Research Labs Under US-EPA Contract
##OWNER=NIST Standard Reference Data Program
##CAS REGISTRY NO=771-61-9
##MOLFORM=C 6 H F 5 O
##XUNITS=1/CM
##YUNITS=ABSORBANCE
##XFACTOR=1.0
##YFACTOR=0.000053516
##DELTAX=4.0
##FIRSTX=450.0
##LASTX=3966.0
##FIRSTY=0.004067
##MAXX=3966
##MINX=450
##MAXY=0.53516
##MINY=0
##NPOINTS=880
##XYDATA=(X++(Y..Y))
450.0 76 96 122 148 119 76 62 91 74 32
490.0 3 9 85 129 102 77 71 55 20 89
530.0 96 128 98 75 41 121 112 76 134 118
570.0 81 209 49 24 35 92 94 54 81 0
610.0 121 29 85 144 149 134 133 138 99 65
650.0 79 62 88 56 30 14 64 64 52 87
690.0 92 84 103 96 72 85 79 36 84 57
730.0 83 76 84 107 77 76 83 76 80 153
770.0 167 202 221 222 229 172 146 79 82 71
810.0 90 84 84 83 83 101 91 102 110 82
850.0 77 80 87 93 101 108 122 116 118 100
890.0 107 98 81 90 89 104 87 96 102 145
930.0 143 178 227 303 392 507 625 859 1370 2321
970.0 3434 4165 4609 4545 4306 4239 4151 4048 4011 4181
1010.0 4602 4809 4634 3884 2873 1795 1075 677 480 383
1050.0 334 279 229 198 176 177 186 195 201 192
1090.0 197 189 168 131 93 89 108 96 120 133
1130.0 193 311 427 481 534 531 409 350 320 214
1170.0 152 158 154 148 153 154 175 199 235 318
1210.0 527 884 1370 1713 1773 1556 1096 670 520 498
1250.0 482 454 417 378 378 397 416 467 527 621
1290.0 746 924 1166 1462 1689 1769 1632 1348 1012 693
1330.0 539 436 361 324 311 331 343 347 356 297
1370.0 255 227 178 133 120 137 143 141 116 128
1410.0 122 130 191 192 170 162 154 230 149 166
1450.0 199 222 381 272 309 297 427 401 382 393
1490.0 468 505 866 1560 3164 5804 8540 10000 9923 8762
1530.0 7353 7531 7892 7219 5318 2571 891 508 339 205
1570.0 240 185 235 157 166 167 165 155 137 109
1610.0 101 94 167 103 115 97 117 172 100 167
1650.0 153 356 159 184 165 227 173 154 146 238
1690.0 118 114 191 224 109 79 99 198 89 80
1730.0 98 233 184 229 244 299 301 292 293 242
1770.0 241 232 154 162 157 152 196 135 145 107
1810.0 98 76 69 56 80 93 66 59 61 103
1850.0 59 59 58 59 58 95 56 57 57 57
1890.0 57 57 57 57 57 57 57 67 56 57
1930.0 47 48 51 56 56 56 49 57 46 55
1970.0 56 46 56 54 49 55 56 46 46 53
2010.0 45 45 55 45 46 45 45 45 56 44
2050.0 45 50 53 54 61 74 82 81 72 72
2090.0 71 74 62 63 52 52 52 53 53 61
2130.0 62 62 62 61 59 52 52 52 52 52
2170.0 52 52 52 43 50 42 42 49 42 42
2210.0 42 47 46 51 48 49 50 49 50 50
2250.0 50 50 49 49 49 49 49 50 47 39
2290.0 39 31 30 30 29 21 18 3 3 3
2330.0 3 3 3 3 3 3 3 3 3 3
2370.0 3 3 17 25 39 39 47 38 39 38
2410.0 39 40 40 40 47 47 46 56 72 94
2450.0 104 130 139 140 148 149 139 130 113 99
2490.0 73 66 66 55 47 47 46 46 46 46
2530.0 46 46 46 47 47 47 47 47 47 47
2570.0 46 47 46 38 45 45 45 39 46 46
2610.0 46 46 45 46 46 46 48 47 43 54
2650.0 65 75 90 109 117 130 120 130 110 98
2690.0 73 60 45 41 36 36 36 36 36 36
2730.0 36 36 27 35 35 35 35 35 35 35
2770.0 35 35 37 44 36 35 44 36 36 36
2810.0 36 36 36 36 36 36 35 43 35 34
2850.0 34 35 38 33 34 35 35 43 42 34
2890.0 35 34 34 34 34 32 29 34 34 45
2930.0 34 34 44 44 34 43 43 44 42 42
2970.0 42 55 47 51 62 62 52 61 43 42
3010.0 52 42 42 42 43 43 43 33 33 26
3050.0 33 25 33 34 26 23 24 35 34 24
3090.0 24 30 25 31 24 24 15 23 25 29
3130.0 35 26 27 18 21 22 25 23 33 33
3170.0 33 23 23 23 34 33 22 16 32 30
3210.0 25 23 22 23 22 22 20 24 26 27
3250.0 23 22 33 14 15 22 23 23 21 32
3290.0 31 42 42 36 41 37 33 24 31 31
3330.0 40 39 40 25 23 31 19 26 16 19
3370.0 22 29 22 30 21 30 22 25 19 28
3410.0 27 14 22 28 14 12 22 21 23 11
3450.0 12 15 22 15 16 19 21 19 30 20
3490.0 12 11 29 31 27 21 6 13 23 28
3530.0 32 15 20 20 30 28 29 10 25 37
3570.0 60 26 22 29 34 79 46 66 76 98
3610.0 212 398 934 2020 2812 2916 2632 1589 573 230
3650.0 178 83 82 38 38 88 76 94 36 34
3690.0 86 43 28 38 29 48 72 37 40 47
3730.0 38 85 101 71 136 105 81 46 36 36
3770.0 37 27 30 33 28 27 37 34 83 63
3810.0 47 36 74 83 54 53 78 100 73 58
3850.0 76 136 77 63 74 74 62 45 54 49
3890.0 48 55 53 74 67 46 45 53 44 35
3930.0 45 43 36 36 36 39 0 3 3 3
##END=
