##TITLE=N,N-Diethylbenzylamine
##JCAMP-DX=4.24
##DATA TYPE=INFRARED SPECTRUM
##ORIGIN=Sadtler Research Labs Under US-EPA Contract
##OWNER=NIST Standard Reference Data Program
##CAS REGISTRY NO=772-54-3
##MOLFORM=C 11 H 17 N
##XUNITS=1/CM
##YUNITS=ABSORBANCE
##XFACTOR=1.0
##YFACTOR=0.000076572
##DELTAX=4.0
##FIRSTX=450.0
##LASTX=3966.0
##FIRSTY=0.025345
##MAXX=3966
##MINX=450
##MAXY=0.76572
##MINY=0
##NPOINTS=880
##XYDATA=(X++(Y..Y))
450.0 331 359 350 405 276 247 248 207 195 185
490.0 419 304 228 174 290 209 274 333 250 276
530.0 236 263 249 50 100 215 171 173 201 223
570.0 174 193 261 225 200 221 299 411 468 492
610.0 489 423 370 317 287 245 0 255 176 218
650.0 291 324 295 363 387 480 450 519 767 1188
690.0 1885 2594 2995 2774 2149 1627 1555 1966 2780 3654
730.0 3989 3583 2587 1692 1093 860 792 824 884 996
770.0 1136 1236 1293 1194 1036 834 663 539 613 593
810.0 611 601 618 570 506 432 347 301 270 262
850.0 242 244 253 237 238 233 241 256 283 309
890.0 355 437 575 677 698 664 553 479 400 353
930.0 311 308 302 293 306 340 387 457 544 636
970.0 732 769 806 812 833 812 801 703 646 583
1010.0 550 582 683 1084 1523 1613 1547 1230 1067 1262
1050.0 1499 1903 2321 2656 2783 2729 2597 2375 2140 1903
1090.0 1682 1520 1408 1320 1260 1218 1213 1198 1121 992
1130.0 837 711 629 613 648 752 935 1174 1438 1664
1170.0 1775 1698 1476 1216 1044 1068 1311 1748 2218 2447
1210.0 2271 1794 1238 869 702 643 631 663 718 794
1250.0 847 882 848 784 735 723 772 874 1044 1245
1290.0 1431 1534 1537 1462 1379 1308 1270 1240 1211 1210
1330.0 1218 1241 1296 1426 1589 1769 1963 2139 2276 2411
1370.0 2620 2797 2986 3073 2885 2598 2117 1552 1074 770
1410.0 614 541 521 499 504 529 589 713 931 1256
1450.0 1599 1867 1956 1854 1690 1533 1407 1232 1057 995
1490.0 1181 1390 1370 1124 707 406 320 279 264 252
1530.0 255 257 261 267 241 231 224 238 239 250
1570.0 260 259 263 283 316 373 469 574 609 595
1610.0 512 403 313 248 209 191 192 197 192 185
1650.0 188 191 172 172 165 163 170 163 169 173
1690.0 163 161 169 169 172 166 179 184 167 168
1730.0 171 184 169 170 182 178 168 164 159 149
1770.0 157 163 160 158 160 177 221 277 322 321
1810.0 284 232 193 170 159 147 132 129 134 136
1850.0 141 146 162 183 206 219 221 225 215 196
1890.0 172 142 122 111 104 97 98 99 105 116
1930.0 146 184 231 273 284 275 260 231 196 156
1970.0 120 109 106 110 103 107 100 87 81 82
2010.0 82 78 70 72 71 65 59 63 65 67
2050.0 68 68 61 51 53 55 64 66 71 76
2090.0 81 81 78 70 70 71 69 70 65 62
2130.0 68 64 69 66 69 68 69 76 73 70
2170.0 80 80 82 81 76 88 78 69 77 68
2210.0 66 61 59 62 66 64 71 65 73 71
2250.0 65 62 71 66 68 72 64 66 67 64
2290.0 60 58 57 53 62 72 77 66 60 60
2330.0 46 59 48 31 24 54 45 47 36 28
2370.0 24 24 30 39 43 51 52 48 56 60
2410.0 52 55 59 63 62 59 63 61 58 59
2450.0 63 46 46 51 47 41 26 36 42 38
2490.0 41 37 31 45 37 44 46 52 68 75
2530.0 70 82 77 88 98 97 103 111 120 124
2570.0 136 146 141 144 151 150 151 154 157 158
2610.0 174 180 190 206 207 210 227 239 233 254
2650.0 282 311 330 343 349 356 357 364 384 417
2690.0 457 502 555 622 697 784 838 880 901 910
2730.0 925 942 955 959 998 1071 1171 1315 1422 1498
2770.0 1583 1688 1878 2203 2701 3343 4118 4878 5482 5793
2810.0 5829 5523 5019 4498 3963 3417 2917 2494 2134 1862
2850.0 1636 1480 1385 1390 1467 1651 1981 2421 2776 2921
2890.0 2863 2636 2463 2412 2447 2546 2623 2747 2922 3192
2930.0 3642 4252 4868 5201 5064 4549 3895 3526 3789 4914
2970.0 6989 9049 10000 9025 6712 4389 2679 1756 1287 1083
3010.0 999 1008 1097 1369 1819 2330 2622 2612 2298 1882
3050.0 1481 1242 1286 1590 2172 2670 2713 2432 1897 1546
3090.0 1409 1266 1061 839 669 565 483 408 316 235
3130.0 189 159 143 124 130 141 124 136 137 162
3170.0 169 157 143 123 122 110 95 94 75 72
3210.0 70 63 65 54 64 68 57 68 65 73
3250.0 59 40 47 52 72 67 75 73 74 63
3290.0 50 50 48 24 44 27 43 32 41 41
3330.0 60 57 60 52 43 39 44 38 58 79
3370.0 49 56 48 66 50 39 42 50 32 33
3410.0 49 70 62 29 35 41 34 61 70 47
3450.0 72 53 43 52 44 54 64 63 56 59
3490.0 53 48 66 61 50 73 60 49 59 64
3530.0 67 56 59 74 66 65 49 54 73 62
3570.0 57 44 62 59 81 75 53 67 71 78
3610.0 66 87 85 78 60 105 78 79 86 82
3650.0 104 92 95 66 95 99 90 91 91 67
3690.0 72 79 68 81 74 82 79 120 84 116
3730.0 84 73 73 70 65 54 92 75 78 64
3770.0 64 73 63 85 78 64 79 78 70 71
3810.0 68 59 106 66 86 87 69 79 55 91
3850.0 113 67 78 80 82 106 84 77 88 107
3890.0 83 92 109 72 89 103 93 91 95 106
3930.0 127 130 114 106 93 87 85 82 73 118
##END=
