##TITLE=1-Naphthaleneethanol
##JCAMP-DX=4.24
##DATA TYPE=INFRARED SPECTRUM
##ORIGIN=Sadtler Research Labs Under US-EPA Contract
##OWNER=NIST Standard Reference Data Program
##CAS REGISTRY NO=773-99-9
##MOLFORM=C 12 H 12 O
##XUNITS=1/CM
##YUNITS=ABSORBANCE
##XFACTOR=1.0
##YFACTOR=0.000036441
##DELTAX=4.0
##FIRSTX=450.0
##LASTX=3966.0
##FIRSTY=0.022557
##MAXX=3966
##MINX=450
##MAXY=0.36441
##MINY=0
##NPOINTS=880
##XYDATA=(X++(Y..Y))
450.0 619 527 178 180 189 132 135 147 279 408
490.0 329 228 272 207 280 294 227 191 215 158
530.0 192 203 145 259 218 308 307 177 119 94
570.0 96 29 115 158 187 206 249 336 292 259
610.0 167 84 81 93 73 55 80 104 121 104
650.0 90 59 33 26 9 44 57 28 98 87
690.0 163 177 189 141 121 170 233 363 433 586
730.0 628 418 362 226 194 256 563 1295 2884 4847
770.0 7336 10000 8696 7326 7005 6234 5628 3930 2557 1475
810.0 803 455 326 270 241 293 349 414 387 434
850.0 429 426 369 319 321 289 298 278 267 224
890.0 229 250 270 281 245 230 205 205 244 306
930.0 369 413 445 467 463 462 442 442 474 491
970.0 466 504 566 644 781 935 1070 1218 1363 1576
1010.0 1918 2436 3139 3921 4874 6042 7190 7973 8157 7521
1050.0 6356 5271 4381 3580 2958 2433 2080 1808 1536 1281
1090.0 1006 782 655 599 547 525 496 497 506 504
1130.0 518 551 582 568 561 549 561 627 738 802
1170.0 845 826 781 768 776 774 785 804 840 861
1210.0 846 816 778 708 638 594 587 599 599 611
1250.0 648 707 773 808 814 784 738 705 664 624
1290.0 592 577 580 599 603 629 626 636 661 699
1330.0 706 733 772 807 851 843 827 812 850 942
1370.0 1148 1429 1753 2038 2222 2325 2290 2073 1737 1328
1410.0 935 725 613 551 543 548 560 575 634 679
1450.0 704 717 679 615 586 538 530 531 522 460
1490.0 424 468 572 784 1002 1130 1115 961 676 420
1530.0 250 165 131 116 83 83 76 71 89 122
1570.0 176 253 338 404 517 643 753 768 661 471
1610.0 252 146 121 139 146 145 124 117 102 103
1650.0 89 87 90 121 167 199 230 249 270 307
1690.0 319 301 228 162 127 148 174 211 223 235
1730.0 261 281 322 343 324 280 227 211 197 180
1770.0 145 130 116 132 173 236 294 333 319 282
1810.0 228 194 179 170 171 155 140 121 117 115
1850.0 142 176 227 225 201 152 99 80 79 91
1890.0 108 130 160 209 278 355 413 444 440 407
1930.0 388 358 337 307 254 186 113 65 30 26
1970.0 12 13 7 8 2 10 5 12 11 16
2010.0 18 16 27 24 35 38 44 50 53 69
2050.0 82 89 77 72 69 59 58 53 49 46
2090.0 42 35 37 32 25 29 21 25 22 13
2130.0 18 7 13 11 6 3 17 16 16 14
2170.0 13 9 10 12 6 8 0 3 7 11
2210.0 5 4 4 6 13 17 15 21 16 19
2250.0 19 20 23 24 25 21 26 41 42 50
2290.0 62 60 57 65 77 86 94 89 99 113
2330.0 105 118 113 104 124 71 119 88 144 83
2370.0 65 66 80 71 47 31 27 40 50 59
2410.0 63 70 60 59 60 49 41 41 37 22
2450.0 27 35 31 32 35 41 33 25 37 28
2490.0 35 34 27 27 21 26 31 38 41 32
2530.0 32 35 36 34 26 24 22 19 23 30
2570.0 21 30 30 37 26 20 26 27 32 47
2610.0 37 36 48 51 49 63 63 66 67 75
2650.0 75 73 75 69 73 78 74 80 77 81
2690.0 83 91 97 106 111 118 144 132 139 143
2730.0 153 159 159 159 162 165 175 179 178 177
2770.0 185 194 198 207 205 213 223 234 247 257
2810.0 273 285 297 316 345 371 396 431 471 533
2850.0 612 704 837 1003 1231 1575 2012 2511 2929 3144
2890.0 3078 2756 2359 2051 1889 1856 1899 2024 2243 2548
2930.0 2882 3212 3439 3571 3723 3973 4165 4242 4050 3603
2970.0 2994 2399 1823 1375 1068 884 810 838 927 1047
3010.0 1186 1276 1304 1295 1307 1416 1674 2107 2710 3383
3050.0 3941 4351 4741 5182 5356 5250 4826 4038 3293 2735
3090.0 2298 1957 1638 1317 1016 710 466 299 192 133
3130.0 123 104 81 77 74 62 66 60 78 86
3170.0 56 65 77 70 72 58 45 47 37 61
3210.0 44 65 67 57 64 44 50 29 31 25
3250.0 24 15 5 11 22 24 10 17 13 9
3290.0 18 17 27 20 28 17 6 24 30 26
3330.0 36 10 31 39 35 42 42 33 21 43
3370.0 26 29 14 26 21 43 42 52 55 34
3410.0 41 50 33 42 30 23 25 28 30 42
3450.0 49 62 43 42 33 35 31 25 42 44
3490.0 26 28 57 50 65 54 46 44 41 47
3530.0 41 23 61 72 58 59 67 89 81 57
3570.0 68 51 71 70 81 84 116 119 91 142
3610.0 123 186 292 467 610 735 755 677 564 530
3650.0 605 773 984 1127 1254 1228 1084 834 577 391
3690.0 282 210 204 170 157 156 138 138 128 124
3730.0 120 87 38 93 87 134 70 62 88 37
3770.0 60 62 89 78 86 66 85 76 94 84
3810.0 97 105 57 84 68 71 61 81 93 122
3850.0 86 113 79 112 96 87 75 93 67 78
3890.0 121 52 101 94 75 83 33 18 40 44
3930.0 43 28 37 65 9 115 62 42 27 39
##END=
