##TITLE=1,3-Benzoxathiol-2-one, 5-hydroxy
##JCAMP-DX=4.24
##DATA TYPE=INFRARED SPECTRUM
##ORIGIN=Sadtler Research Labs Under US-EPA Contract
##OWNER=NIST Standard Reference Data Program
##CAS REGISTRY NO=7735-56-0
##MOLFORM=C 7 H 4 O 3 S
##XUNITS=1/CM
##YUNITS=ABSORBANCE
##XFACTOR=1.0
##YFACTOR=0.000095218
##DELTAX=4.0
##FIRSTX=450.0
##LASTX=3966.0
##FIRSTY=0.008570
##MAXX=3966
##MINX=450
##MAXY=0.95218
##MINY=0
##NPOINTS=880
##XYDATA=(X++(Y..Y))
450.0 90 71 74 131 189 70 117 99 93 84
490.0 115 121 140 118 78 92 211 227 218 274
530.0 210 123 115 115 116 76 55 60 49 91
570.0 176 206 250 240 176 221 213 277 325 311
610.0 281 226 158 124 127 125 157 241 243 188
650.0 193 220 225 185 205 160 92 79 65 84
690.0 65 76 109 90 125 165 160 149 142 115
730.0 82 54 52 22 5 13 36 76 88 80
770.0 73 91 93 162 238 279 405 437 434 492
810.0 511 431 387 354 416 520 634 808 1198 1537
850.0 1756 1686 1240 751 419 234 168 127 111 111
890.0 116 116 123 157 183 182 180 136 110 106
930.0 95 102 106 116 137 147 166 186 215 245
970.0 281 317 377 515 723 1047 1427 1830 2141 2174
1010.0 2051 1720 1227 880 607 411 297 237 209 197
1050.0 231 269 389 666 1002 1247 1437 1340 996 745
1090.0 551 401 328 294 307 342 393 409 414 401
1130.0 372 376 370 363 310 291 383 636 1050 1454
1170.0 1728 1783 1568 1276 978 743 613 603 686 878
1210.0 1092 1296 1414 1376 1256 980 602 400 289 247
1250.0 274 370 556 776 973 1084 1101 975 785 602
1290.0 453 378 321 291 302 324 329 303 248 166
1330.0 93 40 6 6 16 37 77 95 96 100
1370.0 95 85 79 81 70 70 67 67 89 105
1410.0 113 153 180 279 393 506 632 747 804 788
1450.0 689 549 480 550 831 1400 2162 2867 2882 2521
1490.0 1774 836 406 289 181 112 83 57 45 56
1530.0 60 62 57 51 66 86 100 96 107 118
1570.0 133 182 270 387 523 652 738 780 764 678
1610.0 577 482 331 219 175 187 183 183 203 224
1650.0 225 246 267 267 268 252 229 223 191 160
1690.0 155 139 125 139 177 227 249 292 423 566
1730.0 698 781 827 854 923 1067 1257 1380 1427 1339
1770.0 1202 1138 1297 1804 3025 5426 8586 10000 9675 7789
1810.0 3563 1332 739 478 355 280 218 176 140 133
1850.0 128 134 116 105 85 76 83 85 91 90
1890.0 87 70 69 63 56 56 60 58 52 57
1930.0 53 47 40 34 32 37 45 49 51 62
1970.0 74 85 102 124 144 166 188 209 217 207
2010.0 188 157 118 87 64 51 40 38 36 33
2050.0 34 34 42 49 65 75 85 87 78 69
2090.0 55 46 37 34 36 30 30 28 28 29
2130.0 29 28 27 28 23 22 21 16 14 13
2170.0 11 11 9 11 7 16 15 8 11 7
2210.0 6 10 10 12 12 15 17 8 9 9
2250.0 8 9 17 11 10 15 13 12 8 7
2290.0 10 10 10 13 12 21 21 26 26 21
2330.0 18 28 38 57 47 38 47 38 26 17
2370.0 25 21 36 27 25 27 30 30 23 23
2410.0 18 15 10 9 6 13 16 20 22 23
2450.0 26 26 25 28 21 22 25 25 24 23
2490.0 21 20 17 11 19 16 15 19 14 16
2530.0 18 11 17 18 19 19 20 20 13 13
2570.0 16 11 16 13 13 14 15 13 18 17
2610.0 17 20 21 19 19 16 11 14 11 13
2650.0 20 19 19 19 21 20 21 21 10 15
2690.0 15 18 19 23 16 17 13 17 18 21
2730.0 16 18 21 16 12 17 25 20 21 23
2770.0 19 24 18 13 20 22 16 22 17 18
2810.0 20 19 12 13 14 16 13 8 9 11
2850.0 13 14 15 17 15 14 19 18 15 16
2890.0 15 20 19 25 22 20 28 23 25 24
2930.0 27 27 23 27 23 13 22 17 15 24
2970.0 18 22 26 21 28 26 30 27 27 31
3010.0 29 35 50 50 63 71 82 88 94 92
3050.0 89 76 64 56 55 63 63 63 64 69
3090.0 67 69 63 59 56 48 54 52 43 47
3130.0 38 39 41 32 40 47 41 42 38 37
3170.0 39 40 41 37 42 36 43 41 46 44
3210.0 44 40 45 47 42 46 40 43 44 48
3250.0 40 43 49 52 53 47 49 51 53 55
3290.0 49 56 59 50 57 58 56 58 48 52
3330.0 52 49 52 56 59 58 60 62 68 65
3370.0 77 74 65 71 77 73 65 71 74 82
3410.0 66 72 74 73 80 71 74 65 70 70
3450.0 63 66 63 64 64 61 57 60 53 50
3490.0 53 54 70 51 54 52 41 41 44 42
3530.0 50 38 46 32 42 41 44 51 64 74
3570.0 96 123 122 107 78 59 26 15 21 19
3610.0 17 12 23 35 47 57 104 181 315 539
3650.0 850 1058 956 827 521 180 76 34 26 23
3690.0 12 13 13 19 16 27 16 9 13 0
3730.0 14 28 22 8 12 30 14 11 10 21
3770.0 17 6 9 9 22 24 27 23 7 6
3810.0 20 25 29 21 17 18 15 28 24 23
3850.0 16 21 28 11 5 24 24 17 23 36
3890.0 21 30 30 38 18 27 14 32 28 15
3930.0 28 29 31 38 41 35 19 25 21 30
##END=
