##TITLE=1,3-Benzoxathiol-2-one, 4,6-dimethyl-5-hydroxy-,
##JCAMP-DX=4.24
##DATA TYPE=INFRARED SPECTRUM
##ORIGIN=Sadtler Research Labs Under US-EPA Contract
##OWNER=NIST Standard Reference Data Program
##CAS REGISTRY NO=7735-65-1
##MOLFORM=C 9 H 8 O 3 S
##XUNITS=1/CM
##YUNITS=ABSORBANCE
##XFACTOR=1.0
##YFACTOR=0.000161011
##DELTAX=4.0
##FIRSTX=450.0
##LASTX=3966.0
##FIRSTY=0.010788
##MAXX=3966
##MINX=450
##MAXY=1.61011
##MINY=0
##NPOINTS=880
##XYDATA=(X++(Y..Y))
450.0 67 60 80 75 52 74 69 39 41 9
490.0 31 33 45 52 51 73 81 64 91 132
530.0 164 130 95 68 24 25 32 23 28 25
570.0 54 79 113 99 51 19 24 22 27 26
610.0 25 31 38 51 53 90 122 190 278 313
650.0 362 344 335 170 64 35 15 12 8 14
690.0 24 20 18 5 5 16 28 44 61 76
730.0 95 138 158 171 151 88 51 30 29 32
770.0 28 30 32 43 43 51 47 59 59 77
810.0 90 129 214 429 741 956 984 740 453 397
850.0 440 459 365 254 166 96 70 51 55 51
890.0 50 57 62 64 64 71 76 85 90 93
930.0 100 115 136 176 219 269 310 321 297 260
970.0 221 203 206 236 297 408 606 915 1277 1587
1010.0 1771 1797 1695 1572 1428 1249 1072 942 847 757
1050.0 658 574 540 559 628 760 893 924 849 673
1090.0 434 278 202 167 155 148 144 134 129 110
1130.0 106 106 111 115 125 144 178 254 414 662
1170.0 816 791 636 418 336 373 488 682 936 1167
1210.0 1332 1413 1351 1192 969 703 524 444 388 331
1250.0 263 214 178 165 169 183 212 238 263 287
1290.0 326 375 456 544 608 595 512 396 332 313
1330.0 309 292 222 190 187 187 194 183 162 153
1370.0 148 125 153 200 214 227 210 184 221 270
1410.0 321 443 509 740 943 1151 1233 1257 1224 1140
1450.0 1045 958 859 868 859 824 691 587 490 338
1490.0 226 209 149 134 73 29 60 42 13 65
1530.0 62 81 58 22 42 84 72 22 64 94
1570.0 87 95 110 122 161 170 184 171 175 156
1610.0 149 159 134 161 124 150 104 93 120 128
1650.0 107 140 207 230 223 206 167 204 152 145
1690.0 192 227 196 231 275 328 330 335 471 575
1730.0 603 526 477 428 447 553 733 871 914 893
1770.0 814 845 1107 1781 3486 6814 9903 10000 8402 3836
1810.0 1448 687 411 257 189 140 137 127 92 49
1850.0 53 52 39 35 21 8 37 50 58 57
1890.0 37 29 25 20 18 16 14 7 0 16
1930.0 23 23 31 27 41 59 67 72 75 65
1970.0 61 58 52 52 55 48 61 82 96 105
2010.0 112 105 96 88 81 70 66 57 46 43
2050.0 38 37 41 43 44 57 65 73 73 69
2090.0 59 48 40 31 27 21 20 19 18 15
2130.0 13 14 9 10 8 12 8 9 7 7
2170.0 7 5 7 6 7 6 5 4 3 3
2210.0 2 4 4 5 5 6 7 8 9 12
2250.0 10 13 10 12 8 4 6 5 7 10
2290.0 12 14 18 19 20 26 23 23 23 19
2330.0 20 15 12 17 20 27 20 15 10 12
2370.0 14 13 18 20 17 14 12 13 14 18
2410.0 17 17 15 14 14 12 14 14 14 14
2450.0 18 18 19 14 15 15 13 14 12 13
2490.0 12 9 9 9 9 12 14 14 12 14
2530.0 16 17 20 19 17 16 14 12 12 14
2570.0 12 10 13 12 9 13 13 15 14 16
2610.0 17 19 18 17 18 18 17 17 16 16
2650.0 14 16 16 14 12 14 15 17 15 16
2690.0 17 16 18 16 16 17 20 21 18 18
2730.0 21 24 26 31 36 36 38 35 30 28
2770.0 24 21 24 26 26 27 29 28 31 31
2810.0 30 31 33 38 41 47 51 57 67 74
2850.0 84 99 115 138 159 175 187 187 176 166
2890.0 152 141 140 148 159 181 208 245 287 316
2930.0 329 324 312 286 257 218 181 152 142 135
2970.0 135 135 137 139 142 136 127 114 97 82
3010.0 77 74 71 71 70 74 72 74 74 74
3050.0 67 64 61 55 52 52 49 47 40 38
3090.0 33 29 27 25 24 24 18 18 19 21
3130.0 20 19 17 18 18 19 16 16 16 18
3170.0 17 17 17 18 18 21 17 17 16 16
3210.0 21 16 17 18 19 18 18 19 19 22
3250.0 18 19 23 22 21 26 26 23 23 23
3290.0 25 26 28 27 26 26 32 31 29 30
3330.0 31 31 31 30 36 41 39 36 40 42
3370.0 38 43 45 41 44 48 47 46 52 51
3410.0 53 51 54 59 55 57 58 55 55 53
3450.0 58 54 59 53 51 57 60 54 51 49
3490.0 52 46 46 44 38 42 40 45 45 40
3530.0 42 45 41 35 31 35 46 55 71 76
3570.0 90 98 89 69 37 24 24 13 12 12
3610.0 9 9 23 31 50 69 114 177 284 441
3650.0 607 679 612 451 251 118 52 27 21 14
3690.0 1 4 4 2 4 0 0 0 0 0
3730.0 0 0 0 0 0 0 0 1 0 0
3770.0 0 0 0 4 2 0 1 0 0 1
3810.0 0 3 0 0 0 0 1 0 0 0
3850.0 0 0 0 0 1 0 0 0 4 0
3890.0 10 2 0 0 1 0 4 1 0 0
3930.0 0 3 2 0 9 0 0 0 0 1
##END=
