##TITLE=5',6',7',8'-Tetrahydro-2'-acetonaphthone
##JCAMP-DX=4.24
##DATA TYPE=INFRARED SPECTRUM
##ORIGIN=Sadtler Research Labs Under US-EPA Contract
##OWNER=NIST Standard Reference Data Program
##CAS REGISTRY NO=774-55-0
##MOLFORM=C 12 H 14 O
##XUNITS=1/CM
##YUNITS=ABSORBANCE
##XFACTOR=1.0
##YFACTOR=0.000084485
##DELTAX=4.0
##FIRSTX=450.0
##LASTX=3966.0
##FIRSTY=0.011912
##MAXX=3966
##MINX=450
##MAXY=0.84485
##MINY=0
##NPOINTS=880
##XYDATA=(X++(Y..Y))
450.0 141 95 3 57 60 77 16 60 29 25
490.0 58 12 38 58 86 49 54 45 54 36
530.0 28 31 28 77 68 95 153 188 236 352
570.0 493 647 682 683 629 615 620 590 532 448
610.0 352 277 271 262 258 226 208 199 156 129
650.0 111 106 102 155 225 316 332 285 184 102
690.0 79 102 123 142 154 135 86 65 49 45
730.0 56 69 56 45 35 22 14 13 24 26
770.0 43 70 59 64 86 138 225 339 474 600
810.0 629 676 696 765 842 895 823 667 513 436
850.0 344 295 226 159 123 122 126 144 169 174
890.0 178 183 196 232 280 337 397 411 418 428
930.0 431 419 415 423 481 626 776 882 918 849
970.0 714 530 359 275 226 201 194 196 198 200
1010.0 213 229 262 291 284 246 194 171 158 149
1050.0 156 165 183 192 203 212 214 223 222 215
1090.0 188 175 176 199 250 342 486 680 867 1012
1130.0 1071 1051 973 812 639 485 409 470 660 1002
1170.0 1403 1654 1620 1333 929 693 615 584 577 580
1210.0 619 696 838 1062 1411 1817 2138 2316 2360 2464
1250.0 2816 3702 5191 6740 7445 6796 5052 3303 2310 1865
1290.0 1674 1585 1467 1269 996 740 583 529 534 528
1330.0 526 538 598 794 1113 1626 2302 2798 2872 2456
1370.0 1731 1101 738 563 486 475 514 614 818 1103
1410.0 1414 1617 1625 1474 1239 1117 1085 1159 1161 1123
1450.0 1040 891 799 726 624 512 349 257 250 250
1490.0 269 319 305 269 191 130 115 110 99 115
1530.0 128 143 171 171 222 275 353 423 612 801
1570.0 949 962 863 675 529 511 612 841 1159 1437
1610.0 1469 1246 837 509 343 282 257 237 256 272
1650.0 315 388 508 582 611 619 627 816 1110 1851
1690.0 3207 5575 8339 10000 9761 7637 4641 2623 1499 981
1730.0 692 596 594 612 602 524 450 331 254 187
1770.0 154 122 132 120 118 102 93 92 75 86
1810.0 68 64 59 57 46 42 45 52 49 41
1850.0 54 56 56 56 58 52 58 59 51 48
1890.0 46 54 54 59 55 51 45 48 54 67
1930.0 82 84 89 67 57 47 37 31 26 17
1970.0 11 10 10 8 5 3 3 4 6 4
2010.0 7 5 7 10 16 14 20 17 16 14
2050.0 6 8 5 5 2 5 6 4 3 1
2090.0 0 0 2 0 1 5 6 4 5 4
2130.0 3 1 2 4 6 10 4 8 7 10
2170.0 9 13 6 7 6 4 8 11 11 11
2210.0 12 15 18 17 17 16 17 14 10 11
2250.0 7 12 11 10 7 8 10 7 9 8
2290.0 12 16 21 22 20 24 26 24 30 25
2330.0 15 21 24 15 30 12 21 15 12 11
2370.0 22 22 30 23 20 19 15 17 15 20
2410.0 15 16 15 14 13 15 17 15 19 19
2450.0 23 21 23 23 27 23 26 25 20 19
2490.0 19 19 21 21 18 21 22 24 24 27
2530.0 32 29 30 26 28 26 29 32 32 35
2570.0 36 39 42 42 44 51 56 54 50 48
2610.0 44 43 40 43 42 41 41 42 47 51
2650.0 57 65 80 97 101 99 93 78 70 63
2690.0 55 50 45 39 39 40 35 35 33 39
2730.0 40 45 45 53 52 61 59 65 74 78
2770.0 82 83 89 92 102 104 113 122 130 140
2810.0 150 163 182 204 238 288 382 536 764 1014
2850.0 1211 1333 1418 1557 1802 2063 2139 1981 1728 1510
2890.0 1425 1450 1506 1494 1469 1507 1606 1933 2584 3416
2930.0 4266 5154 5960 6441 7177 7239 6311 4571 2718 1728
2970.0 1337 1152 1040 928 844 754 684 655 667 742
3010.0 863 971 1042 1055 1016 943 839 706 590 529
3050.0 490 477 466 470 507 547 589 586 542 467
3090.0 366 290 239 215 198 187 169 148 125 109
3130.0 88 78 71 64 59 57 51 46 50 47
3170.0 43 44 44 47 45 46 36 40 41 41
3210.0 39 41 40 36 34 34 31 32 31 31
3250.0 26 17 25 27 28 23 20 23 21 20
3290.0 20 19 18 19 19 21 23 18 23 17
3330.0 22 23 22 34 31 28 35 40 46 53
3370.0 63 94 129 150 162 157 136 104 75 52
3410.0 40 27 23 25 31 34 32 26 22 31
3450.0 17 15 19 17 24 21 20 20 18 19
3490.0 12 21 24 19 15 15 26 22 23 23
3530.0 21 30 20 19 29 24 24 23 10 19
3570.0 26 26 25 25 26 27 25 22 30 15
3610.0 39 33 33 27 18 40 33 37 42 48
3650.0 46 42 46 35 26 35 27 36 21 49
3690.0 42 36 23 27 29 36 34 27 24 30
3730.0 36 38 44 37 46 30 51 27 33 19
3770.0 29 19 24 42 31 28 29 33 35 42
3810.0 36 39 32 26 28 32 36 35 32 25
3850.0 24 35 38 31 32 29 33 41 35 39
3890.0 31 30 40 46 28 37 26 25 26 23
3930.0 37 29 40 32 59 28 30 25 7 19
##END=
