##TITLE=Benzeneacetic acid, .alpha.-hydroxy-, ethyl ester
##JCAMP-DX=4.24
##DATA TYPE=INFRARED SPECTRUM
##ORIGIN=Sadtler Research Labs Under US-EPA Contract
##OWNER=NIST Standard Reference Data Program
##CAS REGISTRY NO=774-40-3
##MOLFORM=C 10 H 12 O 3
##XUNITS=1/CM
##YUNITS=ABSORBANCE
##XFACTOR=1.0
##YFACTOR=0.000084940
##DELTAX=4.0
##FIRSTX=450.0
##LASTX=3966.0
##FIRSTY=0.014525
##MAXX=3966
##MINX=450
##MAXY=0.8494
##MINY=0
##NPOINTS=880
##XYDATA=(X++(Y..Y))
450.0 171 254 311 213 154 203 196 213 150 184
490.0 172 193 235 322 363 412 415 364 278 176
530.0 126 105 82 22 14 52 7 35 42 53
570.0 44 113 124 170 266 337 373 399 347 282
610.0 278 304 328 366 345 285 234 169 119 103
650.0 96 135 152 289 327 561 706 824 1074 1387
690.0 1905 2149 2199 1885 1529 1317 1255 1241 1293 1456
730.0 1603 1651 1506 1231 924 711 593 547 537 513
770.0 500 465 427 356 292 246 195 150 123 102
810.0 78 59 44 30 18 5 5 17 30 60
850.0 99 149 226 313 375 384 319 204 98 57
890.0 41 49 71 109 156 184 201 212 231 267
930.0 307 332 318 267 209 144 102 89 90 106
970.0 124 129 140 143 163 200 263 382 532 749
1010.0 1067 1497 2007 2464 2693 2644 2441 2185 2022 1971
1050.0 2047 2274 2615 2948 3156 3205 3137 3055 3115 3312
1090.0 3523 3632 3594 3460 3249 2990 2659 2262 1822 1464
1130.0 1237 1133 1119 1180 1307 1514 1799 2148 2590 3156
1170.0 3895 4787 5743 6553 6913 6875 6588 6368 6442 6649
1210.0 6598 6168 5438 4759 4333 4153 4161 4316 4647 5117
1250.0 5656 6065 6231 6064 5708 5265 4841 4419 3952 3456
1290.0 3001 2681 2465 2290 2085 1834 1559 1301 1112 967
1330.0 853 763 696 653 629 620 646 712 844 1035
1370.0 1164 1216 1142 1021 901 841 792 746 717 677
1410.0 612 539 451 403 380 385 409 470 577 702
1450.0 850 926 928 855 769 732 674 637 608 611
1490.0 660 748 718 601 392 207 117 75 61 52
1530.0 52 40 50 7 32 18 35 0 36 30
1570.0 40 31 71 67 94 125 173 207 239 226
1610.0 172 116 64 39 32 24 34 15 32 38
1650.0 34 35 74 54 79 102 109 163 195 246
1690.0 317 404 477 594 692 775 853 959 1160 1494
1730.0 2174 3289 5154 7319 9384 10000 9404 7600 5750 4286
1770.0 3252 2389 1731 1281 1009 833 733 653 556 460
1810.0 354 279 223 182 139 115 93 92 74 72
1850.0 72 76 81 94 102 111 127 128 135 132
1890.0 130 120 102 79 64 55 44 40 46 50
1930.0 69 86 106 118 127 121 126 121 111 84
1970.0 58 39 25 25 20 18 15 19 16 17
2010.0 17 17 14 15 19 20 25 24 25 31
2050.0 29 31 30 34 35 39 40 43 43 38
2090.0 36 34 34 33 30 27 31 32 29 31
2130.0 27 29 26 23 23 19 17 18 18 17
2170.0 17 16 12 13 12 17 12 12 11 11
2210.0 10 9 11 6 7 8 5 8 9 4
2250.0 8 5 5 5 5 4 4 9 7 5
2290.0 4 10 7 14 11 26 24 25 25 5
2330.0 5 7 20 4 70 3 34 8 0 2
2370.0 18 13 40 35 29 21 26 24 22 24
2410.0 21 23 21 22 18 21 19 18 19 15
2450.0 18 17 19 17 18 15 16 15 15 12
2490.0 12 12 9 12 8 12 8 9 7 8
2530.0 6 6 8 6 11 9 10 7 9 8
2570.0 10 8 11 12 12 19 18 16 18 22
2610.0 20 17 22 21 21 21 22 18 19 14
2650.0 18 14 16 18 17 23 20 24 23 22
2690.0 21 22 17 16 14 13 19 23 26 27
2730.0 31 31 34 33 34 34 39 41 44 49
2770.0 54 59 63 66 70 70 74 75 75 75
2810.0 77 90 96 105 114 123 131 146 161 176
2850.0 192 209 228 247 267 293 332 383 445 502
2890.0 549 583 626 689 766 843 893 898 867 836
2930.0 831 873 971 1097 1155 1130 1048 948 917 987
2970.0 1108 1272 1516 1878 2200 2309 2136 1787 1472 1256
3010.0 1078 940 845 806 846 961 1133 1289 1332 1219
3050.0 1042 871 810 894 1122 1411 1556 1493 1252 965
3090.0 802 725 654 568 476 399 326 266 203 147
3130.0 116 90 74 67 67 61 61 58 57 52
3170.0 60 55 45 42 41 35 29 31 30 25
3210.0 26 29 24 24 22 20 18 20 22 19
3250.0 17 18 11 9 11 18 16 9 10 13
3290.0 8 4 3 4 4 6 6 10 4 4
3330.0 11 6 6 10 8 12 11 12 8 17
3370.0 15 12 9 16 14 23 18 25 25 20
3410.0 21 20 21 21 21 26 22 33 27 30
3450.0 29 36 42 57 64 76 77 84 79 72
3490.0 74 79 94 95 113 113 122 132 145 181
3530.0 214 268 340 474 698 967 1241 1475 1559 1591
3570.0 1470 1294 1095 906 753 597 494 381 318 265
3610.0 264 242 257 297 351 449 436 400 344 274
3650.0 249 176 136 117 72 109 68 103 42 62
3690.0 46 57 39 41 37 52 39 43 41 45
3730.0 34 53 49 16 82 6 56 20 28 29
3770.0 32 31 9 28 15 24 12 41 16 54
3810.0 3 46 40 37 34 20 40 57 33 19
3850.0 55 56 44 34 40 53 46 41 43 59
3890.0 17 44 31 67 41 28 11 33 33 26
3930.0 57 43 15 7 32 29 33 15 16 8
##END=
