##TITLE=Benzene, 1-fluoro-4-(2-nitro-1-propenyl)-
##JCAMP-DX=4.24
##DATA TYPE=INFRARED SPECTRUM
##ORIGIN=Sadtler Research Labs Under US-EPA Contract
##OWNER=NIST Standard Reference Data Program
##CAS REGISTRY NO=775-31-5
##MOLFORM=C 9 H 8 F N O 2
##XUNITS=1/CM
##YUNITS=ABSORBANCE
##XFACTOR=1.0
##YFACTOR=0.000079700
##DELTAX=4.0
##FIRSTX=450.0
##LASTX=3966.0
##FIRSTY=0.002949
##MAXX=3966
##MINX=450
##MAXY=0.797
##MINY=0
##NPOINTS=880
##XYDATA=(X++(Y..Y))
450.0 37 222 217 133 69 110 122 77 92 158
490.0 219 299 417 710 1051 1346 1496 1589 1626 1691
530.0 1505 1222 1027 826 706 425 239 143 92 63
570.0 62 49 14 35 9 39 16 37 11 17
610.0 16 33 24 13 29 20 28 15 37 29
650.0 43 36 26 26 4 56 42 57 60 76
690.0 85 89 144 184 244 281 309 283 272 262
730.0 218 187 164 135 111 104 114 119 102 121
770.0 138 209 364 507 591 541 429 386 417 500
810.0 659 871 1151 1515 1938 2389 2687 2945 3185 3304
850.0 2977 2275 1534 1243 1220 1178 1053 825 648 575
890.0 605 662 741 789 806 753 615 464 339 251
930.0 199 194 171 195 197 217 249 288 374 470
970.0 659 949 1387 1653 1588 1146 667 441 346 339
1010.0 410 450 411 321 223 221 211 200 195 177
1050.0 174 156 166 145 165 173 198 219 259 316
1090.0 352 404 407 437 397 380 332 304 257 221
1130.0 221 172 174 132 214 189 994 2392 2658 2335
1170.0 893 283 298 219 254 245 293 307 402 511
1210.0 634 815 1056 1369 1681 2288 3741 6730 9584 10000
1250.0 7181 3439 1666 1065 779 664 626 625 627 625
1290.0 641 672 751 863 1069 1322 1666 2196 3208 4877
1330.0 6657 7438 6717 5186 3915 3058 2252 1567 1114 897
1370.0 813 810 899 1060 1221 1365 1390 1312 1187 1022
1410.0 881 810 657 653 595 625 621 703 743 756
1450.0 709 657 577 578 573 544 487 496 614 670
1490.0 856 1230 1835 3179 5528 8293 8875 7578 5210 4483
1530.0 4977 6043 7423 8325 8610 7874 6414 4800 3683 2963
1570.0 2424 2096 1889 1755 1745 1735 1908 2266 2879 3292
1610.0 3035 2217 1256 753 521 467 375 342 338 327
1650.0 265 295 370 445 532 528 400 291 127 81
1690.0 98 104 42 50 64 100 77 45 103 121
1730.0 100 54 89 83 74 64 123 140 176 176
1770.0 127 68 80 67 67 62 53 59 41 75
1810.0 52 52 54 44 31 18 31 42 23 15
1850.0 35 50 52 56 52 45 92 114 139 165
1890.0 181 188 181 154 112 79 46 39 16 26
1930.0 34 31 40 27 37 37 35 27 32 16
1970.0 24 27 25 27 27 20 22 38 37 43
2010.0 46 46 51 64 74 69 62 43 35 31
2050.0 33 29 35 35 32 43 43 46 44 45
2090.0 39 36 32 23 23 21 22 18 17 12
2130.0 10 7 5 4 7 3 4 8 6 12
2170.0 14 15 18 19 17 16 21 19 22 20
2210.0 20 19 21 21 21 20 18 17 19 19
2250.0 20 23 28 28 24 23 22 24 21 20
2290.0 25 28 35 36 41 40 39 42 51 51
2330.0 56 60 53 64 58 57 69 63 73 59
2370.0 57 57 56 55 52 46 46 56 58 62
2410.0 55 45 37 37 42 42 42 43 49 44
2450.0 47 44 44 46 47 48 56 62 67 65
2490.0 53 43 36 27 27 27 27 21 23 24
2530.0 21 19 19 20 27 27 36 35 37 42
2570.0 38 33 22 17 12 9 8 5 6 6
2610.0 8 6 5 10 12 10 14 14 16 18
2650.0 26 33 32 27 25 25 23 15 16 10
2690.0 10 12 12 15 16 16 17 20 22 21
2730.0 22 21 22 26 29 35 35 39 40 40
2770.0 36 33 36 29 31 29 39 36 43 50
2810.0 54 60 66 76 85 97 111 119 125 138
2850.0 132 144 173 212 232 229 222 202 179 165
2890.0 143 125 107 94 78 59 37 14 0 22
2930.0 77 156 220 269 294 285 261 232 216 215
2970.0 223 233 249 257 255 247 241 246 255 258
3010.0 250 219 173 136 118 122 139 175 239 319
3050.0 385 404 376 320 283 256 237 235 216 192
3090.0 150 117 103 106 110 116 118 114 116 107
3130.0 95 70 56 44 32 25 27 26 26 26
3170.0 25 24 23 28 21 18 14 18 14 13
3210.0 14 10 16 14 15 18 20 17 20 15
3250.0 15 16 16 18 23 16 17 23 16 14
3290.0 25 14 15 16 15 10 10 13 14 15
3330.0 11 9 17 15 14 14 14 21 15 17
3370.0 14 11 14 14 17 19 10 7 9 13
3410.0 16 19 13 12 13 24 12 13 10 4
3450.0 10 16 10 17 15 10 11 11 12 20
3490.0 13 2 14 17 7 15 12 14 10 8
3530.0 8 11 19 16 11 7 17 14 16 8
3570.0 19 10 15 14 9 28 19 21 6 12
3610.0 21 24 19 17 20 18 12 24 24 20
3650.0 13 20 21 4 26 10 19 7 22 35
3690.0 19 22 21 33 24 28 23 18 23 29
3730.0 22 32 26 28 22 22 18 11 13 27
3770.0 9 10 7 10 19 16 8 1 18 20
3810.0 24 15 14 17 24 19 24 29 35 27
3850.0 17 19 17 13 17 25 14 22 24 27
3890.0 31 20 11 29 23 39 25 12 17 26
3930.0 16 20 17 22 17 26 29 18 3 33
##END=
