##TITLE=Silane, diphenyl-
##JCAMP-DX=4.24
##DATA TYPE=INFRARED SPECTRUM
##ORIGIN=Sadtler Research Labs Under US-EPA Contract
##OWNER=NIST Standard Reference Data Program
##CAS REGISTRY NO=775-12-2
##MOLFORM=C 12 H 12 Si
##XUNITS=1/CM
##YUNITS=ABSORBANCE
##XFACTOR=1.0
##YFACTOR=0.000184598
##DELTAX=4.0
##FIRSTX=450.0
##LASTX=3966.0
##FIRSTY=0.004246
##MAXX=3966
##MINX=450
##MAXY=1.84598
##MINY=0
##NPOINTS=880
##XYDATA=(X++(Y..Y))
450.0 23 18 35 95 180 264 356 399 375 303
490.0 209 131 71 35 15 30 10 7 2 10
530.0 10 2 11 18 25 15 15 19 36 53
570.0 106 176 352 618 895 1066 1012 784 525 313
610.0 175 105 84 68 59 46 37 26 27 32
650.0 33 51 53 84 101 184 285 367 531 717
690.0 1052 1288 1515 1392 1268 1081 930 836 873 1115
730.0 1369 1340 979 636 479 421 350 277 223 174
770.0 142 108 79 67 56 53 53 60 66 76
810.0 73 72 78 104 135 196 318 640 2060 6572
850.0 8895 10000 5550 1958 724 396 264 191 152 136
890.0 178 266 314 285 242 214 227 275 401 662
930.0 1059 1532 1867 1875 1637 1247 786 444 238 132
970.0 81 55 44 37 35 32 42 49 48 41
1010.0 33 28 24 26 30 32 25 19 19 29
1050.0 42 55 68 84 96 103 112 112 120 137
1090.0 181 269 397 503 560 607 768 1237 1722 1743
1130.0 1178 458 163 87 49 44 29 30 22 32
1170.0 32 35 45 63 130 181 166 85 27 15
1210.0 14 15 20 23 26 23 23 26 31 36
1250.0 41 44 47 52 54 59 67 72 73 73
1290.0 75 81 83 80 70 60 61 66 74 78
1330.0 77 77 65 53 41 35 32 34 34 39
1370.0 41 39 37 36 31 29 29 33 42 59
1410.0 84 137 214 323 434 494 487 419 317 211
1450.0 136 87 57 45 37 33 37 45 71 95
1490.0 93 68 33 20 15 16 18 18 21 25
1530.0 30 28 35 40 41 43 46 47 45 45
1570.0 44 45 48 51 60 66 65 52 42 35
1610.0 35 34 36 30 30 30 31 32 32 31
1650.0 32 24 25 25 26 25 21 20 23 22
1690.0 21 21 17 18 17 12 9 13 8 10
1730.0 10 13 15 17 20 23 27 31 33 29
1770.0 32 31 32 25 23 17 24 28 42 66
1810.0 98 115 106 85 59 50 37 30 21 18
1850.0 16 16 17 23 32 42 55 65 75 77
1890.0 86 95 91 69 39 18 14 13 14 15
1930.0 17 25 37 50 67 77 85 89 95 96
1970.0 82 57 31 20 16 15 15 14 14 14
2010.0 12 12 9 9 5 5 4 5 3 4
2050.0 4 3 5 7 7 9 11 13 15 15
2090.0 15 17 23 25 33 49 68 105 172 314
2130.0 609 1231 2274 3580 4588 4609 3866 2729 1550 763
2170.0 340 165 91 63 50 39 30 22 17 13
2210.0 15 12 13 13 15 13 12 12 9 9
2250.0 9 10 10 9 10 10 13 13 15 15
2290.0 17 18 17 17 19 25 35 38 36 30
2330.0 29 26 24 32 34 34 35 23 15 17
2370.0 17 15 12 9 9 6 6 5 5 3
2410.0 3 1 0 1 1 1 1 1 2 2
2450.0 4 0 2 2 2 0 1 2 1 2
2490.0 2 4 4 2 3 3 3 2 4 5
2530.0 5 3 5 3 5 4 6 5 5 6
2570.0 6 6 10 10 14 14 11 9 8 10
2610.0 10 14 15 15 10 7 7 5 4 5
2650.0 3 3 5 5 4 7 7 7 8 10
2690.0 11 15 14 15 16 17 17 14 12 8
2730.0 7 6 6 3 6 5 3 4 2 4
2770.0 4 4 3 3 7 5 7 9 12 12
2810.0 14 13 15 16 17 16 15 14 14 15
2850.0 15 17 15 16 13 12 13 12 14 16
2890.0 21 26 30 34 37 35 39 38 35 34
2930.0 23 22 18 17 15 18 18 19 22 24
2970.0 29 30 36 45 60 83 121 167 226 295
3010.0 389 520 612 628 536 429 358 309 265 281
3050.0 366 589 1060 1448 1465 1228 982 949 874 756
3090.0 626 512 399 257 147 86 60 43 39 41
3130.0 46 59 71 78 72 52 26 19 13 12
3170.0 13 13 11 13 14 11 10 9 11 10
3210.0 11 10 9 8 9 10 9 9 7 8
3250.0 7 9 6 9 7 8 10 8 10 7
3290.0 6 5 7 10 7 6 10 8 10 10
3330.0 10 10 8 7 7 5 6 10 12 11
3370.0 7 7 9 11 10 9 13 9 11 10
3410.0 11 12 14 12 7 9 8 13 13 12
3450.0 12 9 13 9 9 12 11 12 11 13
3490.0 9 9 10 11 11 11 11 11 9 9
3530.0 8 13 9 12 13 11 12 11 9 5
3570.0 1 9 10 10 10 8 11 14 11 12
3610.0 13 12 15 16 15 12 15 14 17 15
3650.0 15 15 9 14 15 14 16 15 17 15
3690.0 18 24 24 20 17 18 14 14 13 13
3730.0 15 16 19 15 16 19 17 18 16 20
3770.0 18 15 15 9 15 15 14 13 8 15
3810.0 14 14 11 14 14 18 13 16 17 7
3850.0 6 10 19 19 15 16 15 12 12 9
3890.0 15 12 17 13 19 15 12 8 15 17
3930.0 14 22 14 11 21 14 8 8 13 16
##END=
