##TITLE=2,5-Furandione, dihydro-3-(1-octenyl)-
##JCAMP-DX=4.24
##DATA TYPE=INFRARED SPECTRUM
##ORIGIN=Sadtler Research Labs Under US-EPA Contract
##OWNER=NIST Standard Reference Data Program
##CAS REGISTRY NO=7757-96-2
##MOLFORM=C 12 H 18 O 3
##XUNITS=1/CM
##YUNITS=ABSORBANCE
##XFACTOR=1.0
##YFACTOR=0.000047769
##DELTAX=4.0
##FIRSTX=450.0
##LASTX=3966.0
##FIRSTY=0.000143
##MAXX=3966
##MINX=450
##MAXY=0.47769
##MINY=0
##NPOINTS=880
##XYDATA=(X++(Y..Y))
450.0 3 302 595 618 356 397 197 107 654 244
490.0 191 556 778 420 330 328 275 95 334 435
530.0 360 504 435 497 458 393 324 474 532 478
570.0 701 642 690 523 654 602 625 495 552 393
610.0 547 513 561 530 451 504 619 462 518 479
650.0 473 520 388 469 510 474 425 559 553 433
690.0 575 458 635 573 602 643 690 654 695 685
730.0 731 599 720 408 184 345 515 446 446 496
770.0 385 426 399 379 453 403 376 382 373 317
810.0 455 423 378 429 387 352 430 450 436 404
850.0 372 419 450 448 551 532 534 810 946 1177
890.0 1466 1570 1858 2121 2196 2550 2842 2854 2825 2639
930.0 2321 2005 1773 1599 1390 1339 1372 1258 1349 1370
970.0 1466 1490 1425 1350 1211 1120 1004 912 1003 965
1010.0 1036 1030 1166 1065 1156 1274 1228 1403 1528 1751
1050.0 1882 2105 2285 2490 2619 2589 2298 2044 1633 1207
1090.0 914 865 705 613 612 576 586 550 537 521
1130.0 512 526 554 570 519 540 567 620 631 660
1170.0 721 751 819 857 918 993 1075 1178 1310 1429
1210.0 1589 1691 1710 1841 1797 1709 1683 1479 1273 1115
1250.0 1023 967 928 812 755 648 689 644 658 618
1290.0 552 573 498 526 562 549 555 512 528 539
1330.0 495 505 490 491 475 444 421 447 417 355
1370.0 343 396 375 392 401 400 375 351 356 349
1410.0 344 365 441 486 567 628 607 607 599 631
1450.0 615 602 595 620 581 566 480 395 345 308
1490.0 299 255 283 256 270 298 231 279 270 228
1530.0 255 221 269 234 251 196 215 287 249 227
1570.0 215 197 226 192 206 168 194 180 220 253
1610.0 190 244 186 225 210 217 249 270 197 268
1650.0 304 314 293 253 263 230 241 230 256 278
1690.0 231 240 289 276 260 234 239 329 337 314
1730.0 311 353 424 342 423 477 513 533 668 842
1770.0 1004 1309 1565 2016 2634 3437 4805 6444 8534 9889
1810.0 10000 8596 6313 4510 3270 2526 1978 1603 1373 1219
1850.0 1119 1061 1056 1160 1356 1682 2077 2374 2231 1669
1890.0 1082 700 504 405 317 293 248 251 238 210
1930.0 190 181 187 173 174 157 151 149 146 133
1970.0 147 129 132 128 119 126 127 127 121 129
2010.0 137 134 132 125 118 115 97 103 112 97
2050.0 85 105 101 104 88 98 92 92 99 96
2090.0 93 101 88 110 118 97 110 107 100 103
2130.0 102 112 107 100 113 118 100 101 77 98
2170.0 87 96 81 86 86 70 79 72 75 80
2210.0 76 65 70 68 75 72 78 65 71 69
2250.0 65 64 69 71 74 64 61 59 65 62
2290.0 62 57 60 56 54 55 52 51 74 58
2330.0 45 51 54 57 59 40 35 26 16 38
2370.0 32 39 35 34 25 20 15 27 31 33
2410.0 23 36 29 31 34 19 30 33 26 20
2450.0 17 20 19 16 18 18 14 13 5 9
2490.0 8 15 18 12 15 16 27 20 25 18
2530.0 24 20 14 17 23 23 26 19 20 27
2570.0 27 24 23 22 20 27 29 22 28 26
2610.0 33 23 22 26 32 25 22 27 38 42
2650.0 46 42 50 37 41 43 43 39 40 47
2690.0 43 42 29 33 40 44 43 46 40 46
2730.0 54 56 59 56 50 64 59 61 60 65
2770.0 54 64 62 70 62 89 80 86 90 92
2810.0 102 113 129 131 168 179 216 249 302 386
2850.0 503 658 854 1010 1097 1112 1065 1001 968 957
2890.0 913 843 826 873 983 1115 1310 1546 1869 2273
2930.0 2734 3054 3096 2857 2466 2044 1727 1610 1684 1874
2970.0 1984 1873 1511 1104 831 662 566 505 452 408
3010.0 392 378 372 378 349 314 283 267 224 187
3050.0 165 140 124 109 99 97 100 101 95 80
3090.0 81 80 84 75 83 81 68 77 77 65
3130.0 75 66 56 52 69 59 62 71 71 64
3170.0 54 59 46 48 60 60 63 63 41 39
3210.0 48 53 56 52 44 40 51 55 49 35
3250.0 24 36 34 52 38 39 39 45 30 41
3290.0 43 36 38 31 37 38 33 29 34 38
3330.0 42 31 22 45 30 43 35 48 47 35
3370.0 49 42 35 19 28 22 51 37 25 24
3410.0 49 50 20 21 38 32 21 22 41 30
3450.0 42 21 34 49 37 30 10 36 13 19
3490.0 36 34 7 30 13 46 7 24 37 24
3530.0 28 28 34 48 11 20 23 61 19 57
3570.0 39 94 83 94 76 36 38 45 58 60
3610.0 77 39 55 51 62 50 116 50 107 102
3650.0 153 137 130 135 129 162 79 178 75 53
3690.0 81 44 15 47 36 44 60 43 25 56
3730.0 17 76 92 11 105 22 110 36 38 48
3770.0 37 68 0 46 54 32 43 42 47 102
3810.0 5 62 45 107 12 93 24 30 57 33
3850.0 69 77 86 50 101 76 13 90 43 76
3890.0 77 70 44 40 83 59 34 62 124 74
3930.0 46 99 44 46 36 41 83 64 84 137
##END=
