##TITLE=3,4-Dimethoxyphenylacetone
##JCAMP-DX=4.24
##DATA TYPE=INFRARED SPECTRUM
##ORIGIN=Sadtler Research Labs Under US-EPA Contract
##OWNER=NIST Standard Reference Data Program
##CAS REGISTRY NO=776-99-8
##MOLFORM=C 11 H 14 O 3
##XUNITS=1/CM
##YUNITS=ABSORBANCE
##XFACTOR=1.0
##YFACTOR=0.000070508
##DELTAX=4.0
##FIRSTX=450.0
##LASTX=3966.0
##FIRSTY=0.011704
##MAXX=3966
##MINX=450
##MAXY=0.70508
##MINY=0
##NPOINTS=880
##XYDATA=(X++(Y..Y))
450.0 166 148 131 181 142 68 16 27 18 73
490.0 136 201 227 233 298 362 398 480 498 612
530.0 619 697 540 450 399 340 283 262 317 262
570.0 298 323 331 294 306 276 304 318 260 278
610.0 275 297 283 327 414 474 547 524 482 367
650.0 300 196 143 118 36 172 74 64 85 113
690.0 134 139 114 127 115 168 223 280 346 386
730.0 455 505 542 579 614 674 780 796 845 797
770.0 755 722 707 665 683 633 566 623 671 681
810.0 753 762 766 724 676 592 482 410 392 412
850.0 409 446 409 480 467 421 482 429 417 373
890.0 339 314 253 260 280 280 336 408 438 480
930.0 518 530 472 405 336 338 320 367 377 444
970.0 457 527 567 637 665 710 812 967 1213 1486
1010.0 1865 2339 2920 3612 4103 4539 4658 4385 3824 2933
1050.0 2100 1454 1036 793 669 591 528 565 548 556
1090.0 588 587 672 774 947 1250 1643 2162 2712 3212
1130.0 3557 3871 4067 4261 4580 4666 4554 4048 3309 2630
1170.0 2128 1858 1778 1750 1785 1779 1772 1848 2029 2390
1210.0 2931 3535 4283 4821 5198 5371 5361 5281 5091 4941
1250.0 4920 5229 6225 7596 9076 9999 10000 9050 7609 6347
1290.0 5299 4480 3734 3167 2757 2428 2076 1912 1766 1653
1330.0 1525 1419 1362 1366 1460 1654 1917 2174 2168 1885
1370.0 1474 1144 974 917 886 876 912 1000 1156 1472
1410.0 1897 2284 2493 2402 2111 1900 1843 1981 2069 2105
1450.0 2125 2125 2252 2381 2562 2524 2353 2033 1817 1908
1490.0 2367 3175 4564 6443 8522 9795 9512 7802 5442 3418
1530.0 2126 1428 1092 932 786 714 706 733 746 826
1570.0 1005 1172 1378 1519 1576 1540 1518 1438 1415 1338
1610.0 1197 1013 812 604 443 376 333 340 311 339
1650.0 317 361 302 347 387 412 491 589 670 822
1690.0 905 991 1165 1378 1683 2156 2780 3679 4612 5316
1730.0 5278 4657 3772 3077 2636 2352 2081 1796 1488 1189
1770.0 940 762 587 495 434 364 376 332 304 275
1810.0 259 229 199 165 167 154 130 133 128 153
1850.0 139 147 154 153 153 152 124 129 125 116
1890.0 123 102 99 97 83 82 90 90 82 68
1930.0 81 81 78 86 91 94 103 90 97 96
1970.0 97 102 110 102 110 121 126 138 140 161
2010.0 165 171 194 208 216 230 230 214 222 189
2050.0 193 180 175 176 168 159 159 159 137 129
2090.0 99 100 75 77 68 57 61 45 52 52
2130.0 44 51 52 54 61 64 60 64 55 44
2170.0 55 60 60 60 60 59 59 58 61 48
2210.0 54 44 45 45 41 45 44 43 43 51
2250.0 49 50 55 48 52 57 63 66 71 72
2290.0 65 80 80 80 78 106 109 104 95 83
2330.0 85 75 88 45 71 65 87 57 9 6
2370.0 0 0 0 3 13 15 20 21 21 22
2410.0 15 28 23 37 33 37 36 40 29 31
2450.0 32 31 31 38 37 37 34 38 39 42
2490.0 45 45 61 54 40 69 69 54 62 59
2530.0 69 75 76 67 77 84 90 92 84 92
2570.0 85 100 92 85 86 89 84 90 78 61
2610.0 73 50 59 60 50 43 46 49 51 39
2650.0 47 52 48 45 40 45 52 45 62 56
2690.0 64 65 66 88 99 109 116 114 117 118
2730.0 111 105 92 89 92 92 83 93 97 103
2770.0 113 105 114 141 157 180 201 240 273 312
2810.0 378 439 521 632 788 1023 1341 1707 1929 1911
2850.0 1691 1353 1112 988 922 903 928 958 998 1055
2890.0 1121 1187 1278 1388 1539 1742 1959 2176 2317 2395
2930.0 2496 2653 2913 3174 3267 3221 3049 2861 2669 2413
2970.0 2165 1933 1713 1585 1529 1577 1742 1989 2318 2562
3010.0 2495 2176 1682 1245 1016 934 919 935 924 919
3050.0 888 854 825 786 709 668 602 529 466 422
3090.0 383 333 301 290 255 232 217 196 161 144
3130.0 145 125 114 94 93 86 68 58 59 50
3170.0 66 57 45 45 34 30 39 45 21 16
3210.0 32 19 24 10 11 11 13 16 13 7
3250.0 12 13 13 8 11 13 0 12 19 15
3290.0 14 17 13 10 14 5 42 29 14 21
3330.0 15 13 15 15 24 17 28 19 21 28
3370.0 17 23 23 17 23 30 26 29 38 41
3410.0 47 56 47 59 67 75 82 103 103 86
3450.0 72 50 43 48 44 48 21 42 34 21
3490.0 21 42 26 32 39 15 33 30 28 36
3530.0 37 35 37 31 24 43 40 46 46 71
3570.0 87 57 94 134 119 143 124 97 81 57
3610.0 67 52 22 40 24 50 38 26 39 48
3650.0 55 48 49 39 34 33 32 13 13 17
3690.0 21 29 30 16 15 22 30 5 1 5
3730.0 10 3 10 2 17 0 3 0 0 0
3770.0 0 0 0 0 0 0 0 0 0 0
3810.0 0 0 0 0 0 0 0 0 0 0
3850.0 0 0 0 0 0 0 0 0 0 0
3890.0 0 0 0 0 0 0 0 0 0 0
3930.0 0 0 0 0 0 0 0 0 0 0
##END=
