##TITLE=Benzeneethanol, 2-hydroxy-
##JCAMP-DX=4.24
##DATA TYPE=INFRARED SPECTRUM
##ORIGIN=Sadtler Research Labs Under US-EPA Contract
##OWNER=NIST Standard Reference Data Program
##CAS REGISTRY NO=7768-28-7
##MOLFORM=C 8 H 10 O 2
##XUNITS=1/CM
##YUNITS=ABSORBANCE
##XFACTOR=1.0
##YFACTOR=0.000060849
##DELTAX=4.0
##FIRSTX=450.0
##LASTX=3966.0
##FIRSTY=0.000000
##MAXX=3966
##MINX=450
##MAXY=0.60849
##MINY=0
##NPOINTS=880
##XYDATA=(X++(Y..Y))
450.0 0 316 369 447 441 491 674 723 820 1017
490.0 1053 861 670 605 412 375 353 449 446 523
530.0 554 518 488 500 509 469 502 510 529 492
570.0 495 463 491 524 552 629 701 756 667 649
610.0 583 536 467 430 423 371 382 325 324 314
650.0 323 302 304 307 298 415 388 424 494 472
690.0 445 486 537 619 699 808 965 1121 1330 1590
730.0 2139 3047 4294 5692 7805 10000 8121 6104 4329 2568
770.0 1415 861 647 505 417 381 345 330 314 361
810.0 454 610 882 1223 1521 1682 1673 1533 1353 1282
850.0 1286 1306 1281 1205 1066 877 669 534 431 380
890.0 337 323 307 298 300 315 352 403 496 579
930.0 697 734 733 751 762 791 780 762 730 727
970.0 736 800 915 1039 1192 1375 1624 1882 2137 2402
1010.0 2651 2886 3099 3429 3913 4766 5974 7215 8023 8059
1050.0 7309 6078 4912 3950 3208 2620 2296 2163 2261 2555
1090.0 3016 3441 3660 3706 3355 2725 2159 1825 1621 1554
1130.0 1564 1656 1827 2107 2458 2689 2997 3338 3630 3849
1170.0 4003 4111 4033 3836 3765 3875 4133 4527 4989 5466
1210.0 5887 6378 6828 7304 7728 8055 8228 8203 8119 7857
1250.0 7481 7057 6708 6107 5306 4490 3766 3159 2634 2250
1290.0 2025 1925 1909 1997 2172 2452 2855 3231 3344 3315
1330.0 3232 2863 2527 2354 2321 2370 2421 2480 2513 2511
1370.0 2442 2425 2356 2314 2235 2182 2104 2060 2012 1901
1410.0 1751 1604 1552 1523 1590 1718 1911 2146 2492 2885
1450.0 3588 4216 4189 3874 3695 3662 3929 4561 5576 7027
1490.0 7531 7410 6815 5612 4344 3077 2100 1375 1061 821
1530.0 741 644 632 579 587 593 655 754 964 1225
1570.0 1691 2272 2983 3539 3765 3921 3766 3351 3017 2871
1610.0 2778 2713 2693 2523 2227 1662 1181 721 476 396
1650.0 438 521 612 585 597 557 513 435 414 369
1690.0 350 337 377 374 377 361 362 356 333 307
1730.0 308 345 322 329 336 357 390 389 413 423
1770.0 469 454 455 445 461 411 398 361 363 356
1810.0 347 347 344 343 333 350 346 364 364 386
1850.0 359 354 353 367 364 368 395 421 477 515
1890.0 560 555 539 504 458 429 424 454 489 504
1930.0 505 471 426 364 319 294 295 288 290 283
1970.0 291 293 297 301 297 296 295 302 298 298
2010.0 302 310 304 312 314 327 326 335 341 346
2050.0 352 360 369 372 369 374 370 368 360 360
2090.0 348 344 338 334 328 320 315 307 297 297
2130.0 295 295 293 290 289 287 287 285 287 287
2170.0 283 280 284 283 285 285 283 287 286 291
2210.0 291 288 291 287 285 287 285 286 285 287
2250.0 289 288 294 296 292 297 297 311 312 321
2290.0 331 342 356 372 386 398 396 382 381 353
2330.0 342 326 318 316 354 332 319 297 292 304
2370.0 309 315 337 340 320 299 298 302 314 315
2410.0 323 334 332 329 327 332 330 330 330 328
2450.0 331 330 332 326 329 326 327 327 325 328
2490.0 332 329 325 322 320 314 307 303 297 292
2530.0 284 283 278 275 274 272 268 266 269 272
2570.0 280 276 279 284 286 282 283 280 271 272
2610.0 267 266 259 264 262 260 256 256 256 253
2650.0 246 245 246 245 248 249 250 260 259 266
2690.0 276 285 296 313 319 331 342 343 347 358
2730.0 362 366 372 369 374 377 382 384 382 381
2770.0 383 380 381 378 381 384 382 395 396 410
2810.0 423 436 466 493 533 574 638 721 831 957
2850.0 1094 1245 1394 1550 1723 1944 2248 2635 3103 3556
2890.0 3720 3677 3492 3172 2863 2703 2726 2905 3218 3668
2930.0 4239 4822 5321 5580 5544 5311 4931 4437 3927 3420
2970.0 2881 2351 1901 1536 1268 1092 984 932 931 980
3010.0 1093 1272 1514 1797 2115 2375 2504 2542 2486 2383
3050.0 2232 2126 2095 2186 2317 2429 2481 2435 2295 2029
3090.0 1748 1503 1288 1094 923 778 691 626 579 542
3130.0 505 488 479 488 497 504 521 532 556 574
3170.0 596 600 628 639 651 666 687 697 716 736
3210.0 743 756 770 787 800 832 858 865 891 908
3250.0 935 950 975 981 997 1015 1031 1051 1066 1080
3290.0 1096 1119 1129 1150 1171 1188 1191 1202 1220 1240
3330.0 1250 1264 1293 1301 1324 1355 1393 1428 1467 1514
3370.0 1566 1619 1662 1735 1816 1930 2061 2234 2418 2623
3410.0 2795 2950 3060 3095 3109 3100 3108 3122 3201 3331
3450.0 3526 3770 4034 4221 4330 4339 4224 4032 3787 3534
3490.0 3267 3061 2857 2713 2595 2483 2407 2298 2200 2080
3530.0 1961 1832 1710 1598 1509 1393 1326 1243 1153 1136
3570.0 1073 1018 970 918 902 856 833 768 771 757
3610.0 802 799 869 958 1079 1267 1511 1908 2604 3287
3650.0 3538 3484 3548 3092 2404 2014 1618 1358 1025 779
3690.0 537 399 288 244 244 244 244 244 244 244
3730.0 244 244 244 244 244 244 244 244 244 244
3770.0 244 244 244 244 244 244 244 244 244 244
3810.0 244 244 244 244 244 244 244 244 244 244
3850.0 244 244 244 244 244 244 244 244 244 244
3890.0 244 244 244 244 244 244 244 244 244 244
3930.0 244 244 244 244 244 244 244 244 244 244
##END=
