##TITLE=Benzene, 1-chloro-4-nitro-2-(trifluoromethyl)-
##JCAMP-DX=4.24
##DATA TYPE=INFRARED SPECTRUM
##ORIGIN=Sadtler Research Labs Under US-EPA Contract
##OWNER=NIST Standard Reference Data Program
##CAS REGISTRY NO=777-37-7
##MOLFORM=C 7 H 3 Cl F 3 N O 2
##XUNITS=1/CM
##YUNITS=ABSORBANCE
##XFACTOR=1.0
##YFACTOR=0.000068893
##DELTAX=4.0
##FIRSTX=450.0
##LASTX=3966.0
##FIRSTY=0.025077
##MAXX=3966
##MINX=450
##MAXY=0.68893
##MINY=0
##NPOINTS=880
##XYDATA=(X++(Y..Y))
450.0 364 296 350 232 182 128 113 140 88 123
490.0 0 200 185 173 33 167 267 234 320 408
530.0 700 820 749 396 99 215 120 206 228 216
570.0 117 127 127 142 116 144 215 117 152 256
610.0 384 469 419 286 168 131 230 26 95 89
650.0 187 341 739 1097 1032 628 223 144 188 242
690.0 285 255 194 139 169 161 161 262 534 749
730.0 847 773 898 982 687 492 254 154 104 105
770.0 86 77 67 137 401 680 790 593 261 175
810.0 193 154 149 145 185 337 540 753 733 434
850.0 316 176 131 101 137 117 160 239 563 979
890.0 1113 939 512 247 242 323 497 700 874 736
930.0 442 221 104 68 71 66 82 85 91 77
970.0 95 95 82 89 124 135 95 23 89 58
1010.0 99 106 156 204 396 696 1182 1638 1739 1520
1050.0 1004 633 446 339 278 236 215 206 240 299
1090.0 356 376 441 571 901 1476 2543 3741 4357 3869
1130.0 2497 1718 1357 1140 1181 1403 1888 2673 3910 5740
1170.0 8064 10000 9445 7692 6120 4687 3399 2179 1314 928
1210.0 714 620 523 437 349 307 300 359 528 822
1250.0 1127 1184 1029 729 664 907 1718 3167 4241 4277
1290.0 3317 2762 3591 5105 6673 7294 6499 4721 3148 2186
1330.0 1821 1847 2075 2487 3131 4041 4622 4305 3113 1784
1370.0 990 568 393 320 298 333 397 513 744 1174
1410.0 1596 1730 1483 1083 788 624 562 543 555 508
1450.0 439 430 495 703 1086 1416 1485 1263 915 629
1490.0 457 397 440 496 535 510 448 383 375 419
1530.0 560 879 1467 2354 3380 4171 4254 3611 2557 1575
1570.0 1001 874 959 1275 1631 1830 1706 1337 1091 1104
1610.0 1339 1693 1938 1818 1345 765 400 251 202 179
1650.0 171 154 148 145 142 139 139 121 106 82
1690.0 65 59 61 55 52 51 53 49 43 52
1730.0 47 46 55 53 52 47 50 55 48 49
1770.0 52 57 52 41 45 55 57 65 67 60
1810.0 56 40 39 37 48 68 89 102 103 96
1850.0 80 57 43 36 35 37 35 36 36 41
1890.0 44 48 51 51 53 43 53 65 75 80
1930.0 90 82 67 52 51 39 29 38 35 31
1970.0 39 28 34 25 27 24 29 29 34 31
2010.0 29 31 33 24 24 26 17 24 20 21
2050.0 16 17 14 29 22 31 34 17 19 25
2090.0 38 33 30 41 43 43 31 36 39 35
2130.0 30 33 35 37 44 34 41 37 35 36
2170.0 45 44 35 41 36 41 39 41 46 46
2210.0 42 43 51 49 51 46 50 51 54 48
2250.0 50 49 61 53 51 53 48 51 52 58
2290.0 60 64 52 45 29 33 20 19 11 21
2330.0 28 11 22 57 44 36 11 14 29 38
2370.0 33 80 86 82 83 69 70 56 52 59
2410.0 61 46 57 63 51 55 62 80 70 66
2450.0 64 62 66 71 73 66 73 72 75 63
2490.0 57 55 53 58 59 49 59 62 49 58
2530.0 64 66 60 55 55 42 50 56 51 54
2570.0 52 54 52 56 59 73 66 65 60 63
2610.0 72 60 75 76 71 68 79 69 84 70
2650.0 80 101 95 81 73 67 59 85 66 76
2690.0 82 74 84 79 78 79 94 101 84 80
2730.0 75 67 54 42 50 56 49 50 52 60
2770.0 56 51 43 48 53 56 50 40 51 42
2810.0 39 43 49 59 59 56 58 59 54 56
2850.0 61 70 79 83 94 91 94 111 116 124
2890.0 131 127 137 128 126 112 99 81 85 74
2930.0 78 89 77 73 90 64 65 66 80 82
2970.0 65 64 78 55 66 54 64 73 41 52
3010.0 63 62 53 59 59 69 55 53 51 64
3050.0 65 65 58 63 51 58 67 55 76 105
3090.0 156 207 285 302 261 208 190 210 203 159
3130.0 109 68 62 58 61 45 29 46 45 41
3170.0 45 62 61 46 51 43 60 42 51 52
3210.0 59 45 55 56 39 52 65 41 54 64
3250.0 54 52 29 42 56 44 51 64 12 50
3290.0 55 50 31 18 42 70 36 27 43 36
3330.0 45 36 40 28 21 43 41 26 42 39
3370.0 46 44 34 17 39 27 38 34 34 51
3410.0 26 24 20 19 42 50 41 25 33 40
3450.0 60 34 37 45 26 42 41 58 36 38
3490.0 42 33 22 22 33 18 39 44 39 34
3530.0 18 44 54 34 49 60 36 38 13 43
3570.0 39 44 12 31 40 52 38 74 48 61
3610.0 26 73 43 45 29 57 48 55 61 79
3650.0 59 63 34 68 44 55 86 51 70 71
3690.0 87 72 78 53 55 68 61 65 46 48
3730.0 57 47 43 69 77 74 66 68 57 44
3770.0 82 81 86 70 95 69 45 62 51 41
3810.0 30 47 14 40 57 72 71 68 47 70
3850.0 96 95 104 43 68 42 37 76 63 71
3890.0 62 15 61 47 112 73 42 53 71 70
3930.0 16 26 81 42 126 72 8 65 55 90
##END=
