##TITLE=2-Propenoic acid, 3-phenyl-, cyclohexyl ester
##JCAMP-DX=4.24
##DATA TYPE=INFRARED SPECTRUM
##ORIGIN=Sadtler Research Labs Under US-EPA Contract
##OWNER=NIST Standard Reference Data Program
##CAS REGISTRY NO=7779-17-1
##MOLFORM=C 15 H 18 O 2
##XUNITS=1/CM
##YUNITS=ABSORBANCE
##XFACTOR=1.0
##YFACTOR=0.000075427
##DELTAX=4.0
##FIRSTX=450.0
##LASTX=3966.0
##FIRSTY=0.000000
##MAXX=3966
##MINX=450
##MAXY=0.75427
##MINY=0
##NPOINTS=880
##XYDATA=(X++(Y..Y))
450.0 0 58 192 38 162 109 183 139 222 199
490.0 66 194 114 108 56 114 103 81 62 65
530.0 73 60 68 89 61 163 237 389 373 338
570.0 291 281 122 183 287 283 216 115 199 122
610.0 145 139 118 81 129 79 84 96 112 77
650.0 134 131 146 202 226 355 378 451 539 689
690.0 741 687 692 680 689 615 499 373 306 353
730.0 425 401 285 347 393 468 617 801 931 952
770.0 770 559 405 290 196 126 210 196 191 182
810.0 186 184 185 219 228 245 231 271 281 261
850.0 278 308 333 353 440 376 296 305 314 354
890.0 398 428 436 419 420 407 429 475 587 655
930.0 659 615 566 525 448 389 365 421 538 715
970.0 985 1240 1433 1521 1471 1251 949 767 779 862
1010.0 1014 1242 1521 1712 1530 1342 1445 1748 2043 2033
1050.0 1589 1029 714 598 555 523 480 434 427 411
1090.0 449 486 504 520 541 617 772 1025 1372 1560
1130.0 1376 1035 887 929 1147 1553 2160 2850 4230 7052
1170.0 10000 8828 5331 3349 2712 2353 2627 3248 3197 2206
1210.0 1376 1108 1050 1115 1270 1554 1938 2283 2457 2751
1250.0 3326 3641 3630 3756 4023 3948 3468 2848 2305 1991
1290.0 2058 2377 2655 2921 3205 3138 2618 2196 2062 2108
1330.0 1992 1587 1319 1105 894 789 754 696 664 622
1370.0 604 631 602 509 412 337 302 280 259 240
1410.0 244 233 274 265 274 277 328 387 497 727
1450.0 1064 1183 1017 735 552 442 365 284 238 249
1490.0 341 529 694 549 317 226 185 178 184 154
1530.0 156 141 150 166 155 135 134 156 160 163
1570.0 191 249 342 372 292 231 214 228 235 248
1610.0 248 275 334 395 498 675 1075 1766 2429 2377
1650.0 1432 703 446 341 310 290 304 292 325 362
1690.0 375 397 440 494 577 763 1093 1815 3043 4845
1730.0 6392 6445 5085 3491 2227 1477 1034 832 689 608
1770.0 540 475 407 349 310 277 276 252 225 174
1810.0 163 159 147 153 154 153 150 153 158 157
1850.0 142 125 116 110 120 131 125 124 129 128
1890.0 133 131 117 96 88 86 82 85 93 93
1930.0 97 107 114 131 133 141 131 126 131 119
1970.0 104 96 83 79 75 81 78 78 79 78
2010.0 66 64 72 68 70 64 66 58 59 59
2050.0 63 53 60 73 76 60 47 35 24 30
2090.0 33 48 66 73 81 78 84 77 80 82
2130.0 83 78 83 90 85 94 94 99 85 85
2170.0 86 86 87 90 92 93 93 93 96 99
2210.0 95 89 94 100 100 98 104 109 103 108
2250.0 110 105 104 104 110 108 114 111 120 107
2290.0 96 83 81 70 45 35 46 25 29 29
2330.0 61 66 104 113 166 77 24 23 125 248
2370.0 270 287 246 211 162 131 121 114 113 105
2410.0 106 106 114 117 114 126 119 118 123 125
2450.0 123 116 117 119 122 128 125 121 131 125
2490.0 129 132 140 138 138 132 134 126 135 135
2530.0 131 129 120 122 120 120 116 132 129 130
2570.0 131 136 148 143 145 153 175 157 147 166
2610.0 170 160 156 141 149 145 151 140 171 175
2650.0 165 176 187 161 158 149 151 150 150 148
2690.0 153 154 145 138 147 147 140 138 147 140
2730.0 130 131 124 124 112 117 130 124 123 134
2770.0 143 145 138 155 169 166 166 166 180 180
2810.0 175 181 190 210 206 220 231 251 287 292
2850.0 356 526 865 1334 1786 1859 1599 1195 854 660
2890.0 545 485 529 619 698 790 906 1065 1345 1742
2930.0 2249 2886 4023 5675 6518 5410 3781 2613 1851 1299
2970.0 920 653 497 404 339 282 240 208 210 204
3010.0 213 223 242 285 359 469 587 665 581 454
3050.0 408 409 438 512 686 941 1026 761 544 520
3090.0 502 473 389 325 288 282 248 172 145 126
3130.0 108 130 128 111 106 107 123 113 99 86
3170.0 103 105 93 102 87 82 89 82 88 76
3210.0 60 62 59 52 39 24 30 34 48 60
3250.0 74 59 72 65 66 76 54 80 58 49
3290.0 51 54 56 65 63 48 53 48 52 42
3330.0 50 70 72 40 52 61 52 60 54 51
3370.0 59 78 67 50 50 48 65 69 47 63
3410.0 57 68 48 74 72 66 73 61 76 100
3450.0 100 69 86 64 68 43 48 67 52 44
3490.0 51 58 59 29 65 64 39 43 65 50
3530.0 47 41 65 52 62 65 57 58 48 82
3570.0 75 78 109 155 132 159 105 85 97 69
3610.0 86 73 77 73 83 77 114 111 77 75
3650.0 107 108 101 107 102 83 88 105 97 97
3690.0 110 102 116 104 102 121 106 82 118 101
3730.0 78 77 107 99 84 137 149 107 84 71
3770.0 79 113 145 73 78 83 75 65 84 84
3810.0 125 78 102 107 108 128 94 96 98 96
3850.0 83 68 102 98 60 67 85 49 60 108
3890.0 65 106 78 50 51 56 82 89 101 59
3930.0 78 69 63 41 77 61 103 122 59 76
##END=
