##TITLE=Benzoic acid, 2-amino-, cyclohexyl ester
##JCAMP-DX=4.24
##DATA TYPE=INFRARED SPECTRUM
##ORIGIN=Sadtler Research Labs Under US-EPA Contract
##OWNER=NIST Standard Reference Data Program
##CAS REGISTRY NO=7779-16-0
##MOLFORM=C 13 H 17 N O 2
##XUNITS=1/CM
##YUNITS=ABSORBANCE
##XFACTOR=1.0
##YFACTOR=0.000117209
##DELTAX=4.0
##FIRSTX=450.0
##LASTX=3966.0
##FIRSTY=0.005743
##MAXX=3966
##MINX=450
##MAXY=1.17209
##MINY=0
##NPOINTS=880
##XYDATA=(X++(Y..Y))
450.0 49 119 229 228 364 344 369 303 331 285
490.0 316 340 384 453 470 508 533 614 639 619
530.0 497 429 322 277 343 359 406 371 373 318
570.0 269 216 246 340 263 329 294 213 209 213
610.0 221 171 197 188 219 177 156 155 196 194
650.0 187 197 217 311 376 436 469 385 262 269
690.0 325 430 518 555 415 306 214 177 179 151
730.0 210 251 625 1075 1480 1555 1083 653 329 180
770.0 133 114 89 104 42 105 122 93 88 82
810.0 86 101 107 135 148 168 194 210 237 243
850.0 243 229 226 201 192 95 92 94 124 147
890.0 181 203 189 166 150 147 153 212 318 436
930.0 450 365 246 205 215 180 95 30 18 11
970.0 15 7 13 12 26 43 66 114 205 330
1010.0 446 562 697 785 767 728 834 932 824 561
1050.0 406 449 584 818 1096 1295 1372 1355 1399 1572
1090.0 1921 2435 3088 3772 4274 4255 3498 2469 1612 1099
1130.0 773 576 497 477 575 751 1486 2522 2953 1890
1170.0 785 448 367 270 245 204 235 244 270 275
1210.0 311 401 533 793 1228 1990 3198 5188 7889 10000
1250.0 9165 5884 3270 2009 1564 1341 1391 1755 2604 3772
1290.0 4453 3936 2573 1539 1153 1155 1253 1383 1426 1362
1330.0 1188 990 819 678 577 483 421 364 301 265
1370.0 258 258 243 190 133 112 88 75 66 62
1410.0 48 53 39 57 72 99 139 192 298 463
1450.0 738 982 1097 1010 788 554 422 462 614 761
1490.0 815 775 646 489 323 200 153 124 118 126
1530.0 128 134 147 169 209 286 388 541 734 856
1570.0 851 792 791 949 1260 1728 2151 2284 2096 1907
1610.0 2099 2630 3103 3028 2402 1539 895 539 372 286
1650.0 226 209 208 225 241 247 264 333 471 754
1690.0 1338 2250 3528 4474 4558 3612 2394 1487 1125 958
1730.0 843 642 447 308 214 167 140 123 107 105
1770.0 83 74 72 66 66 70 68 60 44 36
1810.0 35 29 26 19 7 0 0 4 0 0
1850.0 5 9 6 8 5 0 7 6 14 19
1890.0 27 30 37 41 61 80 90 77 57 50
1930.0 51 52 47 33 16 13 9 10 9 4
1970.0 13 8 10 9 12 9 12 21 22 21
2010.0 20 23 17 20 21 19 15 8 5 6
2050.0 8 11 10 8 14 10 12 14 15 15
2090.0 18 20 18 21 24 30 29 29 27 26
2130.0 28 31 33 34 34 34 36 33 36 35
2170.0 33 33 31 34 34 33 27 26 25 24
2210.0 25 26 26 26 26 25 25 27 25 23
2250.0 20 28 23 27 26 29 26 23 23 22
2290.0 20 14 16 10 8 7 10 10 9 15
2330.0 18 17 24 28 9 22 7 16 30 28
2370.0 36 41 46 41 47 49 48 47 44 41
2410.0 34 33 33 26 25 25 25 34 29 27
2450.0 25 24 21 22 19 23 30 30 35 33
2490.0 35 33 28 30 28 25 27 31 38 33
2530.0 35 36 34 22 23 22 19 16 17 14
2570.0 16 16 24 35 37 40 47 53 41 37
2610.0 47 37 40 33 41 34 34 42 46 57
2650.0 52 61 73 89 88 86 80 70 56 62
2690.0 54 50 41 48 41 49 49 49 52 52
2730.0 53 49 47 48 43 41 38 34 41 46
2770.0 46 51 60 57 68 67 73 75 84 95
2810.0 94 93 89 94 92 97 100 118 134 171
2850.0 233 366 652 1043 1381 1441 1233 913 624 444
2890.0 351 330 347 386 459 536 635 769 987 1290
2930.0 1719 2319 3280 4530 5161 4424 3089 2034 1354 950
2970.0 664 451 330 262 220 170 146 133 137 127
3010.0 121 120 126 156 218 266 317 327 310 301
3050.0 315 340 372 392 371 296 263 274 331 372
3090.0 357 274 183 123 94 77 67 62 63 49
3130.0 41 24 31 36 31 40 47 45 60 57
3170.0 58 61 56 51 50 48 43 31 25 30
3210.0 19 25 6 13 12 16 39 52 62 59
3250.0 66 59 72 52 34 48 55 49 51 56
3290.0 52 69 64 71 60 57 65 58 66 69
3330.0 71 76 66 72 74 84 105 120 162 217
3370.0 332 537 822 1095 1262 1212 982 693 433 270
3410.0 199 161 198 208 186 167 110 76 57 66
3450.0 64 65 74 74 86 97 117 107 139 167
3490.0 210 258 310 383 517 663 798 878 845 708
3530.0 526 361 241 158 119 90 73 86 62 42
3570.0 39 59 65 70 59 55 49 65 58 56
3610.0 61 67 55 63 73 50 63 70 70 68
3650.0 63 56 67 44 74 67 80 84 93 100
3690.0 102 86 98 97 97 67 85 71 64 65
3730.0 77 87 88 59 51 79 67 73 70 77
3770.0 76 77 77 53 58 66 60 69 52 65
3810.0 65 69 80 83 77 54 72 75 71 59
3850.0 29 49 35 47 70 37 54 84 79 73
3890.0 97 72 60 66 72 78 50 62 71 62
3930.0 69 77 66 82 71 31 75 95 80 48
##END=
