##TITLE=Benzenesulfonic acid, 4-methyl-, butyl ester
##JCAMP-DX=4.24
##DATA TYPE=INFRARED SPECTRUM
##ORIGIN=Sadtler Research Labs Under US-EPA Contract
##OWNER=NIST Standard Reference Data Program
##CAS REGISTRY NO=778-28-9
##MOLFORM=C 11 H 16 O 3 S
##XUNITS=1/CM
##YUNITS=ABSORBANCE
##XFACTOR=1.0
##YFACTOR=0.000037186
##DELTAX=4.0
##FIRSTX=450.0
##LASTX=3966.0
##FIRSTY=0.006731
##MAXX=3966
##MINX=450
##MAXY=0.37186
##MINY=0
##NPOINTS=880
##XYDATA=(X++(Y..Y))
450.0 181 883 377 360 755 813 877 114 430 439
490.0 607 341 190 443 301 666 768 342 645 807
530.0 832 610 922 1350 1728 2186 3271 3446 3870 3829
570.0 3407 2444 2090 1504 958 723 285 490 335 452
610.0 354 371 321 336 258 441 425 623 790 793
650.0 1064 1420 2033 2709 2920 3069 2837 3679 3793 3110
690.0 2251 1643 1169 894 869 1072 978 1227 1473 1728
730.0 1853 1765 1852 1958 2218 1871 1967 1949 1981 2184
770.0 2384 2469 2394 2257 2035 1827 1875 2118 1962 1977
810.0 2633 3281 3153 2451 1859 1356 1002 782 640 519
850.0 420 611 629 741 1118 1474 1856 1952 2076 1854
890.0 1374 895 879 822 705 740 845 867 1004 1238
930.0 1627 2130 2735 3326 3750 3899 3866 3721 3606 3244
970.0 2810 2535 2301 2194 2020 2097 2320 2561 2788 3266
1010.0 3693 3142 2120 1972 2101 2496 2524 1897 1519 1387
1050.0 1302 1403 1477 1590 1467 1378 1267 1130 946 974
1090.0 1128 1490 1854 2147 2073 1929 1993 2412 2284 1753
1130.0 1320 997 911 892 941 1106 1320 1536 1830 2292
1170.0 2753 3841 5402 7264 9160 10000 9571 7959 5964 4679
1210.0 4131 3958 3603 3180 2728 2442 2128 1860 1493 1316
1250.0 1108 978 764 655 578 603 610 736 697 742
1290.0 711 760 816 901 851 792 753 669 662 606
1330.0 584 657 717 760 889 1033 1227 1611 1917 2245
1370.0 2548 2685 2908 3216 3541 3918 3942 3659 2826 2032
1410.0 1529 1115 1107 880 973 978 958 1125 1158 1317
1450.0 1326 1432 1391 1522 1390 1426 1255 1164 979 900
1490.0 964 924 954 709 558 448 348 314 262 267
1530.0 298 131 313 110 278 238 174 277 62 237
1570.0 252 160 366 234 415 416 612 702 727 717
1610.0 564 599 333 359 355 283 400 398 372 517
1650.0 375 383 331 297 294 159 244 89 224 17
1690.0 142 103 70 136 148 175 127 131 87 47
1730.0 79 27 106 14 158 120 84 83 81 87
1770.0 101 75 78 88 100 38 109 23 117 47
1810.0 41 57 10 65 0 57 26 71 64 68
1850.0 89 71 76 74 61 76 64 87 73 88
1890.0 89 118 101 128 128 176 159 193 135 136
1930.0 80 81 83 72 93 61 75 65 51 71
1970.0 64 68 54 52 58 51 59 57 54 60
2010.0 45 49 53 51 62 41 50 55 62 51
2050.0 53 50 52 36 63 40 43 38 39 42
2090.0 44 46 41 43 47 45 46 55 44 45
2130.0 42 48 47 28 28 49 43 50 49 53
2170.0 53 52 57 47 56 60 57 63 47 49
2210.0 54 50 52 37 34 37 38 46 49 49
2250.0 46 31 33 35 38 33 32 38 36 33
2290.0 53 41 70 68 81 122 113 178 193 246
2330.0 260 225 366 113 447 50 481 211 478 364
2370.0 300 252 155 107 62 45 44 40 40 26
2410.0 41 37 24 42 27 26 37 11 22 17
2450.0 12 12 18 16 8 11 6 9 10 6
2490.0 17 19 22 24 19 16 21 31 27 30
2530.0 32 30 37 36 59 58 54 52 66 74
2570.0 70 73 82 76 71 65 70 71 75 66
2610.0 75 72 74 72 74 87 88 86 81 89
2650.0 84 87 103 102 101 114 120 109 113 130
2690.0 129 129 125 133 139 144 143 144 147 159
2730.0 169 164 190 205 214 215 222 219 220 213
2770.0 226 224 229 235 252 250 251 276 293 302
2810.0 329 344 356 378 429 463 507 578 667 758
2850.0 862 981 1106 1267 1438 1631 1916 2206 2441 2535
2890.0 2532 2489 2383 2271 2219 2303 2426 2569 2706 2899
2930.0 3143 3460 3868 4216 4397 4511 4644 4832 5126 5518
2970.0 5885 5855 5435 4770 3923 3139 2547 2095 1761 1505
3010.0 1331 1179 1059 976 909 901 905 918 891 850
3050.0 810 765 688 595 552 574 552 492 461 388
3090.0 373 355 339 324 299 282 271 243 252 254
3130.0 247 227 219 237 224 209 211 211 209 229
3170.0 202 191 206 193 219 233 214 204 219 215
3210.0 215 234 209 215 208 206 213 204 214 225
3250.0 211 219 218 234 232 238 213 226 245 237
3290.0 234 237 250 241 244 235 248 237 236 255
3330.0 259 235 245 240 219 224 231 224 230 228
3370.0 235 224 249 257 232 223 245 241 242 245
3410.0 240 218 240 258 233 239 243 240 258 245
3450.0 218 256 255 250 260 259 281 269 261 235
3490.0 263 229 269 237 255 236 282 250 248 218
3530.0 231 276 264 253 259 237 263 225 281 161
3570.0 240 234 262 299 203 250 224 312 227 352
3610.0 197 218 221 251 246 227 193 349 257 216
3650.0 229 163 372 202 425 112 372 104 335 345
3690.0 168 364 278 363 311 247 285 304 382 312
3730.0 352 321 179 364 120 347 218 340 392 298
3770.0 379 327 445 347 319 400 367 348 391 171
3810.0 492 173 402 176 433 317 364 274 261 474
3850.0 202 381 135 518 302 295 419 263 423 273
3890.0 452 368 392 362 351 463 364 450 302 377
3930.0 339 358 455 407 356 411 410 357 418 435
##END=
