##TITLE=2-Propenoic acid, 3-phenyl-, 1-methylethyl ester
##JCAMP-DX=4.24
##DATA TYPE=INFRARED SPECTRUM
##ORIGIN=Sadtler Research Labs Under US-EPA Contract
##OWNER=NIST Standard Reference Data Program
##CAS REGISTRY NO=7780-06-5
##MOLFORM=C 12 H 14 O 2
##XUNITS=1/CM
##YUNITS=ABSORBANCE
##XFACTOR=1.0
##YFACTOR=0.000159625
##DELTAX=4.0
##FIRSTX=450.0
##LASTX=3966.0
##FIRSTY=0.050761
##MAXX=3966
##MINX=450
##MAXY=1.59625
##MINY=0
##NPOINTS=880
##XYDATA=(X++(Y..Y))
450.0 318 174 173 272 198 175 295 257 232 253
490.0 185 217 258 175 169 173 226 149 46 124
530.0 85 115 77 47 105 42 44 90 137 321
570.0 587 549 405 229 318 259 249 114 27 106
610.0 20 24 20 36 78 25 8 51 91 48
650.0 53 88 158 177 261 303 430 544 710 789
690.0 815 773 790 795 768 710 572 440 328 314
730.0 286 361 374 346 402 575 725 905 1055 1094
770.0 947 743 509 355 253 199 150 143 147 173
810.0 184 214 246 297 326 268 213 200 186 220
850.0 286 311 337 347 350 335 305 260 242 261
890.0 276 258 249 280 364 536 645 645 481 341
930.0 282 257 287 275 303 316 358 432 601 852
970.0 1139 1536 1874 2088 2127 1979 1566 1165 920 751
1010.0 566 443 396 351 333 282 250 235 207 219
1050.0 258 280 336 384 466 493 534 545 606 685
1090.0 793 1006 1389 1946 2895 4082 5147 5137 4095 3102
1130.0 2561 2375 2321 2272 2195 2145 2340 2925 4027 6071
1170.0 8064 9193 7981 5699 4233 3196 3062 3659 3899 3068
1210.0 1732 1104 940 870 933 1076 1200 1350 1599 2142
1250.0 2836 3473 4067 4552 5161 5139 4410 3538 2722 2319
1290.0 2398 2847 3260 3589 4274 4443 3771 2874 2217 1869
1330.0 1560 1445 1425 1306 1205 1158 1189 1263 1182 1069
1370.0 973 1044 1143 1108 1114 978 817 660 484 409
1410.0 338 316 348 280 273 277 305 369 446 617
1450.0 852 932 757 595 531 552 554 482 383 378
1490.0 471 613 759 621 466 268 216 231 229 210
1530.0 202 176 220 204 194 149 150 215 169 168
1570.0 206 279 375 397 317 228 187 244 206 231
1610.0 229 250 365 416 598 829 1351 2329 3309 2844
1650.0 2183 1087 371 402 306 293 397 311 396 396
1690.0 399 428 501 602 665 901 1272 2261 3729 5526
1730.0 10000 7620 7481 5428 3149 2059 1123 735 551 416
1770.0 398 347 299 286 267 301 313 306 284 210
1810.0 197 182 156 160 149 159 133 126 131 135
1850.0 111 89 93 98 109 136 121 107 107 105
1890.0 110 98 73 59 46 48 46 55 66 64
1930.0 71 84 95 125 130 129 127 112 101 96
1970.0 78 64 55 55 52 62 61 49 48 42
2010.0 37 41 41 40 31 30 26 22 22 18
2050.0 18 17 15 19 22 20 19 21 31 31
2090.0 34 33 28 27 24 22 25 24 25 22
2130.0 24 27 30 36 35 37 37 36 35 31
2170.0 25 21 19 20 19 17 15 13 14 12
2210.0 13 15 17 19 22 25 25 26 26 27
2250.0 27 25 26 26 29 26 27 25 28 28
2290.0 29 28 24 24 21 22 33 39 38 35
2330.0 32 39 40 35 38 22 36 26 37 21
2370.0 20 16 9 6 6 5 7 5 4 3
2410.0 4 5 2 4 3 3 6 4 7 10
2450.0 10 13 12 14 15 14 14 12 12 10
2490.0 9 12 11 14 14 15 17 17 17 17
2530.0 14 13 12 11 12 10 10 11 8 9
2570.0 7 10 10 11 13 14 13 14 17 19
2610.0 18 18 19 24 26 26 25 20 18 15
2650.0 12 12 14 11 14 13 15 17 18 18
2690.0 20 21 25 27 28 31 35 34 36 38
2730.0 35 41 49 51 51 44 38 39 37 34
2770.0 36 40 43 42 46 47 52 52 55 61
2810.0 60 67 69 73 80 87 91 94 103 107
2850.0 110 113 118 132 153 181 225 285 346 390
2890.0 400 388 367 357 361 371 383 397 423 480
2930.0 567 677 792 888 934 891 754 610 502 479
2970.0 561 788 1314 2231 2877 2654 1905 1261 877 585
3010.0 419 358 323 356 431 544 689 744 668 519
3050.0 424 417 445 530 752 1040 1145 902 642 554
3090.0 554 504 417 341 291 260 218 156 104 74
3130.0 61 59 50 46 55 57 57 56 54 56
3170.0 47 44 41 43 44 41 38 40 37 37
3210.0 32 31 31 22 27 22 25 29 25 18
3250.0 18 14 15 9 10 6 9 5 4 7
3290.0 6 12 6 1 10 13 11 10 7 9
3330.0 12 7 8 12 16 16 18 21 27 27
3370.0 27 24 26 22 24 17 17 19 17 15
3410.0 19 19 18 26 22 35 43 53 64 79
3450.0 78 68 55 42 36 22 22 14 16 12
3490.0 16 12 14 6 14 9 15 13 9 11
3530.0 7 11 13 14 6 7 9 9 14 0
3570.0 14 11 10 14 7 13 6 19 9 15
3610.0 4 7 25 18 15 18 13 19 12 10
3650.0 29 19 22 14 27 1 36 9 19 7
3690.0 8 26 8 14 6 13 14 16 11 8
3730.0 22 20 18 11 6 27 9 11 16 15
3770.0 24 16 20 11 20 15 10 11 17 22
3810.0 26 11 21 9 27 18 34 6 11 20
3850.0 32 26 18 31 10 24 35 19 21 26
3890.0 22 21 32 29 20 28 19 32 8 11
3930.0 17 14 43 22 12 17 30 22 14 28
##END=
