##TITLE=Germane
##JCAMP-DX=4.24
##DATA TYPE=INFRARED SPECTRUM
##ORIGIN=Sadtler Research Labs Under US-EPA Contract
##OWNER=NIST Standard Reference Data Program
##CAS REGISTRY NO=7782-65-2
##MOLFORM=Ge H 4
##XUNITS=1/CM
##YUNITS=ABSORBANCE
##XFACTOR=1.0
##YFACTOR=0.000191742
##DELTAX=4.0
##FIRSTX=450.0
##LASTX=3966.0
##FIRSTY=0.029912
##MAXX=3966
##MINX=450
##MAXY=1.91742
##MINY=0
##NPOINTS=880
##XYDATA=(X++(Y..Y))
450.0 156 152 110 110 102 107 110 56 103 61
490.0 71 40 69 53 67 47 52 61 14 62
530.0 30 32 23 42 18 33 37 18 33 25
570.0 57 7 36 16 37 14 16 26 11 22
610.0 16 34 7 36 18 30 18 39 31 14
650.0 29 30 37 7 45 20 41 20 36 29
690.0 34 46 24 49 31 64 18 61 61 85
730.0 65 133 248 317 444 558 702 765 992 1217
770.0 1422 1387 1953 2587 2232 2866 3132 2841 3406 3636
810.0 5166 10000 6869 1099 1528 3320 4164 5992 6048 5853
850.0 4801 4081 2739 1826 1120 682 420 272 191 161
890.0 118 94 91 72 73 55 57 48 65 53
930.0 131 385 447 336 233 178 119 95 75 92
970.0 60 45 41 37 57 46 62 38 67 55
1010.0 60 54 52 42 60 30 57 25 47 33
1050.0 36 26 33 22 29 22 26 20 17 26
1090.0 16 17 16 16 17 11 16 17 20 16
1130.0 13 15 11 17 8 9 10 17 16 10
1170.0 16 13 21 8 14 10 16 15 14 13
1210.0 13 14 9 13 11 13 9 14 11 11
1250.0 15 14 20 11 21 15 18 13 18 13
1290.0 21 29 18 16 10 21 16 23 17 20
1330.0 14 15 25 17 16 13 18 13 24 17
1370.0 16 17 17 14 9 18 14 21 11 21
1410.0 15 14 21 14 18 10 22 13 17 11
1450.0 21 14 17 16 14 17 14 23 11 24
1490.0 20 18 15 18 23 26 30 17 24 8
1530.0 29 11 18 6 29 20 17 14 10 20
1570.0 10 23 13 21 17 20 17 14 25 14
1610.0 24 17 24 17 28 23 18 16 22 25
1650.0 9 22 20 29 14 30 17 22 30 22
1690.0 31 20 36 15 32 26 39 29 28 32
1730.0 25 31 21 49 25 42 20 30 15 28
1770.0 30 16 37 24 44 13 36 20 29 23
1810.0 25 30 14 36 14 29 11 37 11 21
1850.0 22 22 22 11 36 7 30 10 37 8
1890.0 23 26 15 25 15 41 2 40 18 47
1930.0 18 55 41 53 65 88 95 101 161 165
1970.0 230 219 354 302 527 408 744 493 1032 657
2010.0 1351 663 1772 860 1984 860 2356 953 2497 984
2050.0 2381 996 2422 1017 2130 939 1821 927 1284 658
2090.0 1141 1000 2082 3906 8624 9786 1004 393 395 397
2130.0 743 993 981 1078 1436 1441 1501 1316 1972 1651
2170.0 1613 1470 1976 1642 1363 1334 1611 1415 1025 947
2210.0 870 939 652 591 378 372 336 272 210 121
2250.0 139 53 98 44 72 14 49 39 23 36
2290.0 28 57 5 68 25 62 21 67 40 24
2330.0 67 26 71 1 108 24 67 36 67 21
2370.0 29 78 29 53 21 46 8 33 23 28
2410.0 20 23 36 11 37 17 39 13 39 22
2450.0 25 30 26 30 9 40 13 31 13 36
2490.0 17 22 29 23 28 13 38 10 33 18
2530.0 32 17 28 31 17 32 21 37 11 36
2570.0 22 28 18 29 28 15 33 17 32 15
2610.0 39 20 26 25 28 28 17 38 17 33
2650.0 20 36 17 31 30 24 25 21 37 14
2690.0 33 21 34 18 32 29 22 33 23 34
2730.0 14 34 18 29 21 28 25 22 33 23
2770.0 31 17 37 17 31 26 30 25 25 39
2810.0 22 34 26 37 24 38 31 33 33 30
2850.0 37 25 44 30 44 31 44 37 36 39
2890.0 36 46 31 49 34 45 41 52 59 56
2930.0 47 34 54 46 70 49 65 56 60 48
2970.0 57 55 52 62 49 65 38 65 49 53
3010.0 47 48 51 37 60 45 80 48 59 39
3050.0 39 38 34 37 28 41 25 38 29 39
3090.0 24 32 33 29 33 23 37 16 37 25
3130.0 31 23 33 31 21 30 24 33 18 36
3170.0 20 29 21 26 28 18 34 20 31 18
3210.0 36 18 32 28 25 24 23 31 17 32
3250.0 21 31 18 30 28 21 23 21 33 15
3290.0 33 21 32 16 33 22 20 34 25 31
3330.0 18 42 21 32 22 30 18 21 34 21
3370.0 29 21 34 15 33 26 29 22 26 29
3410.0 17 33 17 34 13 36 29 22 22 29
3450.0 29 16 37 16 30 18 32 18 26 26
3490.0 25 29 14 42 15 37 20 36 18 28
3530.0 30 18 31 17 37 15 33 23 30 20
3570.0 34 24 22 30 16 33 11 34 14 31
3610.0 16 24 26 20 36 14 26 13 38 10
3650.0 16 28 18 23 15 33 2 26 16 37
3690.0 8 28 39 15 34 22 24 8 44 17
3730.0 31 6 37 15 16 18 15 29 9 38
3770.0 1 30 24 28 17 25 36 2 17 14
3810.0 42 9 28 14 28 17 20 24 6 39
3850.0 14 18 2 33 17 10 22 24 24 0
3890.0 47 9 23 10 41 8 20 28 17 31
3930.0 15 52 2 34 14 41 10 13 26 17
##END=
