##TITLE=Silane, tetrafluoro-
##JCAMP-DX=4.24
##DATA TYPE=INFRARED SPECTRUM
##ORIGIN=Sadtler Research Labs Under US-EPA Contract
##OWNER=NIST Standard Reference Data Program
##CAS REGISTRY NO=7783-61-1
##MOLFORM=F 4 Si
##XUNITS=1/CM
##YUNITS=ABSORBANCE
##XFACTOR=1.0
##YFACTOR=0.000077185
##DELTAX=4.0
##FIRSTX=450.0
##LASTX=3966.0
##FIRSTY=0.019065
##MAXX=3966
##MINX=450
##MAXY=0.77185
##MINY=0
##NPOINTS=880
##XYDATA=(X++(Y..Y))
450.0 247 92 0 97 82 110 53 86 136 78
490.0 123 114 140 81 107 76 97 16 74 117
530.0 118 77 91 123 108 123 67 100 86 95
570.0 107 57 71 60 91 81 85 69 91 87
610.0 99 98 102 100 95 94 98 100 82 93
650.0 105 98 109 95 104 79 113 81 94 93
690.0 83 99 108 100 103 100 99 115 93 94
730.0 90 135 112 116 128 140 132 132 143 115
770.0 125 131 142 121 110 126 115 107 104 132
810.0 127 123 120 120 112 152 172 142 171 138
850.0 111 86 102 93 96 87 91 80 66 94
890.0 76 89 77 91 83 87 91 94 87 77
930.0 98 76 101 83 106 72 90 109 114 130
970.0 136 182 191 288 327 434 518 724 923 1258
1010.0 1962 3119 5288 7277 10000 8156 6360 3800 811 218
1050.0 210 88 144 83 114 59 103 72 72 72
1090.0 81 76 64 87 66 77 74 97 85 92
1130.0 95 87 88 96 112 99 121 127 146 167
1170.0 199 211 229 244 246 277 280 271 253 245
1210.0 213 189 160 138 124 112 106 112 119 114
1250.0 112 108 108 113 112 108 101 101 97 91
1290.0 83 82 83 82 78 78 70 63 66 63
1330.0 64 60 61 63 63 64 64 61 57 66
1370.0 60 66 57 67 64 66 68 64 69 70
1410.0 70 73 73 74 78 71 73 75 69 70
1450.0 67 68 70 63 56 66 66 59 56 56
1490.0 54 54 53 47 56 51 50 51 47 48
1530.0 49 45 52 51 50 48 47 47 46 42
1570.0 47 45 44 46 45 43 44 40 46 38
1610.0 42 39 45 39 40 42 42 36 40 40
1650.0 44 43 46 37 42 38 37 39 43 35
1690.0 36 35 34 40 39 39 39 38 37 39
1730.0 37 39 32 38 38 38 37 36 37 37
1770.0 43 32 37 38 40 45 40 43 40 44
1810.0 48 53 59 66 65 54 51 42 34 35
1850.0 30 34 36 35 34 33 35 28 28 33
1890.0 32 32 30 32 32 31 30 31 29 31
1930.0 31 32 32 31 29 28 29 28 29 32
1970.0 29 32 33 28 27 27 30 29 29 32
2010.0 33 34 32 30 35 35 30 30 27 33
2050.0 31 28 30 32 31 34 26 26 28 23
2090.0 26 25 27 27 28 25 19 24 22 24
2130.0 22 21 24 26 24 22 19 24 20 23
2170.0 24 19 16 19 17 17 18 21 19 19
2210.0 18 17 19 21 18 21 18 20 24 17
2250.0 18 20 17 20 22 20 22 19 20 19
2290.0 24 25 20 27 30 29 23 21 25 21
2330.0 20 20 14 5 20 18 16 25 8 3
2370.0 3 5 13 17 16 12 17 17 12 8
2410.0 7 10 12 12 8 4 11 9 11 9
2450.0 10 14 13 12 11 13 11 14 16 11
2490.0 13 13 10 9 9 8 8 8 8 11
2530.0 11 13 13 9 6 16 14 10 10 11
2570.0 11 13 12 12 17 15 13 12 9 11
2610.0 12 13 22 16 13 13 16 20 16 15
2650.0 12 13 8 10 7 8 7 9 11 12
2690.0 14 12 9 11 9 7 9 12 8 14
2730.0 16 18 13 15 12 7 11 10 12 6
2770.0 17 11 13 10 14 14 8 12 16 15
2810.0 12 12 8 13 16 21 12 10 11 9
2850.0 15 17 11 14 14 16 15 12 11 11
2890.0 18 16 13 8 11 12 6 12 15 10
2930.0 15 16 8 10 18 17 9 15 16 14
2970.0 16 11 11 14 14 13 12 22 16 18
3010.0 13 15 10 13 14 14 14 16 12 15
3050.0 14 19 12 15 18 12 12 17 20 14
3090.0 13 15 12 19 13 16 13 12 18 15
3130.0 11 17 18 16 10 16 8 16 18 12
3170.0 10 13 15 9 16 9 10 22 19 14
3210.0 16 14 15 14 17 16 12 14 16 18
3250.0 11 17 8 7 13 7 14 12 19 16
3290.0 25 15 18 22 14 15 5 11 13 10
3330.0 14 20 15 13 17 13 15 14 15 16
3370.0 16 15 17 13 8 19 27 18 18 13
3410.0 13 24 9 13 19 23 18 10 18 22
3450.0 9 14 25 21 12 22 20 20 16 15
3490.0 17 23 25 21 5 15 24 26 13 24
3530.0 16 10 24 23 17 20 21 19 17 4
3570.0 11 32 13 21 8 5 23 22 18 11
3610.0 21 12 18 22 22 30 22 18 14 21
3650.0 24 28 28 21 14 8 17 18 25 21
3690.0 32 29 20 20 12 27 28 21 26 23
3730.0 47 80 64 60 59 77 86 97 84 88
3770.0 66 78 51 35 18 34 20 20 25 22
3810.0 29 17 3 3 19 16 14 12 37 35
3850.0 26 34 3 25 38 29 43 24 17 14
3890.0 25 10 14 15 12 12 20 34 20 3
3930.0 12 11 31 16 25 6 23 5 3 27
##END=
