##TITLE=Deuterium oxide
##JCAMP-DX=4.24
##DATA TYPE=INFRARED SPECTRUM
##ORIGIN=Sadtler Research Labs Under US-EPA Contract
##OWNER=NIST Standard Reference Data Program
##CAS REGISTRY NO=7789-20-0
##MOLFORM=D 2 O
##XUNITS=1/CM
##YUNITS=ABSORBANCE
##XFACTOR=1.0
##YFACTOR=0.000047897
##DELTAX=4.0
##FIRSTX=450.0
##LASTX=3966.0
##FIRSTY=0.010106
##MAXX=3966
##MINX=450
##MAXY=0.47897
##MINY=0
##NPOINTS=880
##XYDATA=(X++(Y..Y))
450.0 211 830 1209 591 827 987 543 891 488 603
490.0 441 509 441 539 580 386 307 356 416 140
530.0 347 235 308 247 327 326 195 323 270 278
570.0 161 386 204 328 166 289 195 163 215 169
610.0 210 149 310 170 226 121 232 180 151 210
650.0 139 210 142 262 118 246 154 182 138 165
690.0 203 95 183 127 211 99 200 144 137 134
730.0 144 150 77 219 93 181 103 201 100 130
770.0 144 130 156 104 204 72 174 117 182 68
810.0 146 142 127 149 84 188 45 212 105 186
850.0 107 202 153 94 175 119 215 82 238 111
890.0 177 166 211 149 144 284 136 313 180 263
930.0 213 404 315 446 433 250 688 674 582 808
970.0 919 372 1368 1256 1134 1430 1779 880 1342 1873
1010.0 2027 1553 2053 2637 1834 1791 2735 2547 2210 2596
1050.0 1267 5721 2427 2183 5506 1386 4112 5588 1986 5061
1090.0 3654 3499 4432 6064 7248 6869 7379 6774 8285 7462
1130.0 7217 5937 6995 6870 6507 6231 5415 5813 2298 2641
1170.0 1686 641 1403 953 898 2658 2890 3494 1077 4250
1210.0 5539 2807 5093 5150 6322 6148 5794 5672 7764 3778
1250.0 5553 7055 4610 7297 3030 7478 5922 3984 6843 6794
1290.0 5564 5676 6900 3456 6882 6175 6533 7142 5611 6118
1330.0 5251 6225 5138 5224 5186 5887 2859 4893 4759 3937
1370.0 4471 3925 1506 1785 2646 2055 841 1486 1819 1126
1410.0 2580 2943 1707 4560 2684 1677 3740 3417 1890 1097
1450.0 4460 4572 3226 2855 2038 4167 2750 3116 2434 3381
1490.0 4701 2204 3097 5328 1347 3139 3376 2180 2546 2770
1530.0 817 3555 2205 2449 2516 3274 0 2540 2036 1030
1570.0 1151 1228 1174 1158 1247 678 899 656 1112 540
1610.0 936 506 648 916 623 346 632 628 246 555
1650.0 568 846 241 397 599 308 538 260 531 540
1690.0 312 219 752 358 323 280 318 318 281 380
1730.0 208 469 223 379 175 216 342 276 191 136
1770.0 319 266 129 118 297 212 146 194 221 117
1810.0 72 156 89 147 123 168 126 58 165 174
1850.0 149 44 104 59 148 113 98 86 76 89
1890.0 93 127 57 95 72 112 70 123 125 71
1930.0 81 69 111 79 111 63 91 55 89 102
1970.0 71 92 72 100 48 126 81 97 73 100
2010.0 80 74 118 76 103 68 108 73 99 91
2050.0 91 87 75 115 73 101 78 108 70 98
2090.0 98 85 94 80 105 65 112 82 96 77
2130.0 103 102 87 108 84 107 74 115 84 106
2170.0 93 112 112 89 126 106 119 102 154 78
2210.0 142 126 119 147 163 96 136 125 92 119
2250.0 90 123 80 61 123 44 100 57 108 95
2290.0 126 128 205 240 152 257 235 304 215 288
2330.0 226 227 270 257 266 214 351 242 364 256
2370.0 349 242 244 232 158 168 171 251 140 252
2410.0 191 205 179 203 283 139 214 310 246 149
2450.0 263 317 246 203 342 316 205 248 352 368
2490.0 263 327 488 375 299 270 522 419 544 431
2530.0 622 613 454 592 734 787 758 700 851 1275
2570.0 928 820 1229 1396 1124 1544 2146 936 1486 2005
2610.0 2695 1321 2055 2454 3641 1489 2099 3359 2955 1767
2650.0 5489 2527 3105 3914 2689 5219 2092 4420 5771 1384
2690.0 4692 5980 2397 6424 5432 4513 5692 4996 9419 4708
2730.0 1930 5968 3453 2726 3177 3865 4026 3701 4110 5976
2770.0 3076 4863 9513 10000 8496 4342 1595 2396 2722 1378
2810.0 2159 3552 1393 4206 3081 6180 3012 5228 3878 4892
2850.0 6277 6671 5138 4540 7018 3953 4546 6891 2617 3543
2890.0 3759 3553 3044 3912 2060 1705 2765 1282 2260 1721
2930.0 972 933 1026 888 661 899 178 628 319 389
2970.0 237 260 245 176 276 104 209 69 235 73
3010.0 153 144 174 164 73 194 81 176 82 170
3050.0 94 154 139 121 135 104 178 84 160 105
3090.0 171 81 160 167 116 146 124 174 70 186
3130.0 123 162 107 158 138 109 160 112 164 95
3170.0 180 95 161 147 159 130 129 181 123 160
3210.0 132 204 112 173 162 148 154 155 184 125
3250.0 198 159 193 151 203 162 162 188 161 196
3290.0 142 228 162 204 187 218 179 201 228 207
3330.0 228 167 257 201 249 215 231 241 256 251
3370.0 226 324 239 306 191 288 297 281 262 318
3410.0 313 319 320 231 441 319 341 270 263 441
3450.0 383 284 313 525 381 328 370 585 621 271
3490.0 424 550 542 447 404 617 759 537 773 761
3530.0 682 790 1015 674 555 990 1519 666 823 1871
3570.0 1065 642 1578 1524 1611 855 2484 1412 711 2125
3610.0 2131 1033 1189 2794 2063 1071 1679 2114 1917 1295
3650.0 980 1893 1314 1746 1808 1148 1299 1732 2021 936
3690.0 1744 2982 1070 3468 1149 1338 454 696 475 909
3730.0 676 804 1355 1286 1347 1551 1626 1422 2131 2016
3770.0 1673 2405 2881 1349 2283 3016 1427 2319 2506 1721
3810.0 1969 1587 1671 2191 1604 1081 2200 1423 1179 1293
3850.0 1495 1330 1153 1100 1513 771 987 1250 958 1120
3890.0 708 1129 750 901 846 748 920 396 884 548
3930.0 681 537 681 460 542 487 643 910 1510 1316
##END=
