##TITLE=Anthracene, 9-methyl-
##JCAMP-DX=4.24
##DATA TYPE=INFRARED SPECTRUM
##ORIGIN=Sadtler Research Labs Under US-EPA Contract
##OWNER=NIST Standard Reference Data Program
##CAS REGISTRY NO=779-02-2
##MOLFORM=C 15 H 12
##XUNITS=1/CM
##YUNITS=ABSORBANCE
##XFACTOR=1.0
##YFACTOR=0.000032654
##DELTAX=4.0
##FIRSTX=450.0
##LASTX=3966.0
##FIRSTY=0.114582
##MAXX=3966
##MINX=450
##MAXY=0.32654
##MINY=0
##NPOINTS=880
##XYDATA=(X++(Y..Y))
450.0 3509 1450 0 654 332 84 780 471 692 419
490.0 167 619 425 754 473 933 1213 1156 1516 2416
530.0 2695 1935 1220 1177 573 561 444 642 408 551
570.0 422 457 555 557 510 498 875 1074 1295 933
610.0 529 409 302 401 592 540 503 498 320 274
650.0 524 363 228 325 456 693 658 735 871 1133
690.0 1078 1627 2415 1784 1465 1592 2765 4459 7173 10000
730.0 9735 5705 3331 1603 770 578 574 510 750 1092
770.0 1694 2327 1919 1082 728 297 205 418 643 997
810.0 1197 958 1156 1260 1725 2236 1890 1292 924 763
850.0 695 687 936 1084 1356 2085 3005 3394 2540 1732
890.0 1053 562 555 592 444 352 328 379 468 781
930.0 1142 1410 1388 1066 721 477 338 183 180 200
970.0 182 219 184 265 446 688 940 935 826 627
1010.0 571 641 706 804 744 841 861 804 725 693
1050.0 699 611 583 620 720 879 1107 1130 1081 1004
1090.0 913 793 751 738 753 681 637 709 757 764
1130.0 781 774 760 761 777 853 1049 1146 1098 1046
1170.0 885 730 717 792 813 785 752 737 667 591
1210.0 607 605 584 621 608 642 690 790 819 825
1250.0 808 861 1021 1311 1606 1998 2606 3207 3249 2815
1290.0 2407 2506 3194 4115 4750 4604 3775 2890 2422 2194
1330.0 1743 1239 1333 1646 1723 1533 1298 964 796 688
1370.0 752 975 1222 1487 1576 1482 1320 1210 1224 1176
1410.0 1205 1106 1084 930 917 915 977 1116 1193 1179
1450.0 1154 1129 1277 1238 1299 1249 1306 1290 1171 1093
1490.0 943 813 796 818 832 796 938 872 967 993
1530.0 1005 879 727 725 729 876 871 849 777 903
1570.0 949 1009 1101 1251 1492 1799 1982 2203 2337 2024
1610.0 1417 1063 1066 1011 981 794 739 644 673 811
1650.0 771 958 1148 1364 1516 1979 2228 2458 2663 2976
1690.0 3099 2748 1835 1120 943 741 725 572 555 589
1730.0 467 588 475 549 547 484 456 435 429 479
1770.0 495 515 633 680 718 715 720 736 758 677
1810.0 575 487 359 325 295 228 248 201 236 171
1850.0 189 176 149 182 171 161 150 175 179 237
1890.0 313 365 388 357 360 364 388 374 380 427
1930.0 564 623 522 346 189 132 134 141 122 107
1970.0 111 93 85 75 63 75 64 69 45 67
2010.0 61 66 84 73 59 52 53 83 81 61
2050.0 62 45 54 64 78 48 60 50 55 66
2090.0 54 53 55 51 44 40 42 33 30 32
2130.0 34 26 20 29 50 31 36 55 26 42
2170.0 38 32 29 35 31 41 35 36 39 45
2210.0 43 38 32 23 37 31 20 32 39 55
2250.0 50 50 60 67 71 59 67 54 55 83
2290.0 103 99 151 183 202 225 227 261 256 239
2330.0 297 248 211 222 200 297 351 283 252 254
2370.0 177 141 159 148 118 73 79 74 74 67
2410.0 46 51 53 38 60 48 32 33 35 44
2450.0 31 22 36 26 57 55 56 60 56 66
2490.0 62 49 40 44 50 59 60 56 52 59
2530.0 69 55 71 56 62 78 78 68 49 38
2570.0 41 44 54 52 54 33 39 53 55 46
2610.0 54 31 61 66 57 65 69 69 76 81
2650.0 67 48 55 57 58 66 63 70 78 68
2690.0 94 82 80 84 103 86 93 73 87 84
2730.0 94 102 109 116 114 122 102 105 86 81
2770.0 96 68 94 81 76 76 77 96 87 100
2810.0 106 93 106 131 155 155 177 188 234 268
2850.0 280 308 382 430 501 564 617 694 724 777
2890.0 778 766 735 742 766 792 831 907 988 1123
2930.0 1252 1326 1394 1368 1319 1248 1122 1043 960 858
2970.0 786 740 701 709 731 812 901 1006 1100 1207
3010.0 1298 1358 1439 1550 1748 2013 2253 2478 2687 2950
3050.0 3449 4081 4627 5125 5168 4752 4293 3980 3960 3932
3090.0 3612 3006 2204 1424 934 688 532 431 312 247
3130.0 197 208 180 160 159 118 156 131 140 132
3170.0 134 131 97 153 116 108 130 111 105 85
3210.0 102 61 54 71 75 107 115 70 97 84
3250.0 120 134 89 115 91 109 105 97 68 93
3290.0 87 102 82 75 111 104 88 109 115 116
3330.0 111 90 116 142 103 124 141 165 160 120
3370.0 137 109 105 110 102 149 173 137 139 94
3410.0 86 122 92 45 68 78 93 41 66 93
3450.0 149 91 101 65 62 22 80 89 140 42
3490.0 70 49 59 111 113 46 99 61 145 187
3530.0 164 110 164 134 189 171 110 142 107 247
3570.0 276 253 270 261 261 183 127 113 73 124
3610.0 142 106 114 129 138 91 138 85 75 50
3650.0 101 56 90 184 43 199 55 100 51 180
3690.0 159 66 179 172 78 71 147 176 183 139
3730.0 168 31 190 106 64 16 126 119 164 81
3770.0 130 86 52 61 42 89 91 74 19 56
3810.0 156 47 61 30 60 126 12 9 97 43
3850.0 52 15 69 136 257 157 108 189 70 228
3890.0 117 119 165 168 137 66 268 29 177 307
3930.0 207 214 232 127 219 52 55 119 282 218
##END=
