##TITLE=Silane, triethoxyethyl-
##JCAMP-DX=4.24
##DATA TYPE=INFRARED SPECTRUM
##ORIGIN=Sadtler Research Labs Under US-EPA Contract
##OWNER=NIST Standard Reference Data Program
##CAS REGISTRY NO=78-07-9
##MOLFORM=C 8 H 20 O 3 Si
##XUNITS=1/CM
##YUNITS=ABSORBANCE
##XFACTOR=1.0
##YFACTOR=0.000064914
##DELTAX=4.0
##FIRSTX=450.0
##LASTX=3966.0
##FIRSTY=0.000000
##MAXX=3966
##MINX=450
##MAXY=0.64914
##MINY=0
##NPOINTS=880
##XYDATA=(X++(Y..Y))
450.0 0 816 938 1397 1389 1379 1129 1158 1159 1279
490.0 940 984 810 918 927 827 786 810 856 998
530.0 1037 918 951 903 927 813 881 949 916 962
570.0 813 882 909 1039 977 879 906 824 913 1057
610.0 971 996 953 908 939 1003 1050 975 871 954
650.0 942 845 970 899 841 919 871 1008 951 854
690.0 914 1003 963 945 946 952 959 969 1064 1211
730.0 1234 1493 1574 1826 2055 2492 2537 2559 2443 2331
770.0 2470 2709 3071 3507 3657 3426 2874 2324 2014 1638
810.0 1427 1301 1171 1059 1028 1030 1110 1021 1001 1002
850.0 945 973 947 951 890 910 865 914 935 853
890.0 883 892 912 975 964 1019 1020 1084 1174 1290
930.0 1478 1708 2046 2333 2601 2768 2791 2714 2625 2491
970.0 2437 2312 2063 1763 1523 1390 1301 1299 1345 1470
1010.0 1667 1776 1752 1646 1537 1484 1467 1489 1599 1678
1050.0 1812 1968 2154 2402 2823 3388 4151 5119 5822 6023
1090.0 5673 5092 4902 5672 7112 8792 9893 10000 8837 7589
1130.0 6483 5640 5031 4524 4093 3733 3529 3327 3178 2996
1170.0 2845 2676 2514 2339 2097 1907 1711 1595 1447 1379
1210.0 1322 1284 1243 1247 1274 1275 1299 1334 1407 1443
1250.0 1503 1443 1390 1321 1262 1199 1181 1184 1184 1169
1290.0 1154 1163 1156 1159 1141 1130 1095 1059 1025 1012
1330.0 986 978 967 974 978 987 1002 1034 1051 1114
1370.0 1159 1214 1285 1388 1560 1724 1797 1697 1498 1329
1410.0 1216 1207 1186 1214 1167 1133 1107 1083 1086 1065
1450.0 1070 1091 1082 1107 1088 1077 1042 985 947 950
1490.0 939 946 929 928 913 912 852 893 891 893
1530.0 876 873 892 887 866 845 870 876 897 853
1570.0 857 863 853 854 844 842 853 820 851 836
1610.0 838 838 853 853 837 852 834 859 852 832
1650.0 885 854 871 816 851 841 850 840 839 868
1690.0 848 848 868 886 854 856 845 863 865 847
1730.0 880 860 883 861 853 853 863 858 852 848
1770.0 847 856 843 839 837 841 836 843 821 840
1810.0 835 829 834 831 840 845 845 854 840 863
1850.0 854 858 870 879 886 879 891 885 885 887
1890.0 890 895 899 899 895 886 880 880 869 867
1930.0 868 858 852 836 837 837 837 832 832 824
1970.0 822 824 823 829 823 814 818 816 814 812
2010.0 816 813 812 812 808 811 813 805 807 808
2050.0 806 804 810 809 809 810 812 810 808 810
2090.0 812 819 815 812 808 817 814 810 805 806
2130.0 810 806 810 807 801 806 811 809 809 813
2170.0 813 814 819 819 819 815 820 821 817 816
2210.0 814 815 812 810 817 814 811 806 804 806
2250.0 810 808 806 806 809 806 799 802 793 789
2290.0 787 786 779 779 768 760 777 778 784 793
2330.0 782 791 804 798 806 783 776 793 805 790
2370.0 805 805 803 793 798 803 807 807 812 807
2410.0 814 813 809 807 813 814 817 823 822 818
2450.0 819 820 822 819 821 814 812 814 812 813
2490.0 807 811 809 808 811 809 814 812 809 813
2530.0 807 811 810 810 811 806 806 810 813 811
2570.0 813 812 808 807 812 813 815 820 818 820
2610.0 822 820 824 824 826 829 833 827 833 833
2650.0 828 833 837 838 841 835 833 829 833 837
2690.0 836 837 843 849 847 852 863 878 890 900
2730.0 909 917 936 949 951 948 945 941 930 938
2770.0 941 937 939 928 927 922 924 932 934 946
2810.0 954 973 993 1007 1027 1034 1052 1075 1107 1150
2850.0 1187 1242 1306 1388 1495 1646 1836 2066 2358 2659
2890.0 2876 2949 2911 2825 2754 2691 2654 2655 2686 2769
2930.0 2909 3034 3025 2910 2708 2523 2419 2445 2590 2902
2970.0 3285 3672 3911 3870 3445 2892 2389 2057 1820 1637
3010.0 1499 1377 1272 1195 1117 1074 1036 994 972 948
3050.0 926 915 913 899 887 881 881 878 877 870
3090.0 873 868 864 870 859 862 854 848 851 853
3130.0 841 845 841 846 837 840 837 835 837 826
3170.0 828 819 828 819 834 834 828 819 822 826
3210.0 828 836 828 824 816 826 827 816 816 802
3250.0 809 808 811 804 806 806 807 794 796 800
3290.0 799 797 804 806 798 798 802 798 794 793
3330.0 785 799 797 790 792 798 797 797 799 790
3370.0 788 797 792 798 795 792 785 798 789 793
3410.0 796 791 793 791 786 787 782 787 796 786
3450.0 785 778 779 776 793 791 782 782 772 773
3490.0 772 776 774 776 786 789 784 784 775 780
3530.0 779 778 784 783 783 771 783 775 794 767
3570.0 786 794 791 785 778 774 774 785 784 801
3610.0 788 783 776 781 776 793 793 801 787 799
3650.0 811 831 789 799 807 784 828 809 819 793
3690.0 808 813 788 788 779 788 783 776 784 768
3730.0 760 789 760 796 791 814 775 784 774 760
3770.0 763 763 760 763 777 764 759 780 766 771
3810.0 773 766 789 818 775 768 787 776 763 784
3850.0 784 832 803 777 782 792 776 799 796 785
3890.0 780 774 781 798 809 794 760 785 760 796
3930.0 800 806 775 773 780 827 810 809 813 822
##END=
