##TITLE=1,3-Propanediol, 2-methyl-2-propyl-
##JCAMP-DX=4.24
##DATA TYPE=INFRARED SPECTRUM
##ORIGIN=Sadtler Research Labs Under US-EPA Contract
##OWNER=NIST Standard Reference Data Program
##CAS REGISTRY NO=78-26-2
##MOLFORM=C 7 H 16 O 2
##XUNITS=1/CM
##YUNITS=ABSORBANCE
##XFACTOR=1.0
##YFACTOR=0.000136154
##DELTAX=4.0
##FIRSTX=450.0
##LASTX=3966.0
##FIRSTY=0.028048
##MAXX=3966
##MINX=450
##MAXY=1.36154
##MINY=0
##NPOINTS=880
##XYDATA=(X++(Y..Y))
450.0 206 132 125 156 169 154 203 159 173 150
490.0 158 126 125 100 81 89 82 85 71 85
530.0 51 43 27 19 22 14 23 34 75 108
570.0 136 169 184 191 207 198 176 171 135 105
610.0 77 61 34 21 20 18 7 2 8 11
650.0 21 21 20 16 26 40 18 1 20 20
690.0 18 21 33 37 48 53 60 71 81 111
730.0 148 202 237 272 275 258 243 209 180 157
770.0 138 109 90 75 68 75 89 100 108 107
810.0 103 88 80 77 73 77 82 90 102 120
850.0 153 184 207 225 250 266 281 295 313 334
890.0 360 386 409 433 458 498 549 609 658 683
930.0 690 683 657 646 662 667 681 693 709 733
970.0 757 796 849 917 993 1116 1284 1532 1909 2459
1010.0 3213 4123 5151 6102 6962 7450 7756 7696 7450 7164
1050.0 6749 6305 5745 5262 4697 4101 3416 2771 2206 1774
1090.0 1464 1239 1064 915 802 722 699 694 716 742
1130.0 784 832 890 949 1007 1058 1102 1127 1135 1119
1170.0 1093 1054 1004 952 908 868 842 827 824 833
1210.0 855 887 913 941 959 964 947 926 897 864
1250.0 844 835 828 834 836 829 831 833 849 853
1290.0 857 853 844 835 825 818 813 812 812 814
1330.0 816 822 833 843 857 878 909 960 1039 1125
1370.0 1217 1316 1377 1412 1406 1385 1330 1278 1241 1231
1410.0 1214 1174 1134 1030 918 805 764 749 831 961
1450.0 1166 1334 1588 1784 1925 2064 2006 1851 1504 1188
1490.0 828 567 395 279 232 197 160 158 148 126
1530.0 110 94 95 78 80 74 91 83 104 63
1570.0 72 54 67 27 32 20 5 8 9 26
1610.0 20 45 33 40 24 35 32 37 15 30
1650.0 2 41 13 8 20 33 30 64 48 91
1690.0 62 68 71 84 63 63 80 98 112 121
1730.0 143 145 167 150 159 153 145 120 106 97
1770.0 82 80 55 63 43 57 39 35 33 31
1810.0 23 24 25 14 22 12 20 7 19 12
1850.0 12 10 13 6 9 10 8 9 7 8
1890.0 10 12 12 11 10 7 10 13 7 8
1930.0 7 7 5 6 5 5 6 7 11 11
1970.0 15 16 16 17 18 17 18 19 20 18
2010.0 20 25 27 30 37 41 49 56 59 66
2050.0 70 75 76 75 74 77 76 71 63 56
2090.0 50 44 43 41 40 37 35 34 32 30
2130.0 27 19 20 15 13 9 9 10 12 12
2170.0 14 17 18 18 18 17 16 15 14 11
2210.0 12 9 8 8 11 12 10 15 18 18
2250.0 17 19 17 14 16 16 15 19 21 23
2290.0 26 34 39 46 51 55 56 57 65 65
2330.0 67 56 48 60 53 48 57 44 69 61
2370.0 45 45 52 49 34 26 24 23 21 21
2410.0 22 21 17 18 15 14 12 10 10 12
2450.0 14 9 13 14 10 9 6 5 6 3
2490.0 2 5 1 2 5 5 4 9 11 15
2530.0 16 14 16 14 12 12 12 14 17 15
2570.0 19 23 22 28 33 35 41 47 50 54
2610.0 59 53 54 57 62 64 67 73 79 90
2650.0 98 109 117 123 129 138 142 146 153 157
2690.0 161 166 175 188 198 212 227 247 273 307
2730.0 333 361 389 410 424 434 435 427 431 439
2770.0 450 459 473 494 506 531 560 588 623 669
2810.0 714 767 823 885 958 1056 1189 1374 1608 1899
2850.0 2242 2623 3004 3434 3963 4648 5498 6327 6945 7050
2890.0 6932 6465 6027 5741 5739 5927 6218 6617 6985 7455
2930.0 7832 8233 8465 8472 8269 8085 8210 8640 9423 9898
2970.0 10000 9059 7510 5670 3954 2680 1857 1345 1030 843
3010.0 718 638 577 540 512 478 433 402 361 323
3050.0 282 255 233 215 202 198 189 180 169 164
3090.0 157 150 142 139 133 118 119 114 109 106
3130.0 115 114 109 106 112 110 104 106 96 96
3170.0 92 88 87 83 81 81 76 81 73 76
3210.0 70 70 53 52 46 46 42 37 35 32
3250.0 25 24 26 30 32 32 28 30 37 40
3290.0 45 43 40 37 31 30 18 11 16 7
3330.0 19 15 19 22 21 27 28 20 25 32
3370.0 25 20 12 10 2 4 13 0 11 18
3410.0 22 31 32 29 34 43 49 56 40 39
3450.0 31 30 21 21 22 21 30 11 18 27
3490.0 38 36 36 35 23 28 26 26 15 11
3530.0 26 20 20 19 34 45 56 64 96 137
3570.0 163 226 312 473 669 936 1194 1378 1467 1392
3610.0 1267 1037 836 679 561 514 482 485 528 617
3650.0 784 980 1317 1684 1970 2136 2100 1903 1495 1104
3690.0 764 519 363 266 213 162 130 121 80 73
3730.0 47 72 41 42 29 45 57 34 54 62
3770.0 75 61 41 51 34 37 11 27 1 0
3810.0 3 11 6 39 11 30 44 60 66 67
3850.0 29 46 24 7 25 38 16 10 29 19
3890.0 20 28 62 70 82 66 64 63 65 52
3930.0 38 34 45 29 22 7 45 75 48 69
##END=
