##TITLE=Cyclohexanol, 1-ethynyl-
##JCAMP-DX=4.24
##DATA TYPE=INFRARED SPECTRUM
##ORIGIN=Sadtler Research Labs Under US-EPA Contract
##OWNER=NIST Standard Reference Data Program
##CAS REGISTRY NO=78-27-3
##MOLFORM=C 8 H 12 O
##XUNITS=1/CM
##YUNITS=ABSORBANCE
##XFACTOR=1.0
##YFACTOR=0.000119003
##DELTAX=4.0
##FIRSTX=450.0
##LASTX=3966.0
##FIRSTY=0.000000
##MAXX=3966
##MINX=450
##MAXY=1.19003
##MINY=0
##NPOINTS=880
##XYDATA=(X++(Y..Y))
450.0 0 173 420 619 449 374 373 351 455 330
490.0 366 445 485 498 519 729 665 792 974 969
530.0 860 760 726 691 817 830 938 754 714 657
570.0 551 459 454 477 402 413 450 446 466 488
610.0 557 696 1009 1394 1753 2546 2777 2738 2617 2844
650.0 2726 2712 2075 1562 1276 961 654 542 495 474
690.0 416 402 422 398 376 404 366 357 378 385
730.0 382 348 383 361 398 381 384 414 418 413
770.0 437 422 445 443 430 413 395 411 386 407
810.0 402 411 413 422 423 469 461 508 548 581
850.0 610 603 529 485 446 403 401 387 390 437
890.0 466 513 585 664 680 662 656 613 554 567
930.0 602 703 822 955 1089 1290 1545 1845 2040 2345
970.0 2261 1848 1457 1099 731 528 435 410 406 414
1010.0 448 485 608 739 850 1014 1067 1106 1126 1156
1050.0 1270 1539 1900 2266 2590 2775 2669 2347 1872 1362
1090.0 1000 776 600 520 493 477 462 471 511 540
1130.0 584 636 674 715 750 806 860 924 953 936
1170.0 895 855 783 737 701 677 663 642 629 622
1210.0 621 629 628 641 662 698 763 865 1052 1303
1250.0 1573 1793 1784 1720 1591 1361 1138 1016 940 910
1290.0 883 861 919 975 998 1060 1134 1172 1172 1148
1330.0 1127 1078 1025 959 918 864 805 772 768 761
1370.0 798 819 816 788 730 669 590 545 493 459
1410.0 448 425 456 443 472 533 596 774 906 1072
1450.0 1196 1319 1212 1109 904 768 599 486 392 345
1490.0 342 314 321 312 325 330 294 324 312 295
1530.0 314 278 340 287 309 291 286 341 277 298
1570.0 301 280 312 262 293 266 290 272 272 284
1610.0 243 301 253 291 273 270 280 276 263 298
1650.0 281 302 288 262 294 273 293 263 300 268
1690.0 283 275 286 296 272 293 295 334 335 351
1730.0 398 380 413 360 364 333 290 275 268 266
1770.0 269 265 255 256 264 249 273 245 262 251
1810.0 253 259 244 260 239 259 239 245 246 241
1850.0 236 225 240 235 235 241 232 238 234 240
1890.0 240 241 234 238 234 244 236 251 241 248
1930.0 246 240 244 238 243 231 240 228 235 229
1970.0 233 231 230 228 230 232 232 234 231 228
2010.0 235 228 231 230 231 232 235 233 230 227
2050.0 229 226 227 221 221 224 225 228 225 225
2090.0 228 226 230 233 233 241 238 238 236 235
2130.0 231 225 227 222 220 217 218 220 217 217
2170.0 222 219 217 219 222 220 220 221 223 222
2210.0 221 220 217 217 215 217 212 213 214 213
2250.0 216 212 215 217 217 221 220 226 229 238
2290.0 247 249 265 268 275 303 278 296 294 287
2330.0 304 304 320 281 329 271 341 274 342 363
2370.0 322 318 264 245 221 198 190 188 191 196
2410.0 197 195 195 198 196 195 194 187 188 186
2450.0 183 188 185 184 182 180 186 187 189 189
2490.0 193 191 187 190 191 191 194 192 192 192
2530.0 191 191 192 193 190 189 191 190 191 195
2570.0 195 191 197 198 197 200 205 205 210 212
2610.0 212 215 216 217 215 219 218 215 223 226
2650.0 235 244 248 260 271 279 284 283 276 265
2690.0 251 246 234 226 223 215 217 212 214 212
2730.0 208 214 208 212 213 214 220 219 225 224
2770.0 229 237 242 253 260 268 286 283 289 288
2810.0 283 294 280 286 291 295 312 333 394 509
2850.0 726 1128 1583 2057 2383 2511 2362 2081 1560 1240
2890.0 1038 899 916 984 1063 1149 1242 1432 1783 2434
2930.0 3552 5227 7222 8858 10000 9463 7999 5908 3796 2178
2970.0 1221 711 463 351 292 257 243 231 219 213
3010.0 212 209 211 214 212 209 214 207 213 217
3050.0 220 222 220 220 218 217 212 208 212 205
3090.0 205 196 194 197 194 196 195 194 194 198
3130.0 202 206 207 207 207 210 209 211 217 215
3170.0 211 212 212 216 218 214 220 212 210 212
3210.0 206 205 200 200 198 196 208 197 204 209
3250.0 210 223 212 219 233 240 262 275 302 330
3290.0 378 491 568 716 826 996 1377 1781 2050 2420
3330.0 2024 1852 1303 669 381 328 283 282 265 250
3370.0 249 225 234 229 219 230 220 222 222 220
3410.0 218 219 222 220 222 231 225 228 228 227
3450.0 237 230 239 226 226 226 226 216 220 216
3490.0 223 216 216 213 212 214 217 215 210 204
3530.0 213 220 216 219 212 212 210 220 218 207
3570.0 200 220 199 227 185 222 190 231 212 236
3610.0 230 239 300 319 497 651 842 1008 1082 974
3650.0 881 586 496 287 301 239 240 236 208 257
3690.0 181 239 210 228 225 208 212 234 194 224
3730.0 211 206 232 204 268 177 291 204 262 220
3770.0 238 256 248 244 237 228 257 223 269 211
3810.0 289 214 267 218 239 215 232 232 223 231
3850.0 254 257 223 255 232 265 250 241 238 266
3890.0 238 291 236 273 249 273 257 240 278 240
3930.0 266 216 235 251 240 248 229 230 212 219
##END=
