##TITLE=Phosphonic acid, ethyl-, diethyl ester
##JCAMP-DX=4.24
##DATA TYPE=INFRARED SPECTRUM
##ORIGIN=Sadtler Research Labs Under US-EPA Contract
##OWNER=NIST Standard Reference Data Program
##CAS REGISTRY NO=78-38-6
##MOLFORM=C 6 H 15 O 3 P
##XUNITS=1/CM
##YUNITS=ABSORBANCE
##XFACTOR=1.0
##YFACTOR=0.000049445
##DELTAX=4.0
##FIRSTX=450.0
##LASTX=3966.0
##FIRSTY=0.016811
##MAXX=3966
##MINX=450
##MAXY=0.49445
##MINY=0
##NPOINTS=880
##XYDATA=(X++(Y..Y))
450.0 340 345 386 427 468 508 570 625 711 778
490.0 839 836 792 857 898 937 942 941 917 819
530.0 692 550 409 300 200 133 171 99 19 5
570.0 62 38 43 28 71 48 39 13 31 19
610.0 20 19 30 29 38 30 29 40 41 47
650.0 51 58 59 68 90 171 193 276 384 515
690.0 643 756 807 780 696 586 471 368 316 306
730.0 349 424 530 628 701 736 778 905 1152 1550
770.0 2040 2532 2941 3269 3452 3553 3565 3351 2984 2472
810.0 1946 1469 1053 766 578 444 371 312 282 250
850.0 233 224 201 208 199 206 217 235 256 286
890.0 308 360 414 488 587 719 891 1123 1480 1967
930.0 2691 3709 4974 6231 7023 6971 6421 5466 4543 3699
970.0 2998 2420 2092 1854 1715 1689 1781 2181 3005 3962
1010.0 4762 5364 5840 6609 7694 8786 9555 9880 10000 9876
1050.0 9797 9495 8783 8425 7996 7341 6415 5292 4197 3456
1090.0 3164 3149 3164 3032 2710 2247 1813 1492 1286 1150
1130.0 1070 1014 997 990 987 998 1008 1008 1007 986
1170.0 964 908 845 752 660 566 492 430 397 385
1210.0 395 437 510 638 810 1022 1326 1617 1938 2325
1250.0 2759 3001 3359 3719 3873 3663 3430 3197 3020 2860
1290.0 2678 2522 2326 2056 1664 1282 941 661 489 379
1330.0 310 261 231 222 218 217 234 260 319 380
1370.0 471 551 567 704 875 1073 1202 1181 1060 856
1410.0 698 619 564 517 464 425 404 416 439 479
1450.0 509 532 564 599 614 588 516 436 356 303
1490.0 252 215 183 164 145 128 110 99 86 79
1530.0 68 69 68 54 46 50 50 35 39 40
1570.0 34 39 31 31 33 32 33 32 35 34
1610.0 41 42 40 41 51 53 51 50 52 51
1650.0 49 48 49 43 42 41 39 43 39 39
1690.0 40 52 49 49 52 53 62 67 83 88
1730.0 90 99 101 102 100 100 102 92 90 83
1770.0 78 68 63 64 59 51 63 63 63 64
1810.0 73 74 76 83 86 93 98 104 104 102
1850.0 103 105 104 94 94 92 86 75 64 61
1890.0 57 46 36 26 27 27 16 16 17 6
1930.0 7 6 7 7 7 7 8 8 8 8
1970.0 18 18 18 18 18 18 18 8 8 9
2010.0 9 9 18 8 9 9 10 8 9 9
2050.0 14 18 13 10 10 10 10 0 10 10
2090.0 10 10 11 10 10 10 4 1 0 11
2130.0 1 2 10 10 11 11 11 11 11 11
2170.0 11 11 13 2 1 1 3 3 2 2
2210.0 4 4 4 4 4 4 4 4 5 4
2250.0 4 15 15 4 9 14 17 14 6 6
2290.0 7 9 9 9 11 11 12 12 14 14
2330.0 14 14 23 25 34 24 16 17 30 40
2370.0 56 54 53 42 34 30 30 31 29 31
2410.0 31 31 31 31 35 40 47 40 44 45
2450.0 43 42 33 32 32 34 33 30 24 24
2490.0 24 24 24 24 24 24 25 25 25 25
2530.0 25 25 25 27 27 26 26 28 27 17
2570.0 18 18 18 18 19 19 19 26 19 20
2610.0 28 30 31 30 21 21 21 21 21 21
2650.0 21 20 32 24 22 22 22 23 23 23
2690.0 35 37 43 44 50 43 55 54 65 74
2730.0 74 85 86 94 95 99 105 105 106 106
2770.0 113 116 116 116 117 107 107 107 107 118
2810.0 129 134 137 147 158 169 178 188 199 209
2850.0 229 242 266 300 351 429 528 641 762 903
2890.0 1056 1181 1283 1364 1421 1442 1461 1484 1507 1581
2930.0 1735 1958 2157 2323 2418 2417 2331 2187 2061 1988
2970.0 2086 2451 3047 3687 4120 4091 3705 2975 2287 1768
3010.0 1376 1101 899 741 599 486 399 339 293 251
3050.0 220 190 179 169 140 130 121 110 107 101
3090.0 96 93 93 93 93 94 93 93 93 92
3130.0 85 84 86 85 78 77 84 77 77 76
3170.0 76 76 68 67 69 68 68 62 59 58
3210.0 60 60 49 60 59 51 51 51 51 51
3250.0 51 51 51 44 43 44 43 44 44 43
3290.0 45 45 45 45 45 35 35 36 36 37
3330.0 37 27 28 37 26 27 40 33 30 39
3370.0 30 28 40 29 40 30 19 20 19 26
3410.0 33 27 31 31 32 32 32 22 33 32
3450.0 24 25 17 23 24 24 25 26 34 26
3490.0 25 26 24 25 29 19 26 22 17 29
3530.0 17 19 28 19 28 19 19 17 10 21
3570.0 21 10 11 18 22 10 12 23 23 13
3610.0 3 12 13 24 18 19 14 14 15 15
3650.0 15 15 7 16 17 17 9 17 18 6
3690.0 18 19 27 18 19 19 18 10 10 13
3730.0 20 9 21 9 21 20 13 21 12 12
3770.0 13 13 14 14 2 4 4 4 5 6
3810.0 14 17 6 7 16 16 17 21 15 18
3850.0 19 5 19 18 28 28 29 29 29 30
3890.0 30 30 31 38 30 33 40 42 52 43
3930.0 42 53 52 65 64 64 64 64 72 74
##END=
