##TITLE=Dibutyl butanephosphonate
##JCAMP-DX=4.24
##DATA TYPE=INFRARED SPECTRUM
##ORIGIN=Sadtler Research Labs Under US-EPA Contract
##OWNER=NIST Standard Reference Data Program
##CAS REGISTRY NO=78-46-6
##MOLFORM=C 12 H 27 O 3 P
##XUNITS=1/CM
##YUNITS=ABSORBANCE
##XFACTOR=1.0
##YFACTOR=0.000093948
##DELTAX=4.0
##FIRSTX=450.0
##LASTX=3966.0
##FIRSTY=0.034009
##MAXX=3966
##MINX=450
##MAXY=0.93948
##MINY=0
##NPOINTS=880
##XYDATA=(X++(Y..Y))
450.0 362 416 503 427 406 447 467 380 398 452
490.0 401 430 436 463 494 561 549 582 603 741
530.0 846 933 1011 1075 1104 1038 895 663 554 410
570.0 298 197 140 110 70 70 51 24 29 9
610.0 14 10 13 17 7 17 16 11 23 33
650.0 48 44 57 80 125 131 163 170 277 326
690.0 410 474 472 495 488 491 527 581 737 855
730.0 988 1022 938 932 803 755 706 680 659 628
770.0 648 713 738 810 907 1059 1235 1398 1522 1586
810.0 1619 1677 1704 1729 1758 1737 1716 1631 1480 1242
850.0 993 792 672 639 667 754 862 1037 1272 1528
890.0 1704 1869 2007 2177 2363 2414 2205 1799 1385 1082
930.0 935 895 978 1131 1434 1838 2319 2797 3342 4019
970.0 4847 5619 6040 5816 5095 4354 4050 4137 4357 4643
1010.0 5251 6509 8115 9517 10000 9423 8595 7676 6983 6555
1050.0 6062 5600 5406 5560 5793 5924 5845 5380 4572 3591
1090.0 2767 2189 1764 1453 1223 1100 1043 1007 935 875
1130.0 834 796 762 739 718 686 643 573 506 455
1170.0 416 399 386 361 346 338 322 329 357 401
1210.0 516 705 937 1114 1147 1078 1045 1079 1180 1383
1250.0 1777 2495 3467 4299 4474 3982 3367 2841 2479 2152
1290.0 1809 1561 1353 1182 1029 902 822 723 601 486
1330.0 404 340 325 354 385 376 346 314 310 288
1370.0 312 368 473 689 865 926 825 649 524 494
1410.0 522 527 438 352 316 351 421 478 512 547
1450.0 637 747 893 1055 1143 1176 1064 865 667 543
1490.0 395 305 233 206 197 149 145 134 116 92
1530.0 103 85 100 77 42 55 64 77 57 71
1570.0 42 42 45 43 45 60 46 37 21 43
1610.0 43 53 49 33 25 36 45 45 43 64
1650.0 30 54 23 46 39 54 40 31 37 53
1690.0 69 62 60 49 48 60 66 58 52 76
1730.0 74 64 66 72 59 78 93 84 93 91
1770.0 88 69 71 91 60 50 67 76 76 93
1810.0 68 62 94 62 61 87 88 70 71 77
1850.0 57 52 53 81 67 85 82 75 52 64
1890.0 54 54 65 46 37 39 44 60 39 33
1930.0 33 39 36 26 19 17 27 30 39 32
1970.0 24 35 25 19 16 29 19 28 21 21
2010.0 15 18 30 32 22 36 38 35 26 23
2050.0 31 27 30 22 25 31 18 12 14 23
2090.0 20 20 33 24 16 12 36 30 25 10
2130.0 24 12 12 15 11 5 12 16 23 35
2170.0 22 9 32 21 26 24 24 26 26 17
2210.0 8 22 20 17 15 32 28 25 11 8
2250.0 11 9 5 16 11 22 15 16 25 17
2290.0 19 19 20 23 31 27 32 34 38 31
2330.0 27 14 57 43 32 64 108 89 71 59
2370.0 31 33 25 31 24 20 22 23 17 17
2410.0 20 21 16 18 24 16 16 18 14 18
2450.0 14 7 14 10 13 12 15 8 11 14
2490.0 16 11 10 12 17 17 15 16 23 22
2530.0 17 13 14 11 19 16 17 16 23 31
2570.0 17 24 20 22 26 27 26 30 31 32
2610.0 36 33 38 35 43 38 40 44 43 38
2650.0 42 46 57 54 67 64 71 70 69 65
2690.0 66 77 75 76 84 81 84 83 97 104
2730.0 111 120 135 157 166 178 174 171 170 160
2770.0 155 155 154 151 157 166 172 195 202 221
2810.0 235 254 282 294 327 364 408 474 554 672
2850.0 816 955 1095 1278 1589 2029 2534 2996 3397 3599
2890.0 3417 3056 2843 2844 2991 3234 3536 3780 3853 3931
2930.0 4168 4656 5348 5975 6339 6406 6410 6696 7411 8456
2970.0 9141 8551 6581 4495 3061 2204 1647 1270 1006 830
3010.0 701 599 519 462 415 373 342 307 284 264
3050.0 234 211 192 177 170 169 154 148 146 142
3090.0 136 117 122 115 103 100 103 96 98 101
3130.0 88 81 83 83 90 82 80 82 80 82
3170.0 84 84 76 75 72 76 71 62 67 66
3210.0 61 58 59 50 47 45 39 39 39 35
3250.0 33 31 25 28 27 35 26 23 17 17
3290.0 20 28 28 33 24 30 22 31 31 17
3330.0 23 26 27 29 23 17 21 21 13 23
3370.0 29 31 27 32 27 36 22 30 27 28
3410.0 19 28 29 29 18 28 29 26 33 24
3450.0 24 20 31 30 20 28 34 28 28 26
3490.0 25 32 22 26 35 19 40 21 16 24
3530.0 19 20 25 32 39 28 23 24 22 7
3570.0 19 21 28 25 33 29 29 29 24 39
3610.0 18 23 29 34 28 30 33 53 36 43
3650.0 29 28 31 35 42 33 44 24 34 45
3690.0 36 26 36 36 36 41 22 36 41 23
3730.0 31 25 24 46 15 41 13 40 20 30
3770.0 13 5 37 13 5 27 29 39 24 25
3810.0 15 9 18 27 15 26 31 40 9 37
3850.0 29 42 0 44 40 46 22 24 50 29
3890.0 37 0 3 19 11 31 50 37 49 63
3930.0 67 29 31 36 55 37 71 62 23 28
##END=
