##TITLE=Triethyl phosphate
##JCAMP-DX=4.24
##DATA TYPE=INFRARED SPECTRUM
##ORIGIN=Sadtler Research Labs Under US-EPA Contract
##OWNER=NIST Standard Reference Data Program
##CAS REGISTRY NO=78-40-0
##MOLFORM=C 6 H 15 O 4 P
##XUNITS=1/CM
##YUNITS=ABSORBANCE
##XFACTOR=1.0
##YFACTOR=0.000056430
##DELTAX=4.0
##FIRSTX=450.0
##LASTX=3966.0
##FIRSTY=0.000000
##MAXX=3966
##MINX=450
##MAXY=0.5643
##MINY=0
##NPOINTS=880
##XYDATA=(X++(Y..Y))
450.0 0 10 33 60 86 113 107 118 124 132
490.0 160 169 184 217 288 294 348 423 476 537
530.0 546 550 514 466 387 292 210 184 130 106
570.0 77 47 36 34 35 33 24 34 32 25
610.0 26 34 25 18 29 49 22 19 18 24
650.0 22 23 13 16 7 30 12 24 32 30
690.0 30 37 37 42 59 61 79 97 134 164
730.0 194 240 279 307 329 299 256 208 167 153
770.0 153 190 246 325 440 574 737 891 1010 1106
810.0 1152 1143 1037 882 708 483 360 268 204 180
850.0 158 136 126 118 108 109 109 108 108 109
890.0 118 126 140 159 177 200 237 291 352 437
930.0 558 716 914 1171 1496 1881 2321 2717 3008 3106
970.0 2987 2718 2343 1915 1505 1161 932 792 759 795
1010.0 921 1140 1489 2036 2899 4205 6051 8211 9971 10000
1050.0 9177 7817 6570 5278 4089 3142 2436 1944 1651 1484
1090.0 1378 1312 1238 1154 1012 869 759 687 623 586
1130.0 574 558 557 568 576 586 596 595 595 595
1170.0 575 553 513 456 387 332 272 224 186 167
1210.0 158 139 139 139 139 149 151 156 171 189
1250.0 225 271 352 501 738 1073 1442 1792 1902 1787
1290.0 1656 1590 1603 1635 1560 1314 1010 716 480 342
1330.0 259 207 181 154 146 148 148 164 187 244
1370.0 275 357 319 342 382 472 557 573 517 395
1410.0 274 208 174 158 155 158 155 164 179 198
1450.0 199 192 181 161 160 156 146 136 140 140
1490.0 126 111 97 81 87 63 56 56 44 45
1530.0 36 38 45 32 26 30 31 35 17 20
1570.0 27 26 21 21 23 22 21 21 33 21
1610.0 22 25 24 26 23 22 30 20 30 30
1650.0 27 25 21 22 25 30 29 32 34 37
1690.0 37 40 36 35 30 33 39 37 30 32
1730.0 36 37 29 39 39 47 40 49 59 51
1770.0 67 67 68 72 78 74 69 69 57 51
1810.0 50 50 42 40 40 51 50 50 59 69
1850.0 69 79 79 79 78 76 71 76 70 69
1890.0 70 59 61 60 60 53 53 52 41 42
1930.0 40 41 34 33 34 23 24 36 24 25
1970.0 25 25 25 25 25 25 25 25 25 26
2010.0 23 24 16 25 25 25 19 23 17 16
2050.0 18 17 17 17 17 18 26 25 26 17
2090.0 17 16 20 25 20 21 30 25 17 17
2130.0 17 18 16 16 26 19 19 19 18 24
2170.0 17 19 26 19 26 18 18 18 18 18
2210.0 18 18 18 18 18 18 17 17 18 18
2250.0 18 18 18 18 18 18 16 17 17 16
2290.0 15 14 11 11 8 15 15 18 12 13
2330.0 12 13 13 11 10 12 20 21 22 7
2370.0 7 7 7 11 7 7 10 11 19 19
2410.0 19 19 19 19 19 19 19 19 19 19
2450.0 19 19 19 18 18 18 20 18 19 10
2490.0 8 12 13 11 10 10 11 11 11 11
2530.0 11 11 11 11 11 11 11 11 11 11
2570.0 11 11 11 11 11 11 11 11 11 11
2610.0 11 11 11 11 10 10 10 10 10 10
2650.0 10 10 10 10 10 10 10 10 12 12
2690.0 12 11 11 11 10 10 21 18 19 19
2730.0 29 29 29 29 38 39 39 39 38 38
2770.0 38 48 56 56 48 49 47 44 44 45
2810.0 39 44 48 49 55 56 57 57 66 67
2850.0 75 78 87 103 126 160 196 244 274 303
2890.0 305 314 325 373 441 517 577 597 594 569
2930.0 586 682 816 906 919 841 738 666 651 680
2970.0 749 871 1073 1331 1553 1638 1541 1337 1081 863
3010.0 686 549 455 373 301 239 194 154 127 106
3050.0 86 77 67 68 49 49 39 40 35 31
3090.0 31 32 32 30 22 32 32 22 31 31
3130.0 27 27 25 31 24 22 22 21 21 22
3170.0 31 23 23 21 33 32 21 23 31 22
3210.0 22 23 22 22 23 22 23 22 22 23
3250.0 24 19 15 23 13 15 22 14 14 15
3290.0 14 13 18 19 14 14 14 14 14 14
3330.0 15 15 15 15 15 19 13 14 14 14
3370.0 14 15 15 14 15 14 23 15 15 15
3410.0 15 14 14 15 15 14 15 16 24 15
3450.0 16 15 15 15 15 15 15 16 16 16
3490.0 15 15 16 16 16 16 16 16 16 16
3530.0 16 16 16 16 15 15 15 15 15 17
3570.0 16 15 17 17 17 17 17 17 16 7
3610.0 17 14 18 17 17 18 13 16 7 17
3650.0 18 8 16 17 17 17 17 17 17 16
3690.0 17 10 8 7 7 7 8 10 7 13
3730.0 11 14 11 11 11 11 10 10 10 10
3770.0 20 14 20 18 13 11 17 14 15 14
3810.0 14 14 7 7 7 8 7 10 8 8
3850.0 10 12 7 7 7 7 7 13 7 7
3890.0 17 17 7 8 11 11 11 11 13 13
3930.0 13 15 16 16 16 18 8 10 11 12
##END=
