##TITLE=Ethanol, 2-butoxy-, phosphate (3:1)
##JCAMP-DX=4.24
##DATA TYPE=INFRARED SPECTRUM
##ORIGIN=Sadtler Research Labs Under US-EPA Contract
##OWNER=NIST Standard Reference Data Program
##CAS REGISTRY NO=78-51-3
##MOLFORM=C 18 H 39 O 7 P
##XUNITS=1/CM
##YUNITS=ABSORBANCE
##XFACTOR=1.0
##YFACTOR=0.000056406
##DELTAX=4.0
##FIRSTX=450.0
##LASTX=3966.0
##FIRSTY=0.001692
##MAXX=3966
##MINX=450
##MAXY=0.56406
##MINY=0
##NPOINTS=880
##XYDATA=(X++(Y..Y))
450.0 30 81 92 144 246 277 158 145 100 129
490.0 248 277 312 385 342 291 318 348 358 370
530.0 389 371 319 333 319 355 362 356 350 327
570.0 264 218 249 211 136 3 86 62 44 6
610.0 18 6 18 44 3 31 19 28 45 40
650.0 45 46 42 41 53 22 37 55 67 65
690.0 71 80 82 97 103 124 133 158 187 224
730.0 273 330 350 389 429 450 429 408 392 373
770.0 373 363 389 447 545 626 760 914 1043 1138
810.0 1140 1133 1089 1054 1038 1039 1025 1005 986 966
850.0 957 952 970 953 973 982 958 935 924 890
890.0 851 820 779 749 718 726 755 836 936 1099
930.0 1294 1535 1827 2110 2432 2713 3042 3329 3613 3896
970.0 4099 4262 4318 4342 4130 3864 3506 3221 3060 3067
1010.0 3268 3618 4215 4936 5910 6791 7770 8463 9082 9624
1050.0 9952 10000 9383 8786 7840 7013 6098 5364 4676 4181
1090.0 3912 3760 3744 3734 3866 3941 4106 4296 4605 4984
1130.0 5414 5790 5779 5470 4754 3935 3124 2506 1991 1608
1170.0 1328 1117 961 836 743 681 637 598 573 546
1210.0 539 546 570 614 663 741 816 908 1007 1122
1250.0 1229 1308 1378 1444 1570 1749 2032 2340 2654 2762
1290.0 2747 2779 2848 2961 2782 2377 1776 1326 1029 887
1330.0 822 793 765 711 676 685 772 907 1042 1068
1370.0 970 848 824 903 933 860 720 557 446 381
1410.0 336 307 309 300 319 335 418 459 548 588
1450.0 737 845 994 1057 1004 932 849 762 653 546
1490.0 431 337 286 222 192 171 150 122 121 103
1530.0 102 80 98 73 83 73 84 56 68 63
1570.0 70 46 76 53 59 58 67 55 67 69
1610.0 59 58 56 53 62 49 68 50 53 57
1650.0 63 37 66 47 49 60 36 55 50 49
1690.0 47 51 35 59 46 56 52 66 59 63
1730.0 76 65 84 93 106 120 130 110 115 99
1770.0 95 88 87 94 88 88 92 90 91 83
1810.0 77 75 77 67 65 58 64 63 64 73
1850.0 69 81 83 80 78 84 84 84 84 86
1890.0 83 82 87 87 88 88 86 90 82 86
1930.0 83 93 85 85 86 89 89 84 83 83
1970.0 77 74 74 68 65 66 61 56 53 55
2010.0 50 49 49 53 53 55 50 51 53 52
2050.0 53 54 52 49 54 53 58 54 57 59
2090.0 59 61 60 56 58 54 56 50 46 50
2130.0 47 46 44 43 46 43 40 40 41 41
2170.0 45 45 44 42 43 37 34 34 36 37
2210.0 34 35 35 31 33 32 31 33 33 36
2250.0 35 30 32 33 32 33 29 32 26 30
2290.0 26 20 14 12 12 7 5 3 2 9
2330.0 2 4 13 0 6 13 2 2 2 2
2370.0 2 5 13 23 23 19 26 25 24 23
2410.0 23 22 25 21 22 22 23 22 20 17
2450.0 19 18 18 18 15 12 15 15 12 14
2490.0 16 19 12 17 18 19 20 19 21 21
2530.0 22 21 25 30 27 26 27 32 33 34
2570.0 36 39 38 41 44 45 46 48 49 49
2610.0 49 52 56 58 56 52 67 63 65 69
2650.0 69 77 80 81 89 93 97 105 112 120
2690.0 134 147 159 175 189 202 216 231 252 264
2730.0 273 283 297 303 310 314 312 311 319 323
2770.0 331 339 354 370 396 419 447 484 517 552
2810.0 601 647 688 722 776 861 977 1141 1368 1670
2850.0 2052 2467 2901 3303 3637 3851 4013 4108 4140 4053
2890.0 3807 3537 3325 3202 3181 3277 3443 3595 3710 3840
2930.0 4046 4376 4772 5129 5367 5345 5219 5115 5164 5350
2970.0 5341 4879 4029 3186 2519 1983 1535 1185 920 736
3010.0 602 504 430 379 339 302 273 248 227 208
3050.0 192 176 163 154 140 135 127 118 121 108
3090.0 106 96 99 95 83 85 77 82 83 79
3130.0 70 70 63 65 61 58 60 59 58 61
3170.0 53 57 57 51 48 51 53 45 49 47
3210.0 43 35 39 33 38 39 34 41 33 33
3250.0 30 34 37 34 27 22 30 33 33 30
3290.0 35 35 31 29 32 36 35 32 33 32
3330.0 38 34 30 42 32 30 29 34 33 34
3370.0 40 33 38 33 33 34 32 35 32 35
3410.0 36 38 33 35 38 37 29 30 35 37
3450.0 28 36 27 28 32 33 41 37 40 28
3490.0 30 29 27 41 24 28 31 32 38 24
3530.0 22 30 34 30 17 29 39 18 45 2
3570.0 19 33 30 36 23 42 24 36 37 27
3610.0 7 31 43 23 44 26 24 55 28 45
3650.0 2 23 57 38 74 2 57 16 56 26
3690.0 37 34 47 41 33 36 36 37 27 31
3730.0 18 16 9 31 9 35 1 41 29 21
3770.0 23 26 30 19 37 35 26 20 23 6
3810.0 50 6 32 3 34 29 25 8 28 20
3850.0 29 39 13 38 17 19 23 27 12 19
3890.0 19 24 23 18 36 32 30 38 56 14
3930.0 28 33 34 39 47 44 36 69 50 45
##END=
