##TITLE=2-Cyclohexen-1-one, 3,5,5-trimethyl-
##JCAMP-DX=4.24
##DATA TYPE=INFRARED SPECTRUM
##ORIGIN=Sadtler Research Labs Under US-EPA Contract
##OWNER=NIST Standard Reference Data Program
##CAS REGISTRY NO=78-59-1
##MOLFORM=C 9 H 14 O
##XUNITS=1/CM
##YUNITS=ABSORBANCE
##XFACTOR=1.0
##YFACTOR=0.000175513
##DELTAX=4.0
##FIRSTX=450.0
##LASTX=3966.0
##FIRSTY=0.000000
##MAXX=3966
##MINX=450
##MAXY=1.75513
##MINY=0
##NPOINTS=880
##XYDATA=(X++(Y..Y))
450.0 0 43 88 90 116 141 101 96 118 103
490.0 126 159 170 152 120 160 279 402 488 520
530.0 461 347 222 160 161 166 164 138 115 75
570.0 64 58 55 62 48 57 69 60 57 61
610.0 58 56 54 59 55 53 48 50 48 47
650.0 49 48 58 50 59 49 58 51 51 54
690.0 61 49 49 54 56 56 58 59 59 64
730.0 63 64 63 61 65 63 60 59 65 65
770.0 73 90 69 87 86 91 98 105 121 163
810.0 204 288 365 445 434 340 295 238 213 236
850.0 294 337 377 370 342 297 253 237 216 248
890.0 295 399 502 701 799 649 568 431 265 189
930.0 131 120 129 134 136 132 115 103 96 93
970.0 101 117 139 170 197 219 228 227 225 229
1010.0 256 271 286 282 259 234 204 174 145 128
1050.0 109 104 94 91 91 88 94 92 99 99
1090.0 105 110 125 143 182 241 305 374 413 397
1130.0 375 369 379 418 458 485 463 401 319 253
1170.0 219 213 242 268 299 305 304 288 284 311
1210.0 343 388 431 494 586 793 1115 1480 1720 1798
1250.0 1685 1409 1130 1018 1250 1564 1807 1826 1742 1527
1290.0 1239 1091 1037 976 867 741 645 583 514 448
1330.0 392 357 361 464 706 1000 1381 1643 1902 1888
1370.0 1946 2065 1874 1895 1804 1593 1224 668 557 499
1410.0 554 669 694 825 796 866 849 914 987 1040
1450.0 1035 1020 981 938 884 823 685 574 503 333
1490.0 224 177 147 120 89 57 80 80 43 98
1530.0 63 99 68 71 60 117 114 84 130 143
1570.0 165 146 186 179 197 183 203 199 214 260
1610.0 274 329 345 491 612 898 1159 1307 1462 1269
1650.0 1162 853 778 851 1085 1467 2159 3285 5155 6909
1690.0 9643 8977 10000 8884 6520 5353 4228 3620 2791 2340
1730.0 1571 1237 974 879 671 542 470 371 361 328
1770.0 320 243 278 221 222 195 201 196 155 184
1810.0 140 135 116 125 96 93 94 101 77 60
1850.0 89 83 85 74 72 46 72 73 69 68
1890.0 59 65 57 69 58 63 55 59 53 57
1930.0 72 61 69 48 63 55 59 56 59 55
1970.0 57 68 60 68 60 56 49 59 60 56
2010.0 57 48 53 46 58 51 60 54 57 59
2050.0 56 61 58 61 51 64 60 60 59 59
2090.0 59 56 61 54 58 54 60 56 61 65
2130.0 61 64 61 66 60 68 62 66 66 70
2170.0 71 66 69 66 68 60 63 58 59 59
2210.0 58 60 57 62 57 62 59 63 60 64
2250.0 65 62 65 60 62 56 58 56 56 54
2290.0 54 57 55 61 57 59 55 60 57 57
2330.0 56 54 58 49 50 48 47 47 59 48
2370.0 48 55 47 50 49 56 53 56 56 54
2410.0 53 50 54 49 54 50 51 48 51 50
2450.0 48 49 48 49 45 53 47 51 51 55
2490.0 54 56 58 56 59 57 60 54 58 54
2530.0 51 50 51 54 54 59 56 56 55 57
2570.0 54 56 56 54 58 53 58 51 54 49
2610.0 51 48 47 50 49 51 50 53 49 54
2650.0 55 58 60 61 61 57 61 58 60 59
2690.0 65 69 72 78 83 90 90 99 100 110
2730.0 119 131 139 147 151 138 131 116 105 94
2770.0 96 100 102 107 111 120 130 152 179 224
2810.0 279 363 479 609 701 734 708 642 579 540
2850.0 574 663 807 1012 1329 1723 2077 2463 2675 2551
2890.0 2490 2601 2687 2782 2853 2780 2617 2468 2241 2114
2930.0 2109 2183 2304 2492 2959 3349 3912 4653 5657 5900
2970.0 5121 4574 3451 2418 1689 1185 882 606 410 317
3010.0 266 238 224 226 243 290 377 485 558 584
3050.0 541 458 335 240 199 177 168 163 161 152
3090.0 147 137 126 115 105 94 85 88 83 84
3130.0 79 84 84 80 84 78 81 81 86 88
3170.0 92 90 92 90 89 88 85 89 85 86
3210.0 76 74 68 66 63 62 63 59 61 56
3250.0 57 51 51 46 47 53 50 49 48 56
3290.0 51 56 53 56 59 57 59 56 63 63
3330.0 72 70 80 81 83 100 108 130 149 184
3370.0 193 192 182 169 143 125 105 96 90 71
3410.0 74 64 66 65 62 62 64 64 56 64
3450.0 57 63 57 59 61 57 56 57 60 58
3490.0 61 64 64 60 62 60 61 59 58 62
3530.0 56 60 57 58 59 57 59 55 59 61
3570.0 63 57 60 59 62 63 68 57 61 55
3610.0 57 60 63 65 56 81 59 53 57 57
3650.0 78 59 62 57 55 72 63 83 53 68
3690.0 57 69 55 60 51 61 62 57 58 64
3730.0 68 70 70 65 69 62 81 59 57 62
3770.0 54 53 47 61 48 54 51 56 64 60
3810.0 58 56 61 78 61 60 68 76 63 71
3850.0 58 78 69 68 73 81 71 68 77 66
3890.0 80 70 72 79 84 70 71 74 72 62
3930.0 65 72 64 69 64 73 60 59 60 59
##END=
