##TITLE=Butane, 2-bromo-
##JCAMP-DX=4.24
##DATA TYPE=INFRARED SPECTRUM
##ORIGIN=Sadtler Research Labs Under US-EPA Contract
##OWNER=NIST Standard Reference Data Program
##CAS REGISTRY NO=78-76-2
##MOLFORM=C 4 H 9 Br
##XUNITS=1/CM
##YUNITS=ABSORBANCE
##XFACTOR=1.0
##YFACTOR=0.000091760
##DELTAX=4.0
##FIRSTX=450.0
##LASTX=3966.0
##FIRSTY=0.000000
##MAXX=3966
##MINX=450
##MAXY=0.9176
##MINY=0
##NPOINTS=880
##XYDATA=(X++(Y..Y))
450.0 0 151 319 158 141 219 223 288 259 286
490.0 246 260 214 171 61 89 154 176 341 465
530.0 683 737 796 809 787 673 384 214 140 182
570.0 217 288 300 319 330 350 364 342 288 335
610.0 431 559 621 644 626 606 464 319 219 163
650.0 95 67 59 62 50 59 40 48 45 45
690.0 45 31 30 33 30 33 17 30 37 35
730.0 33 32 32 40 30 44 49 55 82 102
770.0 162 265 439 586 689 776 828 781 750 631
810.0 517 484 454 490 507 634 713 708 704 670
850.0 639 532 356 200 123 74 60 44 40 40
890.0 39 33 30 36 39 46 48 60 71 101
930.0 132 182 267 368 475 549 622 679 694 650
970.0 601 568 522 560 621 685 717 793 801 798
1010.0 708 569 457 328 228 192 214 258 344 402
1050.0 436 432 424 359 247 182 130 101 87 91
1090.0 105 136 174 222 297 392 464 504 559 594
1130.0 734 927 1174 1513 1751 1868 1877 1752 1428 1084
1170.0 691 446 345 337 451 676 1124 1797 2616 3126
1210.0 3380 3450 3283 2775 1953 1175 645 429 333 303
1250.0 291 319 394 523 768 1027 1212 1324 1471 1606
1290.0 1527 1232 972 745 672 531 425 380 330 318
1330.0 270 231 187 182 195 224 279 318 428 553
1370.0 792 1077 1340 1508 1636 1713 1592 1288 883 598
1410.0 386 314 276 356 422 591 803 1065 1382 1629
1450.0 2042 2195 2142 2275 2054 1809 1566 1173 941 665
1490.0 475 325 245 162 144 113 75 96 67 87
1530.0 50 77 70 89 71 78 96 102 109 87
1570.0 105 101 93 81 73 66 56 59 46 53
1610.0 42 60 48 62 47 61 60 71 58 75
1650.0 66 93 52 66 70 66 74 68 69 81
1690.0 59 60 66 61 49 40 43 42 38 29
1730.0 36 46 46 32 43 44 33 40 32 34
1770.0 23 35 22 29 23 33 25 29 28 23
1810.0 24 22 22 18 24 21 22 18 28 23
1850.0 22 21 19 19 18 17 14 13 12 12
1890.0 14 13 15 16 19 16 19 17 18 16
1930.0 14 15 14 18 15 15 15 12 16 11
1970.0 14 15 16 17 15 15 15 13 9 11
2010.0 7 6 2 3 2 0 1 4 1 0
2050.0 4 5 5 4 6 3 4 7 4 4
2090.0 1 4 6 6 6 6 6 7 7 6
2130.0 7 6 7 9 9 9 15 15 18 19
2170.0 21 21 21 18 15 16 17 18 18 19
2210.0 21 25 25 26 30 26 24 21 24 21
2250.0 23 25 22 23 23 25 22 24 24 25
2290.0 28 34 39 41 47 48 50 48 52 54
2330.0 60 57 56 52 60 50 75 64 54 38
2370.0 35 28 29 34 43 41 44 46 45 43
2410.0 45 40 36 35 37 36 36 40 40 39
2450.0 40 42 41 35 34 31 33 37 38 41
2490.0 40 42 41 39 35 35 34 34 34 32
2530.0 32 29 28 27 30 27 30 33 37 39
2570.0 45 53 56 60 59 61 60 56 50 47
2610.0 45 44 46 45 49 50 50 48 45 45
2650.0 44 42 43 45 45 50 51 58 60 65
2690.0 70 75 81 80 82 83 86 88 91 105
2730.0 120 137 160 182 191 202 205 185 165 144
2770.0 133 124 124 127 135 137 146 155 165 184
2810.0 201 228 259 294 328 379 444 552 707 877
2850.0 1008 1120 1263 1350 1465 1602 1814 2155 2587 2870
2890.0 3063 3259 3280 3191 3003 2875 2949 3210 3554 3772
2930.0 3925 4281 4580 4398 4333 4160 4053 4430 5002 5852
2970.0 6630 8668 10000 8531 8717 7487 7155 5441 3746 2623
3010.0 1820 1225 806 526 377 296 258 229 217 204
3050.0 201 194 192 192 197 211 221 229 234 243
3090.0 229 226 211 187 157 144 139 130 126 121
3130.0 120 121 122 120 127 134 136 145 145 148
3170.0 147 148 148 146 149 151 150 148 151 136
3210.0 134 130 121 114 107 95 80 82 72 70
3250.0 72 78 70 72 65 70 74 72 66 58
3290.0 63 53 52 46 47 40 42 42 40 40
3330.0 40 46 41 40 36 41 45 37 40 38
3370.0 42 41 34 35 39 38 39 37 33 43
3410.0 38 41 39 45 44 47 50 46 43 44
3450.0 48 50 47 40 43 45 43 48 41 44
3490.0 44 39 41 35 30 42 36 42 43 32
3530.0 33 30 42 41 39 35 39 41 45 31
3570.0 32 39 44 48 47 42 41 43 29 46
3610.0 36 38 35 37 45 16 34 41 44 41
3650.0 22 45 36 49 48 45 54 37 51 41
3690.0 49 36 44 42 44 48 38 38 46 39
3730.0 45 42 42 20 53 40 32 48 36 39
3770.0 34 40 49 39 40 43 46 49 26 47
3810.0 33 41 42 22 45 32 36 34 33 30
3850.0 58 40 45 48 48 31 38 45 49 64
3890.0 39 61 43 58 37 64 47 55 49 41
3930.0 50 49 64 61 61 44 61 46 65 49
##END=
