##TITLE=Propane, 1,2-dibromo-
##JCAMP-DX=4.24
##DATA TYPE=INFRARED SPECTRUM
##ORIGIN=Sadtler Research Labs Under US-EPA Contract
##OWNER=NIST Standard Reference Data Program
##CAS REGISTRY NO=78-75-1
##MOLFORM=C 3 H 6 Br 2
##XUNITS=1/CM
##YUNITS=ABSORBANCE
##XFACTOR=1.0
##YFACTOR=0.000072870
##DELTAX=4.0
##FIRSTX=450.0
##LASTX=3966.0
##FIRSTY=0.020622
##MAXX=3966
##MINX=450
##MAXY=0.7287
##MINY=0
##NPOINTS=880
##XYDATA=(X++(Y..Y))
450.0 283 197 184 239 162 324 145 172 91 172
490.0 147 101 183 178 127 120 181 133 216 240
530.0 297 292 381 461 544 715 1002 1757 2963 5276
570.0 8003 9917 10000 7834 3715 1086 702 444 245 152
610.0 141 126 132 126 146 148 174 241 367 684
650.0 1157 1580 1763 1627 1322 634 566 457 347 192
690.0 96 107 72 78 49 73 60 55 52 63
730.0 67 65 78 68 100 105 153 156 151 127
770.0 103 52 15 60 74 73 26 32 65 85
810.0 72 96 126 157 193 216 260 290 314 323
850.0 324 278 265 240 222 165 156 209 275 371
890.0 450 531 544 554 534 444 348 263 184 138
930.0 101 86 91 88 83 71 77 66 73 95
970.0 109 157 225 347 425 635 991 1835 2725 2980
1010.0 2980 1982 973 685 603 790 1027 1181 1273 1124
1050.0 854 674 521 373 291 207 168 143 139 143
1090.0 152 173 195 217 232 268 325 381 458 539
1130.0 673 837 1059 1311 1830 2918 4847 7024 7331 7015
1170.0 4542 1938 999 619 485 481 542 730 994 1338
1210.0 1685 1941 1927 2007 2089 2000 2011 2045 1903 1580
1250.0 1330 1101 752 440 273 187 141 114 107 100
1290.0 99 106 120 149 207 329 439 488 496 467
1330.0 355 276 292 273 258 230 196 222 306 431
1370.0 654 948 1445 1773 1821 2059 1830 1349 1013 683
1410.0 503 423 486 598 790 1051 1360 1575 1776 1858
1450.0 1931 1831 1706 1610 1320 1037 804 567 417 275
1490.0 206 123 121 83 82 99 80 76 80 79
1530.0 73 63 88 70 81 66 89 59 76 51
1570.0 69 38 76 45 50 50 54 48 48 55
1610.0 48 53 54 54 55 51 70 53 60 56
1650.0 68 47 79 52 64 76 63 84 78 88
1690.0 77 81 58 79 51 49 49 56 35 31
1730.0 50 32 51 52 54 52 52 35 33 36
1770.0 35 39 30 36 34 40 43 39 47 48
1810.0 53 54 53 40 44 34 38 31 41 47
1850.0 38 42 38 40 36 43 33 33 35 40
1890.0 41 42 41 35 36 34 29 28 25 31
1930.0 22 27 24 34 21 30 26 31 26 32
1970.0 31 28 31 29 29 32 29 30 38 44
2010.0 44 44 39 38 31 31 31 32 31 33
2050.0 36 33 34 33 33 28 32 30 31 27
2090.0 26 26 24 27 28 25 25 24 27 23
2130.0 27 29 30 27 33 30 36 44 43 45
2170.0 45 47 40 41 41 34 27 29 28 29
2210.0 33 38 43 47 52 61 61 64 63 59
2250.0 57 56 54 64 64 71 72 76 72 61
2290.0 50 33 25 17 14 5 1 6 11 17
2330.0 5 17 31 26 40 41 18 38 27 25
2370.0 46 49 54 50 52 50 52 45 47 46
2410.0 47 48 48 50 53 55 56 55 56 56
2450.0 58 57 60 63 55 50 52 48 48 51
2490.0 53 52 54 56 51 54 48 41 34 27
2530.0 28 27 26 30 36 38 39 40 39 39
2570.0 38 38 41 40 38 33 34 38 35 41
2610.0 38 36 39 39 40 39 41 39 40 43
2650.0 46 53 55 63 71 81 89 83 74 65
2690.0 57 48 43 40 36 36 32 35 34 29
2730.0 38 46 55 69 77 79 81 75 63 53
2770.0 44 39 45 39 40 43 47 47 55 63
2810.0 68 78 86 104 111 125 146 154 152 154
2850.0 150 163 209 264 326 398 467 498 516 523
2890.0 498 457 421 400 390 404 442 508 614 774
2930.0 940 1066 1227 1268 1217 1232 1145 1041 1062 1092
2970.0 1110 1269 1485 1908 2805 3248 3349 3268 2510 1914
3010.0 1484 1080 745 500 356 268 217 190 168 143
3050.0 122 102 79 74 68 74 70 80 80 80
3090.0 79 75 73 66 70 57 54 50 53 52
3130.0 53 58 56 58 50 61 63 64 59 60
3170.0 52 52 56 57 63 63 65 71 77 74
3210.0 92 82 84 86 78 84 77 78 72 64
3250.0 59 56 55 60 59 64 64 59 70 61
3290.0 65 60 51 52 51 44 47 48 39 42
3330.0 54 53 38 48 48 45 45 41 45 39
3370.0 49 50 54 50 54 61 68 65 60 66
3410.0 67 61 46 52 58 49 48 55 56 44
3450.0 45 48 49 48 46 45 39 49 41 44
3490.0 52 47 45 48 45 55 45 45 51 38
3530.0 49 48 48 60 44 50 55 39 61 29
3570.0 45 44 49 53 46 43 32 49 41 49
3610.0 31 42 35 42 66 32 65 85 69 83
3650.0 36 66 80 36 84 31 78 0 81 52
3690.0 69 41 57 60 45 48 47 58 38 54
3730.0 47 43 33 49 17 46 14 55 45 35
3770.0 45 41 66 30 67 53 52 33 34 26
3810.0 57 32 48 7 54 38 41 29 59 26
3850.0 53 20 39 48 44 40 44 65 48 45
3890.0 46 50 52 4 27 46 67 49 50 36
3930.0 67 59 46 68 55 45 52 64 61 53
##END=
