##TITLE=Propane, 1-bromo-2-methyl-
##JCAMP-DX=4.24
##DATA TYPE=INFRARED SPECTRUM
##ORIGIN=Sadtler Research Labs Under US-EPA Contract
##OWNER=NIST Standard Reference Data Program
##CAS REGISTRY NO=78-77-3
##MOLFORM=C 4 H 9 Br
##XUNITS=1/CM
##YUNITS=ABSORBANCE
##XFACTOR=1.0
##YFACTOR=0.000090073
##DELTAX=4.0
##FIRSTX=450.0
##LASTX=3966.0
##FIRSTY=0.039001
##MAXX=3966
##MINX=450
##MAXY=0.90073
##MINY=0
##NPOINTS=880
##XYDATA=(X++(Y..Y))
450.0 433 412 448 464 455 459 445 433 362 361
490.0 197 21 30 116 212 242 252 276 270 308
530.0 297 322 324 345 336 325 337 338 276 234
570.0 262 271 218 242 198 145 294 332 346 344
610.0 465 594 745 792 855 893 962 944 863 1182
650.0 1719 2244 2407 2328 2248 2006 1057 409 311 225
690.0 219 322 347 342 321 337 327 321 319 263
730.0 281 330 322 318 252 95 3 174 343 410
770.0 430 429 452 533 578 663 669 673 694 631
810.0 536 488 456 415 403 397 424 442 481 568
850.0 619 630 628 652 624 556 490 482 508 650
890.0 719 376 288 329 428 606 802 970 1053 1081
930.0 1128 1178 1122 1047 1045 1064 975 840 737 687
970.0 656 595 511 473 496 550 589 622 625 615
1010.0 635 644 624 637 605 585 585 564 565 557
1050.0 557 550 545 532 500 440 385 295 188 164
1090.0 271 379 446 509 559 574 572 552 538 494
1130.0 461 428 404 399 424 495 598 656 716 743
1170.0 714 684 633 603 550 527 554 622 728 814
1210.0 894 1022 1388 2121 2984 3082 3021 2796 2650 1633
1250.0 975 704 566 479 438 407 401 397 390 396
1290.0 448 516 600 699 866 1017 1136 1220 1174 1099
1330.0 1012 816 655 535 485 499 552 653 812 1010
1370.0 1183 1252 1534 1883 1878 1792 1600 1429 1041 685
1410.0 516 440 444 483 613 760 869 983 1096 1257
1450.0 1372 1464 1568 1760 1935 1961 1834 1587 1436 1243
1490.0 1038 788 541 410 338 292 259 240 220 220
1530.0 215 198 210 204 219 212 216 227 217 225
1570.0 229 245 227 222 228 243 262 257 220 228
1610.0 226 225 229 225 238 237 249 249 259 261
1650.0 280 243 267 252 258 244 255 235 249 226
1690.0 219 202 202 199 204 193 200 203 202 206
1730.0 224 219 232 241 257 257 247 241 220 202
1770.0 188 184 171 166 158 162 143 147 143 124
1810.0 119 119 105 113 98 103 94 89 91 98
1850.0 97 92 93 103 112 106 98 99 97 87
1890.0 89 86 85 83 87 82 82 81 79 74
1930.0 73 67 69 67 69 69 75 69 73 70
1970.0 67 72 76 68 65 67 59 60 61 56
2010.0 61 56 67 60 58 64 59 67 74 69
2050.0 67 68 66 73 71 71 54 69 69 64
2090.0 65 72 69 76 69 72 70 70 77 68
2130.0 68 63 63 55 63 61 64 59 69 71
2170.0 74 74 68 79 85 72 83 83 76 70
2210.0 66 66 58 59 60 58 57 67 67 68
2250.0 61 67 66 63 73 71 65 66 70 78
2290.0 73 69 84 84 74 82 64 58 76 49
2330.0 42 24 18 28 0 39 30 45 0 0
2370.0 0 0 6 16 37 35 44 45 49 48
2410.0 50 42 46 41 38 36 29 26 20 22
2450.0 22 22 16 21 23 22 21 22 16 25
2490.0 23 23 28 33 39 33 34 28 29 29
2530.0 39 45 38 35 35 33 39 36 36 41
2570.0 41 31 35 36 29 39 39 45 54 57
2610.0 71 70 76 81 70 66 60 54 53 65
2650.0 65 66 86 96 100 100 111 106 94 94
2690.0 85 79 70 76 75 75 91 84 102 113
2730.0 140 156 159 175 165 168 160 159 150 141
2770.0 147 142 137 143 149 160 153 163 190 192
2810.0 205 224 244 258 281 292 310 344 403 499
2850.0 613 765 947 1197 1503 1926 2427 2639 2657 2665
2890.0 2665 2444 2241 2135 2138 2208 2383 2505 2594 2758
2930.0 2993 3303 3618 4029 4559 5132 5784 6447 7461 8931
2970.0 10000 9389 9003 8444 6887 5263 3942 2771 1902 1450
3010.0 1127 1019 839 662 507 386 311 225 210 191
3050.0 179 200 218 224 259 288 279 273 280 304
3090.0 253 238 225 229 193 182 171 144 140 131
3130.0 125 126 123 139 131 140 141 131 132 132
3170.0 139 147 159 143 136 134 141 139 120 116
3210.0 117 103 80 84 63 41 33 49 39 28
3250.0 56 53 31 40 33 44 50 45 38 32
3290.0 44 43 42 30 30 38 27 29 49 47
3330.0 43 44 59 56 56 41 42 42 56 57
3370.0 63 49 40 36 57 64 53 44 43 43
3410.0 59 49 43 36 40 54 34 28 29 35
3450.0 62 38 55 23 40 44 33 34 29 32
3490.0 44 71 43 44 47 40 30 27 42 46
3530.0 37 36 32 48 55 25 34 31 34 37
3570.0 51 46 56 67 73 54 78 59 54 59
3610.0 56 57 36 58 55 52 94 63 95 76
3650.0 64 82 64 65 49 47 54 61 69 66
3690.0 50 60 40 38 62 52 52 46 48 56
3730.0 57 65 48 40 41 43 21 41 58 63
3770.0 62 73 61 67 69 69 56 68 71 84
3810.0 73 84 84 85 83 78 69 71 85 74
3850.0 93 109 90 82 91 89 93 91 80 83
3890.0 99 111 115 98 84 75 86 85 83 93
3930.0 95 105 95 93 92 91 88 84 77 77
##END=
