##TITLE=Ethane, 1,1,2-tribromo-
##JCAMP-DX=4.24
##DATA TYPE=INFRARED SPECTRUM
##ORIGIN=Sadtler Research Labs Under US-EPA Contract
##OWNER=NIST Standard Reference Data Program
##CAS REGISTRY NO=78-74-0
##MOLFORM=C 2 H 3 Br 3
##XUNITS=1/CM
##YUNITS=ABSORBANCE
##XFACTOR=1.0
##YFACTOR=0.000077783
##DELTAX=4.0
##FIRSTX=450.0
##LASTX=3966.0
##FIRSTY=0.011745
##MAXX=3966
##MINX=450
##MAXY=0.77783
##MINY=0
##NPOINTS=880
##XYDATA=(X++(Y..Y))
450.0 151 168 92 44 93 275 212 48 49 92
490.0 205 76 83 101 180 174 109 204 288 272
530.0 140 212 377 389 268 354 760 1006 1805 1935
570.0 1775 1648 678 63 147 506 815 1300 2549 4873
610.0 7818 10000 9218 7758 4757 1547 202 196 248 219
650.0 158 248 335 370 224 231 429 779 1202 1661
690.0 2348 2567 2235 1511 804 465 190 132 26 131
730.0 165 35 29 336 203 116 93 198 163 109
770.0 137 121 198 186 125 113 159 167 81 146
810.0 246 257 188 212 143 213 186 114 108 181
850.0 138 101 143 249 393 790 1653 2656 2800 2907
890.0 1863 997 539 285 165 160 154 85 50 86
930.0 96 111 56 32 94 129 72 55 84 96
970.0 77 73 92 76 111 58 92 114 137 70
1010.0 66 128 153 122 93 132 174 203 194 169
1050.0 168 110 49 76 102 107 58 56 115 131
1090.0 110 71 90 148 209 296 530 740 851 862
1130.0 932 1221 1964 3290 4256 4170 3460 1633 616 239
1170.0 170 179 267 441 618 663 672 512 498 722
1210.0 1128 1793 2707 2820 2427 1664 774 387 236 194
1250.0 212 262 400 648 877 1106 1147 893 676 401
1290.0 242 161 110 97 112 112 72 66 83 59
1330.0 40 50 107 91 73 78 105 124 116 78
1370.0 62 88 67 43 65 75 66 47 60 114
1410.0 184 299 530 761 1037 1058 724 483 273 153
1450.0 131 138 180 103 77 56 101 83 25 7
1490.0 84 67 61 21 94 80 62 72 88 93
1530.0 61 41 75 133 101 56 62 133 106 78
1570.0 69 67 77 56 37 44 69 43 41 52
1610.0 77 79 70 54 66 88 98 56 47 91
1650.0 75 124 82 82 63 63 62 72 96 85
1690.0 37 67 125 103 74 67 84 106 69 67
1730.0 84 121 64 53 96 129 65 57 93 89
1770.0 81 67 58 63 62 48 64 82 82 43
1810.0 57 76 74 63 62 86 90 89 85 84
1850.0 88 66 48 54 79 72 41 47 66 78
1890.0 63 49 54 91 70 57 68 82 62 58
1930.0 70 73 60 47 42 57 70 57 28 47
1970.0 66 53 51 50 62 62 61 61 86 83
2010.0 56 50 80 81 62 41 53 59 68 56
2050.0 54 50 56 40 42 72 72 48 46 69
2090.0 77 66 59 70 76 82 57 55 64 57
2130.0 32 38 56 55 33 35 45 66 60 31
2170.0 39 59 54 48 59 66 58 52 61 64
2210.0 70 42 33 54 75 63 33 44 69 61
2250.0 61 66 76 77 78 86 114 127 104 101
2290.0 119 138 111 106 95 107 110 99 87 119
2330.0 163 106 119 173 87 64 17 49 231 244
2370.0 189 159 134 94 65 68 82 78 65 71
2410.0 90 106 86 69 83 103 103 68 76 84
2450.0 72 72 77 90 94 87 82 95 105 88
2490.0 62 86 109 93 68 65 72 71 58 51
2530.0 76 79 65 56 92 96 66 56 65 85
2570.0 84 72 54 71 91 66 62 74 74 40
2610.0 51 64 80 60 42 50 72 87 70 71
2650.0 85 82 62 69 79 69 69 56 62 83
2690.0 73 46 41 76 76 52 46 47 46 51
2730.0 50 56 60 44 30 57 93 56 36 43
2770.0 71 73 58 38 50 67 43 41 61 74
2810.0 28 34 68 88 78 58 68 113 132 94
2850.0 59 79 76 63 65 74 80 55 45 56
2890.0 78 70 39 33 61 76 50 49 68 70
2930.0 64 70 100 98 91 78 105 172 190 186
2970.0 268 494 541 486 329 151 101 79 66 92
3010.0 142 143 173 247 254 217 176 180 150 135
3050.0 112 60 91 98 64 56 87 80 60 31
3090.0 74 93 81 61 42 80 92 70 54 76
3130.0 87 65 67 91 105 82 42 73 93 105
3170.0 41 46 72 79 59 49 66 66 64 53
3210.0 83 109 82 50 75 120 115 64 54 82
3250.0 86 77 57 62 86 75 45 62 108 58
3290.0 30 65 95 101 68 50 87 112 82 64
3330.0 102 87 51 43 86 99 84 54 37 80
3370.0 109 58 9 65 84 63 65 70 78 73
3410.0 57 70 96 96 46 45 90 90 61 35
3450.0 54 62 58 46 57 55 52 43 41 97
3490.0 65 14 40 83 90 57 47 47 80 76
3530.0 41 64 86 54 53 73 94 65 48 49
3570.0 71 93 68 43 77 105 92 80 92 95
3610.0 81 76 69 92 123 85 41 62 89 73
3650.0 70 68 73 58 66 109 127 89 74 77
3690.0 111 103 58 52 80 119 95 78 87 101
3730.0 92 89 78 117 93 79 58 94 75 66
3770.0 38 54 103 94 71 67 106 127 119 129
3810.0 119 108 82 89 104 115 75 35 63 112
3850.0 121 88 73 101 90 95 97 115 126 98
3890.0 99 140 185 144 91 98 106 74 41 40
3930.0 40 50 59 63 104 109 0 7 7 7
##END=
