##TITLE=1-Propanol, 2-methyl-
##JCAMP-DX=4.24
##DATA TYPE=INFRARED SPECTRUM
##ORIGIN=Sadtler Research Labs Under US-EPA Contract
##OWNER=NIST Standard Reference Data Program
##CAS REGISTRY NO=78-83-1
##MOLFORM=C 4 H 10 O
##XUNITS=1/CM
##YUNITS=ABSORBANCE
##XFACTOR=1.0
##YFACTOR=0.000135495
##DELTAX=4.0
##FIRSTX=450.0
##LASTX=3966.0
##FIRSTY=0.000000
##MAXX=3966
##MINX=450
##MAXY=1.35495
##MINY=0
##NPOINTS=880
##XYDATA=(X++(Y..Y))
450.0 0 48 100 71 153 183 215 228 217 275
490.0 250 251 217 202 125 103 70 77 64 50
530.0 56 50 62 43 64 54 62 43 45 59
570.0 64 75 66 55 63 86 79 75 71 74
610.0 84 63 66 55 60 44 55 46 49 46
650.0 54 49 38 58 48 61 31 47 37 52
690.0 43 50 41 47 42 41 40 43 53 44
730.0 51 52 52 47 49 58 55 59 65 66
770.0 73 98 95 110 81 155 187 182 219 225
810.0 263 270 251 234 237 209 188 149 130 124
850.0 115 119 119 128 135 166 192 232 272 306
890.0 342 381 412 431 459 472 493 507 528 563
930.0 600 679 701 665 672 717 692 698 673 655
970.0 697 781 856 988 1141 1277 1428 1637 1819 1897
1010.0 2025 2358 2911 3634 4565 5551 6237 6705 7022 7271
1050.0 6763 6361 5319 3727 2277 1417 1030 867 808 782
1090.0 791 779 763 747 737 728 715 684 633 598
1130.0 567 551 543 544 549 563 580 596 616 630
1170.0 637 642 659 647 628 623 649 676 711 763
1210.0 822 899 963 1008 1028 1042 1028 1008 954 896
1250.0 833 773 725 694 673 653 640 627 623 616
1290.0 612 609 603 608 608 617 616 621 634 655
1330.0 680 718 759 805 858 941 1043 1162 1278 1362
1370.0 1399 1424 1612 1733 1706 1657 1591 1451 1249 1178
1410.0 1036 850 679 565 491 477 509 591 706 848
1450.0 995 1111 1252 1415 1571 1567 1589 1673 1370 1158
1490.0 1061 896 719 551 439 341 265 233 205 190
1530.0 175 170 162 159 147 142 139 141 144 133
1570.0 135 139 145 138 149 143 138 134 129 125
1610.0 114 115 113 109 103 101 105 105 97 103
1650.0 98 105 101 90 96 96 95 94 90 99
1690.0 88 91 96 93 86 79 82 88 77 71
1730.0 78 78 77 72 76 78 87 80 83 79
1770.0 79 73 66 66 66 63 63 57 62 61
1810.0 58 57 58 59 57 60 57 57 56 56
1850.0 53 54 53 51 54 57 55 49 50 50
1890.0 53 52 52 52 54 53 54 55 53 55
1930.0 58 59 61 63 60 57 57 55 54 51
1970.0 50 52 50 48 49 49 46 41 34 34
2010.0 32 31 29 32 30 29 30 34 39 42
2050.0 45 56 65 72 75 83 89 89 84 80
2090.0 73 63 52 46 40 41 37 35 35 37
2130.0 35 35 37 37 36 32 33 36 39 37
2170.0 38 38 40 38 34 36 37 36 32 32
2210.0 32 32 32 32 32 31 31 31 34 35
2250.0 35 35 38 40 42 42 46 45 43 42
2290.0 42 43 40 37 34 29 32 29 34 33
2330.0 38 35 31 31 30 29 29 30 50 41
2370.0 37 34 33 33 37 44 50 58 62 67
2410.0 68 68 67 66 70 69 70 66 68 66
2450.0 67 65 67 64 63 62 60 61 59 60
2490.0 56 56 57 54 49 48 47 45 49 48
2530.0 48 48 45 49 55 58 57 61 66 73
2570.0 82 82 86 92 94 93 97 96 106 103
2610.0 109 110 116 110 119 127 132 135 134 139
2650.0 137 139 138 146 149 153 151 152 162 160
2690.0 163 166 179 185 196 217 243 270 297 328
2730.0 356 388 400 422 436 447 449 447 442 454
2770.0 455 457 467 481 498 502 525 540 555 579
2810.0 605 652 687 729 781 858 948 1084 1227 1435
2850.0 1692 2011 2402 2904 3551 4216 4865 5246 5471 5539
2890.0 5595 5932 5995 5850 5685 5671 5621 5591 5700 5749
2930.0 5853 5981 6235 6428 6788 7362 7892 8401 9355 10000
2970.0 8986 8143 7370 6690 5406 4011 2788 1876 1224 820
3010.0 565 442 375 331 303 285 278 270 266 245
3050.0 250 255 242 251 238 244 261 256 238 247
3090.0 267 244 229 230 213 197 196 206 205 179
3130.0 186 180 190 187 188 194 199 200 196 193
3170.0 214 210 209 213 213 215 189 172 167 162
3210.0 154 134 125 136 117 102 101 86 108 87
3250.0 98 86 89 85 73 76 100 80 76 73
3290.0 83 93 69 75 77 96 102 92 99 90
3330.0 109 115 108 95 90 81 75 101 84 83
3370.0 72 81 74 81 71 83 90 72 76 78
3410.0 67 95 84 73 105 80 86 73 74 85
3450.0 85 88 82 94 90 64 68 96 86 84
3490.0 87 73 70 58 56 63 63 56 66 55
3530.0 62 58 40 52 53 53 38 47 54 38
3570.0 41 52 37 29 33 45 53 55 30 48
3610.0 62 64 85 94 133 184 175 254 329 445
3650.0 598 765 966 1072 1154 1240 1249 1248 1162 1006
3690.0 834 651 465 326 198 136 103 76 49 65
3730.0 64 65 61 51 45 29 45 33 39 71
3770.0 37 55 70 53 61 54 58 80 47 72
3810.0 71 71 67 80 87 49 57 95 63 84
3850.0 91 81 97 73 81 80 43 35 63 53
3890.0 55 69 52 64 41 44 61 59 29 57
3930.0 55 83 52 29 29 41 63 40 55 42
##END=
