##TITLE=Propanenitrile, 2-methyl-
##JCAMP-DX=4.24
##DATA TYPE=INFRARED SPECTRUM
##ORIGIN=Sadtler Research Labs Under US-EPA Contract
##OWNER=NIST Standard Reference Data Program
##CAS REGISTRY NO=78-82-0
##MOLFORM=C 4 H 7 N
##XUNITS=1/CM
##YUNITS=ABSORBANCE
##XFACTOR=1.0
##YFACTOR=0.000057391
##DELTAX=4.0
##FIRSTX=450.0
##LASTX=3966.0
##FIRSTY=0.002123
##MAXX=3966
##MINX=450
##MAXY=0.57391
##MINY=0
##NPOINTS=880
##XYDATA=(X++(Y..Y))
450.0 37 67 59 59 58 52 56 54 59 66
490.0 37 148 161 59 101 66 102 109 88 145
530.0 160 135 134 89 98 178 136 58 69 84
570.0 92 93 67 97 88 19 41 58 1 22
610.0 31 31 46 47 50 34 56 43 51 27
650.0 25 51 36 37 27 37 40 42 49 42
690.0 40 51 56 48 81 91 127 142 187 187
730.0 195 202 213 189 191 175 165 111 87 86
770.0 84 76 85 131 58 64 61 67 61 60
810.0 65 77 76 67 49 48 48 49 47 47
850.0 47 47 46 56 49 46 54 55 71 81
890.0 80 90 108 123 142 158 185 211 229 236
930.0 217 205 221 229 202 187 151 135 110 90
970.0 67 67 67 52 60 52 51 42 50 52
1010.0 51 50 60 53 65 74 66 74 75 75
1050.0 84 83 91 112 127 156 199 261 358 478
1090.0 622 770 910 1050 1152 1131 1095 1004 795 600
1130.0 457 336 256 226 228 269 355 443 492 472
1170.0 443 488 392 350 309 233 162 102 80 61
1210.0 53 52 52 60 69 69 72 75 86 86
1250.0 92 100 109 109 117 125 135 145 162 179
1290.0 194 235 287 390 580 851 1086 1082 990 1064
1330.0 787 753 726 586 437 336 316 352 440 546
1370.0 649 666 560 860 1012 923 1007 1067 600 551
1410.0 498 445 413 421 463 577 734 946 1137 1301
1450.0 1417 1484 1656 1820 1991 1737 1658 1582 1573 1286
1490.0 1141 982 791 599 450 331 238 179 150 114
1530.0 98 98 88 75 68 64 63 59 55 42
1570.0 50 46 57 47 49 56 47 56 56 53
1610.0 50 54 63 54 58 63 61 69 71 79
1650.0 83 93 85 93 96 94 87 81 67 75
1690.0 61 61 57 48 40 37 35 39 33 35
1730.0 29 38 27 24 24 22 24 17 16 17
1770.0 15 15 17 16 16 15 14 14 14 16
1810.0 15 23 19 14 25 22 23 30 22 21
1850.0 22 24 24 24 22 21 23 23 23 23
1890.0 21 21 23 21 23 21 21 22 11 12
1930.0 12 22 20 20 20 14 14 11 14 12
1970.0 12 12 12 12 12 10 11 11 11 17
2010.0 19 19 26 26 27 35 35 36 32 32
2050.0 26 32 33 35 26 17 17 8 7 7
2090.0 7 5 7 3 3 9 9 8 8 8
2130.0 7 8 6 6 7 7 10 16 5 9
2170.0 17 6 14 5 5 5 5 15 21 21
2210.0 30 42 55 69 91 119 160 187 222 239
2250.0 256 256 242 208 196 152 100 71 50 39
2290.0 38 35 34 33 29 24 10 0 0 0
2330.0 0 0 0 0 0 0 0 3 12 4
2370.0 25 37 38 28 38 33 44 42 44 52
2410.0 52 50 51 51 50 62 55 60 50 51
2450.0 51 42 42 42 42 41 44 42 51 51
2490.0 56 59 58 61 60 59 60 50 52 42
2530.0 40 36 39 38 48 51 65 77 84 84
2570.0 84 84 94 96 92 93 89 85 85 84
2610.0 84 77 84 86 86 76 65 58 42 42
2650.0 52 37 20 18 18 9 17 27 36 51
2690.0 70 68 77 76 76 86 78 79 75 68
2730.0 76 77 85 96 95 104 112 126 136 128
2770.0 146 151 152 162 162 162 169 172 179 169
2810.0 173 176 186 194 194 201 203 212 220 212
2850.0 238 260 312 379 510 703 961 1176 1317 1446
2890.0 1432 1603 1740 1780 1805 1809 1794 1855 2108 2345
2930.0 2364 2503 2695 2882 2931 2906 3005 3127 3290 3611
2970.0 4210 5116 6195 7030 7781 10000 7297 7786 6875 6025
3010.0 4580 3146 2002 1251 774 484 312 224 167 137
3050.0 119 111 111 102 111 112 104 111 111 106
3090.0 117 120 125 112 127 128 135 127 137 139
3130.0 135 145 154 153 153 162 161 178 194 195
3170.0 204 214 232 249 260 261 241 229 214 197
3210.0 172 154 119 94 71 57 59 58 61 57
3250.0 64 59 53 61 45 37 27 27 2 5
3290.0 1 3 7 10 26 52 42 68 70 70
3330.0 69 63 71 78 87 84 69 76 67 67
3370.0 53 63 44 44 30 38 35 18 30 32
3410.0 32 22 29 27 14 19 37 20 20 10
3450.0 25 25 19 26 16 6 10 20 19 28
3490.0 21 12 22 18 28 25 34 37 45 42
3530.0 45 43 60 45 35 51 54 37 27 24
3570.0 36 28 44 28 19 35 12 2 3 2
3610.0 4 7 13 2 3 5 22 22 20 21
3650.0 32 26 29 35 39 37 54 57 35 46
3690.0 40 49 53 53 63 53 41 49 35 37
3730.0 47 36 59 43 60 53 58 50 58 56
3770.0 45 42 34 37 43 47 49 41 48 41
3810.0 50 34 42 43 40 43 44 44 56 46
3850.0 44 48 53 62 47 54 58 50 43 40
3890.0 47 48 46 37 36 37 34 29 24 21
3930.0 17 10 20 38 42 37 49 54 35 26
##END=
