##TITLE=Butane, 2-chloro-
##JCAMP-DX=4.24
##DATA TYPE=INFRARED SPECTRUM
##ORIGIN=Sadtler Research Labs Under US-EPA Contract
##OWNER=NIST Standard Reference Data Program
##CAS REGISTRY NO=78-86-4
##MOLFORM=C 4 H 9 Cl
##XUNITS=1/CM
##YUNITS=ABSORBANCE
##XFACTOR=1.0
##YFACTOR=0.000064819
##DELTAX=4.0
##FIRSTX=450.0
##LASTX=3966.0
##FIRSTY=0.004473
##MAXX=3966
##MINX=450
##MAXY=0.64819
##MINY=0
##NPOINTS=880
##XYDATA=(X++(Y..Y))
450.0 69 66 59 59 52 53 42 24 33 20
490.0 36 12 33 42 66 148 152 151 182 180
530.0 179 159 136 118 71 23 75 55 55 44
570.0 67 147 104 148 318 330 427 568 740 954
610.0 1163 1288 1363 1417 1475 1421 1216 991 760 596
650.0 503 410 368 438 576 761 874 931 946 897
690.0 819 648 393 200 90 44 35 27 20 26
730.0 35 49 49 39 53 48 52 69 89 133
770.0 187 270 385 517 662 731 763 782 780 784
810.0 742 656 601 603 670 748 856 950 919 879
850.0 797 752 641 473 310 199 133 96 63 47
890.0 49 49 41 46 34 47 51 61 66 104
930.0 142 202 285 393 494 584 642 713 773 789
970.0 744 696 681 691 694 709 723 718 742 750
1010.0 691 615 534 428 356 266 203 167 180 225
1050.0 310 418 507 550 616 606 619 557 434 364
1090.0 341 322 307 315 347 384 412 432 449 423
1130.0 423 470 507 583 720 818 783 762 774 710
1170.0 589 393 224 135 89 85 85 89 118 157
1210.0 234 342 508 754 1048 1316 1477 1581 1628 1598
1250.0 1481 1191 894 698 628 680 811 973 1136 1342
1290.0 1406 1533 1489 1294 1026 873 711 554 419 365
1330.0 313 304 276 231 223 246 280 336 454 621
1370.0 841 1095 1272 1391 1517 1611 1478 1244 915 603
1410.0 410 303 304 342 458 619 835 1035 1261 1505
1450.0 2022 1956 1877 1918 1829 1741 1518 1224 998 801
1490.0 580 409 280 211 168 104 93 80 66 53
1530.0 67 54 79 47 56 60 77 94 44 72
1570.0 72 94 59 75 73 79 68 59 52 57
1610.0 48 57 47 43 53 42 62 37 52 55
1650.0 60 37 52 51 57 48 69 56 78 49
1690.0 59 61 61 29 42 38 37 29 24 18
1730.0 23 28 18 12 25 25 28 28 28 23
1770.0 29 13 19 17 21 18 7 19 16 12
1810.0 14 15 17 19 15 19 22 17 24 21
1850.0 22 16 17 17 22 13 19 10 16 9
1890.0 11 15 9 17 23 10 18 11 14 11
1930.0 16 17 12 13 15 11 8 9 7 10
1970.0 10 15 16 8 9 20 10 8 7 8
2010.0 8 8 2 0 0 8 0 1 5 0
2050.0 0 4 7 2 2 7 7 8 16 7
2090.0 10 15 12 11 5 7 7 8 8 6
2130.0 6 7 8 9 7 8 10 14 15 19
2170.0 17 15 14 23 22 15 15 15 16 16
2210.0 18 23 14 23 22 22 31 22 23 22
2250.0 22 16 14 14 12 13 12 11 15 17
2290.0 25 26 35 35 36 38 37 38 44 39
2330.0 40 40 34 41 28 41 42 44 31 14
2370.0 6 11 19 30 40 40 48 47 48 49
2410.0 40 39 33 27 19 19 20 20 25 27
2450.0 27 28 28 35 28 28 34 29 24 29
2490.0 25 28 28 29 29 22 22 23 24 23
2530.0 26 29 24 19 22 16 17 24 24 31
2570.0 31 32 32 44 41 45 45 46 46 39
2610.0 40 40 39 33 32 40 39 38 35 39
2650.0 40 44 47 48 39 41 49 41 47 49
2690.0 49 52 60 64 68 70 79 88 95 101
2730.0 117 132 141 157 164 178 181 173 158 143
2770.0 133 118 111 118 125 134 141 145 158 174
2810.0 189 217 243 264 302 333 385 446 548 648
2850.0 766 887 994 1126 1292 1474 1711 2012 2296 2432
2890.0 2592 2754 2751 2767 2718 2674 2740 2884 3188 3615
2930.0 4097 4598 4737 4895 5119 5889 5904 5580 6092 6466
2970.0 6990 8222 10000 8600 8410 7922 7700 5963 4316 3136
3010.0 2177 1429 913 587 413 309 256 235 223 216
3050.0 200 201 208 208 216 222 225 230 238 242
3090.0 240 225 217 201 187 172 150 143 128 119
3130.0 117 122 112 113 122 127 128 137 143 152
3170.0 153 154 159 160 162 163 165 152 159 156
3210.0 146 131 138 130 123 108 109 101 94 84
3250.0 78 71 66 73 72 66 65 65 67 73
3290.0 82 82 82 85 88 75 80 82 75 68
3330.0 60 59 53 44 42 50 50 45 51 59
3370.0 46 46 54 47 46 53 55 43 44 48
3410.0 48 48 48 40 34 39 33 34 33 25
3450.0 40 34 29 35 48 36 34 34 29 43
3490.0 28 35 29 34 30 29 29 33 27 34
3530.0 30 30 43 37 33 32 23 31 32 39
3570.0 34 31 25 29 49 34 33 34 32 39
3610.0 34 33 35 34 33 29 24 32 32 41
3650.0 25 29 19 34 31 41 37 11 27 34
3690.0 25 26 28 35 34 34 22 34 34 34
3730.0 29 19 22 34 26 22 0 22 14 27
3770.0 20 25 31 25 33 30 25 24 26 24
3810.0 22 19 25 14 21 19 20 19 18 17
3850.0 17 21 18 24 18 17 16 29 16 14
3890.0 17 13 28 30 34 34 39 40 45 37
3930.0 29 24 29 35 34 35 32 46 47 47
##END=
