##TITLE=Propane, 1,2-dichloro-
##JCAMP-DX=4.24
##DATA TYPE=INFRARED SPECTRUM
##ORIGIN=Sadtler Research Labs Under US-EPA Contract
##OWNER=NIST Standard Reference Data Program
##CAS REGISTRY NO=78-87-5
##MOLFORM=C 3 H 6 Cl 2
##XUNITS=1/CM
##YUNITS=ABSORBANCE
##XFACTOR=1.0
##YFACTOR=0.000047552
##DELTAX=4.0
##FIRSTX=450.0
##LASTX=3966.0
##FIRSTY=0.050120
##MAXX=3966
##MINX=450
##MAXY=0.47552
##MINY=0
##NPOINTS=880
##XYDATA=(X++(Y..Y))
450.0 1054 924 70 1110 1069 1321 976 2041 555 1200
490.0 523 687 1025 870 846 853 1109 1157 1198 1217
530.0 1322 1186 1091 1109 788 1110 738 712 717 964
570.0 862 852 799 1047 941 983 883 936 932 1026
610.0 1235 1228 1478 1688 1875 1892 2180 2046 2009 2080
650.0 2156 2404 2697 4192 5527 7826 9240 10000 9866 9164
690.0 7419 4196 2377 1801 1518 1442 1428 1624 1754 2448
730.0 3381 4495 5564 6130 6770 6767 5926 4560 3363 2687
770.0 2558 1615 1226 1129 942 1006 928 850 979 870
810.0 942 961 575 885 721 735 813 942 881 893
850.0 985 970 994 1003 1034 983 1007 1003 1030 1030
890.0 1121 1181 1328 1446 1555 1623 1622 1626 1530 1382
930.0 1143 1034 882 867 813 819 818 913 923 825
970.0 760 830 786 827 891 1053 1188 1439 1884 2594
1010.0 3380 4040 4426 4277 4081 3693 2739 1756 1357 1190
1050.0 1194 1271 1442 1554 1589 1582 1538 1442 1161 990
1090.0 895 871 850 910 986 1065 1136 1170 1155 1076
1130.0 1017 916 832 756 740 728 733 781 854 957
1170.0 1113 1389 1821 2713 3583 3916 3686 3801 3449 2357
1210.0 1398 1200 1242 1666 2290 2624 2628 2855 2968 2599
1250.0 2056 1999 2086 2202 2283 2356 2397 2192 1969 1845
1290.0 1691 1478 1161 898 789 754 807 902 1001 1074
1330.0 1186 1154 1172 1138 1034 952 925 919 966 1136
1370.0 1405 1814 2266 2509 2343 2639 2815 2253 1714 1290
1410.0 1040 883 859 1014 1198 1425 1943 2464 2678 2884
1450.0 3089 3046 3055 2737 2221 1874 1644 1302 1072 839
1490.0 710 625 565 490 511 411 364 422 391 420
1530.0 348 418 402 495 338 386 360 456 459 352
1570.0 381 384 383 342 351 334 313 342 299 338
1610.0 300 370 315 385 311 359 311 393 283 378
1650.0 297 485 318 298 352 324 323 361 271 392
1690.0 303 343 353 431 323 329 311 331 314 302
1730.0 328 327 391 323 332 314 375 323 386 345
1770.0 374 379 320 325 296 318 338 290 246 269
1810.0 233 210 189 193 203 179 184 159 160 172
1850.0 150 154 165 155 159 173 171 161 157 153
1890.0 153 138 137 141 128 153 133 155 144 139
1930.0 150 141 144 136 137 132 134 131 118 126
1970.0 124 129 126 124 112 112 102 106 100 99
2010.0 97 105 105 97 111 97 96 82 78 78
2050.0 72 76 68 69 47 65 51 43 27 42
2090.0 41 46 54 52 63 50 58 54 56 44
2130.0 43 38 35 39 27 27 20 31 17 24
2170.0 17 25 11 15 14 6 14 19 20 11
2210.0 21 13 2 6 11 15 18 25 29 39
2250.0 47 53 49 49 48 42 40 42 51 63
2290.0 68 81 90 89 99 94 86 56 47 40
2330.0 38 47 80 70 103 88 35 8 51 126
2370.0 129 143 135 85 65 38 24 21 26 19
2410.0 30 34 21 37 22 34 31 45 44 49
2450.0 51 66 76 75 73 64 66 46 51 39
2490.0 53 45 64 67 65 59 56 68 53 50
2530.0 44 49 37 44 37 37 40 44 49 46
2570.0 48 41 46 58 52 64 53 56 60 68
2610.0 47 60 56 61 56 46 57 60 71 79
2650.0 84 77 69 65 64 55 60 66 52 63
2690.0 54 51 41 48 36 43 47 48 60 74
2730.0 93 93 90 89 90 85 85 80 83 78
2770.0 73 79 69 68 51 60 56 64 66 79
2810.0 100 108 116 140 157 169 194 216 245 249
2850.0 266 294 348 398 493 609 740 803 819 838
2890.0 779 740 690 643 613 601 634 688 828 996
2930.0 1253 1551 1835 2101 2339 2462 2494 2515 2545 2473
2970.0 2698 2957 3492 4076 4579 5415 5477 5191 5172 4079
3010.0 3315 2470 1710 1387 969 717 546 429 324 255
3050.0 213 197 156 170 150 146 147 143 137 131
3090.0 136 123 144 115 125 117 84 97 73 93
3130.0 78 56 71 73 78 71 66 58 78 73
3170.0 85 66 71 85 78 92 97 91 85 87
3210.0 78 126 100 94 108 103 105 80 74 71
3250.0 58 33 43 51 54 35 50 48 51 54
3290.0 48 46 12 43 35 50 52 54 56 46
3330.0 46 61 56 70 74 65 78 65 65 57
3370.0 58 63 41 47 50 35 45 31 60 68
3410.0 51 56 61 34 41 63 65 63 52 49
3450.0 2 32 48 60 48 52 53 82 39 20
3490.0 102 58 77 42 58 70 56 53 86 39
3530.0 92 77 92 65 40 74 82 60 70 71
3570.0 103 70 84 128 95 92 106 61 121 78
3610.0 35 28 75 73 103 103 86 61 91 82
3650.0 21 52 86 71 53 51 80 40 57 54
3690.0 98 96 89 71 57 49 113 28 68 39
3730.0 106 76 40 70 116 107 90 68 60 113
3770.0 72 154 92 127 94 68 4 79 114 118
3810.0 130 58 81 96 56 55 91 89 92 162
3850.0 70 112 34 63 61 25 102 79 107 61
3890.0 164 83 115 85 193 187 151 60 142 79
3930.0 90 143 68 84 103 61 157 202 111 0
##END=
