##TITLE=2-Butanone
##JCAMP-DX=4.24
##DATA TYPE=INFRARED SPECTRUM
##ORIGIN=Sadtler Research Labs Under US-EPA Contract
##OWNER=NIST Standard Reference Data Program
##CAS REGISTRY NO=78-93-3
##MOLFORM=C 4 H 8 O
##XUNITS=1/CM
##YUNITS=ABSORBANCE
##XFACTOR=1.0
##YFACTOR=0.000079898
##DELTAX=4.0
##FIRSTX=450.0
##LASTX=3966.0
##FIRSTY=0.073586
##MAXX=3966
##MINX=450
##MAXY=0.79898
##MINY=0
##NPOINTS=880
##XYDATA=(X++(Y..Y))
450.0 921 395 57 0 101 66 263 239 222 433
490.0 295 264 386 382 535 614 618 683 606 571
530.0 633 498 453 417 390 311 328 272 341 367
570.0 360 499 613 612 572 587 569 516 515 477
610.0 327 266 208 142 157 179 171 199 124 107
650.0 104 185 179 176 176 83 185 162 151 178
690.0 90 209 128 116 176 93 203 197 223 195
730.0 189 372 210 241 302 649 503 458 479 431
770.0 384 313 291 292 194 192 175 157 147 128
810.0 157 162 174 129 139 102 94 132 140 146
850.0 140 107 163 141 161 143 164 183 185 202
890.0 226 231 262 322 400 488 602 696 802 915
930.0 1038 1107 1150 1172 1158 1121 1058 974 876 766
970.0 697 615 584 551 506 481 426 396 372 332
1010.0 301 281 260 245 233 224 207 218 232 253
1050.0 270 294 339 371 421 468 498 530 534 529
1090.0 528 528 494 466 459 447 454 476 489 553
1130.0 630 770 1001 1373 1857 2413 2899 3292 3768 4135
1170.0 4299 4420 4386 4054 3643 3285 2861 2509 2176 1896
1210.0 1661 1406 1147 919 751 656 591 572 563 568
1250.0 579 582 582 555 539 520 484 473 451 453
1290.0 465 487 535 600 667 774 874 989 1101 1235
1330.0 1404 1617 1921 2297 2777 3333 3841 4103 4274 4413
1370.0 4298 4247 3886 3070 2206 1714 1550 1459 1421 1424
1410.0 1495 1567 1595 1565 1592 1683 1751 1682 1690 1673
1450.0 1730 1828 1829 1579 1477 1390 1356 1247 1141 961
1490.0 823 697 592 579 482 501 514 465 431 439
1530.0 420 432 347 341 348 366 341 234 268 279
1570.0 272 251 210 257 241 245 210 223 212 190
1610.0 228 143 180 146 185 177 148 164 190 175
1650.0 199 110 254 293 307 355 416 535 653 796
1690.0 1093 1397 1805 2432 3220 4293 5450 6828 8265 9304
1730.0 10000 9481 9266 9593 9954 9267 7290 5650 4080 2902
1770.0 2033 1375 959 685 480 351 239 209 166 134
1810.0 118 101 99 89 77 77 71 92 65 79
1850.0 82 89 94 96 94 79 94 87 93 87
1890.0 88 87 84 78 77 71 70 61 66 63
1930.0 57 62 59 58 55 53 53 43 40 48
1970.0 40 43 41 41 37 37 40 38 40 33
2010.0 27 32 34 30 28 27 29 30 31 32
2050.0 28 24 30 34 34 37 40 47 51 56
2090.0 61 62 68 67 72 73 72 71 66 65
2130.0 56 49 48 37 34 26 23 25 22 23
2170.0 22 22 21 17 23 17 12 10 11 11
2210.0 6 8 9 8 6 4 6 6 4 11
2250.0 8 12 12 7 19 25 28 30 36 42
2290.0 51 57 59 49 55 67 59 56 44 50
2330.0 49 33 53 32 74 40 73 55 69 43
2370.0 56 61 46 44 44 30 26 21 20 20
2410.0 21 17 22 18 17 17 18 23 22 23
2450.0 21 22 22 22 25 25 27 28 24 30
2490.0 27 33 35 31 35 37 34 40 40 36
2530.0 34 28 32 26 27 25 28 22 23 23
2570.0 19 22 18 20 21 15 24 18 17 20
2610.0 27 26 28 23 23 31 27 32 36 33
2650.0 36 35 43 39 43 40 41 43 42 44
2690.0 47 46 48 48 47 52 52 56 62 70
2730.0 77 78 81 87 97 102 101 107 106 108
2770.0 105 104 114 116 125 145 164 177 195 214
2810.0 240 265 290 308 329 355 374 399 416 430
2850.0 453 468 511 554 615 724 887 1106 1318 1472
2890.0 1665 1923 2110 2269 2391 2453 2586 2736 2743 2623
2930.0 2663 2775 2950 2999 2907 3003 2953 2997 3209 3346
2970.0 3498 3576 3624 3784 3781 4052 3959 3649 3156 2771
3010.0 2279 1944 1642 1396 1226 1027 870 755 665 614
3050.0 575 537 517 491 480 447 432 415 383 361
3090.0 340 312 292 268 256 231 215 198 176 170
3130.0 139 139 142 129 129 131 119 120 120 127
3170.0 120 119 110 111 116 105 101 90 81 77
3210.0 76 59 65 66 57 55 50 62 57 55
3250.0 50 44 44 41 41 32 31 27 27 29
3290.0 36 25 22 25 28 25 34 30 30 33
3330.0 35 14 25 30 33 37 27 33 40 37
3370.0 37 39 45 47 36 52 48 49 49 57
3410.0 75 87 100 128 147 165 190 215 234 244
3450.0 250 246 251 252 221 217 178 150 136 101
3490.0 84 70 71 79 75 68 47 42 49 71
3530.0 59 53 52 68 74 69 48 75 43 66
3570.0 83 46 55 70 63 72 63 76 53 69
3610.0 62 53 64 58 64 34 39 60 83 35
3650.0 68 15 74 51 85 43 28 23 46 70
3690.0 22 48 65 71 57 63 39 56 54 103
3730.0 37 39 69 15 23 2 31 41 62 34
3770.0 45 36 46 48 38 36 57 13 24 3
3810.0 65 16 24 3 42 41 11 18 17 33
3850.0 38 3 25 85 21 14 36 50 38 14
3890.0 35 47 16 47 18 27 73 45 66 59
3930.0 57 49 24 32 20 61 53 33 99 15
##END=
