##TITLE=2-Propanol, 1-amino-
##JCAMP-DX=4.24
##DATA TYPE=INFRARED SPECTRUM
##ORIGIN=Sadtler Research Labs Under US-EPA Contract
##OWNER=NIST Standard Reference Data Program
##CAS REGISTRY NO=78-96-6
##MOLFORM=C 3 H 9 N O
##XUNITS=1/CM
##YUNITS=ABSORBANCE
##XFACTOR=1.0
##YFACTOR=0.000048050
##DELTAX=4.0
##FIRSTX=450.0
##LASTX=3966.0
##FIRSTY=0.110515
##MAXX=3966
##MINX=450
##MAXY=0.4805
##MINY=0
##NPOINTS=880
##XYDATA=(X++(Y..Y))
450.0 2300 2211 2122 1744 2098 2642 2341 2515 2760 2297
490.0 2803 2465 2451 2403 2139 2003 2117 2120 2021 1954
530.0 1520 1188 1003 574 523 422 141 107 130 241
570.0 11 23 122 214 164 105 176 155 224 346
610.0 410 465 572 710 719 699 701 637 608 629
650.0 621 561 513 533 400 583 622 422 517 702
690.0 892 971 899 1179 1290 1644 1588 1852 2091 2312
730.0 2792 2923 3463 3792 4243 4368 5333 5761 6387 6720
770.0 6733 6966 6937 6838 6543 5733 5382 4972 4509 4135
810.0 3774 3654 3720 3778 3891 3923 4073 4000 3801 3768
850.0 3565 3312 2897 2438 2056 1674 1507 1361 1315 1361
890.0 1463 1613 1812 2134 2456 2725 3002 3155 3269 3382
930.0 3331 3094 2797 2464 2154 1852 1549 1308 1126 1044
970.0 1026 1039 1144 1257 1382 1557 1689 1884 2047 2247
1010.0 2502 2774 3137 3526 4015 4541 5078 5653 6163 6649
1050.0 7066 7326 7420 7298 7056 6704 6216 5810 5423 4987
1090.0 4529 4031 3717 3479 3298 3274 3041 2952 2932 3035
1130.0 2947 2876 2759 2589 2432 2285 2126 1894 1659 1487
1170.0 1351 1282 1226 1192 1193 1176 1184 1174 1171 1195
1210.0 1220 1281 1351 1477 1633 1821 2011 2229 2448 2682
1250.0 2917 3132 3336 3489 3607 3660 3653 3584 3476 3333
1290.0 3177 2931 2667 2399 2171 1969 1890 1863 1874 1943
1330.0 2043 2137 2208 2244 2310 2454 2626 2800 3032 3387
1370.0 3780 4083 4349 4608 4812 4891 4889 4524 3982 3456
1410.0 3031 2663 2381 2112 1868 1670 1542 1553 1546 1613
1450.0 1719 1903 1960 1891 1689 1608 1393 1169 993 768
1490.0 598 480 388 317 265 245 179 162 155 137
1530.0 143 126 151 138 154 178 161 204 229 265
1570.0 292 333 422 462 571 689 852 1054 1298 1585
1610.0 1879 2168 2337 2462 2481 2428 2270 2017 1741 1433
1650.0 1088 852 611 455 347 255 200 159 125 109
1690.0 74 67 56 65 41 35 32 38 39 31
1730.0 43 42 44 26 47 26 36 31 26 28
1770.0 26 29 19 23 28 7 30 28 45 48
1810.0 35 61 57 71 75 72 77 70 72 77
1850.0 81 70 64 47 50 46 36 33 26 25
1890.0 7 15 15 6 1 9 6 13 4 3
1930.0 3 4 8 13 11 4 15 16 20 23
1970.0 26 27 33 32 34 33 33 33 32 31
2010.0 30 27 27 18 16 20 26 23 23 19
2050.0 17 22 22 19 24 24 23 17 12 25
2090.0 18 25 22 33 29 23 24 25 24 25
2130.0 24 16 14 20 20 20 23 15 25 18
2170.0 20 23 17 17 29 23 30 23 24 18
2210.0 24 23 16 17 15 17 12 18 12 4
2250.0 5 5 6 10 15 16 15 13 15 27
2290.0 30 32 30 31 30 33 29 14 10 1
2330.0 2 2 1 1 1 1 1 3 10 1
2370.0 5 15 38 51 47 37 37 42 52 50
2410.0 59 49 53 45 52 49 44 46 39 51
2450.0 37 48 33 36 33 34 40 44 47 41
2490.0 32 40 47 46 63 57 59 57 67 65
2530.0 75 85 81 90 90 93 95 92 93 99
2570.0 102 100 96 110 123 136 146 167 179 199
2610.0 211 235 262 287 308 328 360 385 397 418
2650.0 444 461 479 482 464 456 457 446 439 420
2690.0 411 414 414 415 434 447 471 482 503 542
2730.0 569 601 629 672 696 718 749 778 797 848
2770.0 869 915 972 1024 1097 1163 1254 1344 1437 1542
2810.0 1630 1742 1896 2082 2322 2590 2921 3335 3847 4469
2850.0 5093 5713 6236 6690 7106 7422 7561 7519 7440 7369
2890.0 7282 7257 7288 7418 7689 7984 8434 8877 9320 9734
2930.0 9754 9628 9334 8954 8867 8640 8342 8114 8152 8570
2970.0 9011 9854 10000 8731 7778 7197 6016 4960 3951 2652
3010.0 1720 1048 650 450 315 264 207 192 186 160
3050.0 176 162 154 171 153 168 168 164 172 148
3090.0 149 135 131 125 119 100 100 101 97 73
3130.0 80 74 74 77 71 77 87 89 90 102
3170.0 115 132 126 130 136 127 135 129 123 105
3210.0 96 82 86 66 50 42 48 37 36 20
3250.0 19 34 2 26 24 25 25 11 23 11
3290.0 14 12 27 15 18 25 28 26 34 30
3330.0 53 90 83 119 118 146 143 162 168 151
3370.0 155 136 164 165 204 240 281 314 370 418
3410.0 480 505 543 526 566 605 541 493 422 387
3450.0 342 318 274 233 199 182 153 159 152 157
3490.0 145 154 179 192 191 216 303 384 503 718
3530.0 993 1396 1822 2124 2338 2592 2719 2693 2665 2498
3570.0 2224 1956 1674 1443 1318 1156 1037 887 846 742
3610.0 728 687 658 681 684 731 782 780 860 949
3650.0 1026 1098 1057 1082 1026 922 830 764 619 481
3690.0 375 317 233 205 182 134 138 100 100 84
3730.0 58 69 52 73 80 59 1 7 6 37
3770.0 16 6 26 1 4 16 13 1 1 11
3810.0 5 23 1 19 11 25 9 0 14 7
3850.0 25 51 7 8 32 9 1 4 0 3
3890.0 15 0 34 0 24 52 24 42 23 5
3930.0 13 78 53 14 48 5 43 36 0 1
##END=
