##TITLE=2-Propanone, 1-chloro-
##JCAMP-DX=4.24
##DATA TYPE=INFRARED SPECTRUM
##ORIGIN=Sadtler Research Labs Under US-EPA Contract
##OWNER=NIST Standard Reference Data Program
##CAS REGISTRY NO=78-95-5
##MOLFORM=C 3 H 5 Cl O
##XUNITS=1/CM
##YUNITS=ABSORBANCE
##XFACTOR=1.0
##YFACTOR=0.000080115
##DELTAX=4.0
##FIRSTX=450.0
##LASTX=3966.0
##FIRSTY=0.050392
##MAXX=3966
##MINX=450
##MAXY=0.80115
##MINY=0
##NPOINTS=880
##XYDATA=(X++(Y..Y))
450.0 629 254 214 366 501 529 675 665 751 675
490.0 721 757 835 790 917 846 812 800 668 660
530.0 590 639 582 569 545 544 548 577 644 599
570.0 605 565 622 470 326 207 101 74 39 106
610.0 65 60 34 23 16 39 25 29 41 7
650.0 5 0 11 3 28 58 43 80 88 119
690.0 132 167 203 308 468 674 927 1222 1427 1594
730.0 1757 1904 2072 1975 1583 1348 1203 1096 980 847
770.0 786 658 689 698 766 866 1045 1133 1172 1165
810.0 1156 1129 1023 875 786 669 610 537 449 330
850.0 251 193 129 114 84 71 48 63 53 46
890.0 39 30 26 14 31 13 22 18 31 13
930.0 23 36 31 39 47 59 56 85 92 110
970.0 124 138 162 167 200 207 226 231 254 255
1010.0 260 257 262 291 290 265 242 239 225 218
1050.0 195 187 172 161 151 147 158 143 159 163
1090.0 180 185 204 227 245 277 296 340 369 425
1130.0 480 567 707 910 1148 1294 1388 1436 1513 1597
1170.0 1473 1270 1192 1198 1274 1385 1525 1752 2084 2613
1210.0 3311 4148 4725 4860 4780 4568 4341 3810 2915 2189
1250.0 1798 1525 1387 1368 1314 1174 1033 908 793 723
1290.0 650 590 511 489 471 426 385 361 375 391
1330.0 475 582 765 1024 1405 1928 2506 3003 3157 3229
1370.0 3453 3572 3009 2317 1720 1361 1126 1064 1123 1253
1410.0 1418 1623 1742 1789 1771 1730 1613 1425 1167 1002
1450.0 839 750 663 592 499 477 398 348 325 284
1490.0 263 238 238 206 217 220 201 217 190 216
1530.0 183 215 191 208 181 193 175 166 177 146
1570.0 165 121 154 105 136 103 122 108 99 109
1610.0 87 119 66 137 80 126 89 146 111 124
1650.0 142 145 177 139 247 206 302 364 448 579
1690.0 703 958 1052 1524 1785 2418 2885 4039 5226 6553
1730.0 7934 8732 9462 9544 10000 9217 8237 6670 5341 4225
1770.0 3498 2831 2276 1658 1273 917 761 584 448 361
1810.0 277 238 139 158 95 93 59 72 53 38
1850.0 57 30 43 14 53 7 31 22 29 18
1890.0 15 31 6 26 13 34 7 31 23 25
1930.0 29 30 40 20 45 21 36 16 36 24
1970.0 19 29 18 25 11 27 2 16 6 13
2010.0 5 6 17 3 13 3 15 3 15 12
2050.0 11 15 13 21 4 23 12 26 21 34
2090.0 27 26 34 23 29 16 26 11 16 13
2130.0 19 14 10 23 13 26 22 29 22 33
2170.0 28 29 29 26 30 15 28 19 24 16
2210.0 22 18 14 19 16 23 9 22 12 17
2250.0 14 18 11 8 15 3 12 3 13 1
2290.0 12 14 7 13 14 21 10 23 12 21
2330.0 5 22 24 5 40 27 32 19 39 18
2370.0 33 27 33 27 21 22 11 20 13 19
2410.0 11 12 8 7 10 8 12 0 11 6
2450.0 10 4 9 5 3 8 4 9 8 15
2490.0 9 14 14 17 14 8 13 5 14 7
2530.0 13 3 10 8 10 13 11 18 9 19
2570.0 18 24 17 24 24 19 25 17 18 11
2610.0 17 8 10 6 10 9 9 18 10 15
2650.0 11 17 14 18 22 20 20 17 20 14
2690.0 16 9 16 10 12 15 14 17 12 21
2730.0 8 17 11 12 14 13 8 4 12 7
2770.0 14 9 20 15 20 25 23 31 30 35
2810.0 37 47 47 56 54 62 64 64 68 67
2850.0 71 61 72 69 71 72 77 77 81 97
2890.0 94 107 114 130 146 166 197 227 275 350
2930.0 449 541 619 716 799 857 878 845 806 782
2970.0 707 635 574 527 478 452 448 440 446 451
3010.0 492 503 492 476 471 446 412 337 280 238
3050.0 212 199 171 170 161 150 137 132 124 115
3090.0 110 103 103 93 89 77 78 67 58 55
3130.0 44 47 32 39 28 28 27 23 25 17
3170.0 21 13 17 15 20 14 12 12 11 11
3210.0 6 13 10 14 8 16 8 12 12 14
3250.0 7 0 12 3 4 3 12 9 11 13
3290.0 10 17 5 19 8 18 1 6 6 9
3330.0 8 4 14 3 13 6 11 9 14 18
3370.0 16 17 2 9 10 24 14 25 27 26
3410.0 36 36 53 54 75 85 106 123 141 171
3450.0 183 213 225 228 225 218 171 158 133 112
3490.0 104 91 83 77 60 46 54 33 49 30
3530.0 33 37 29 33 21 35 24 25 38 37
3570.0 49 42 40 39 38 47 38 29 47 30
3610.0 31 16 23 22 12 46 12 27 17 35
3650.0 35 18 29 8 27 6 36 21 29 28
3690.0 30 30 22 27 16 31 26 35 11 40
3730.0 17 26 15 36 28 39 42 19 30 23
3770.0 41 29 28 36 29 30 21 23 38 23
3810.0 33 26 30 29 37 21 39 25 28 25
3850.0 18 36 25 16 22 34 21 28 26 39
3890.0 27 29 35 18 44 30 30 22 52 26
3930.0 35 46 48 43 45 46 23 44 35 45
##END=
