##TITLE=2-Butanol
##JCAMP-DX=4.24
##DATA TYPE=INFRARED SPECTRUM
##ORIGIN=Sadtler Research Labs Under US-EPA Contract
##OWNER=NIST Standard Reference Data Program
##CAS REGISTRY NO=78-92-2
##MOLFORM=C 4 H 10 O
##XUNITS=1/CM
##YUNITS=ABSORBANCE
##XFACTOR=1.0
##YFACTOR=0.000109021
##DELTAX=4.0
##FIRSTX=450.0
##LASTX=3966.0
##FIRSTY=0.036086
##MAXX=3966
##MINX=450
##MAXY=1.09021
##MINY=0
##NPOINTS=880
##XYDATA=(X++(Y..Y))
450.0 331 179 99 148 146 150 187 165 249 206
490.0 189 224 253 230 267 236 167 137 96 109
530.0 51 77 28 64 50 68 82 51 103 37
570.0 133 111 124 119 144 1 120 93 89 119
610.0 109 133 89 126 119 89 47 97 57 89
650.0 81 77 86 52 51 114 77 87 63 57
690.0 70 69 60 44 61 39 44 57 24 55
730.0 50 42 37 43 67 66 92 112 128 148
770.0 162 160 162 178 178 154 155 167 176 170
810.0 179 195 210 216 190 173 158 146 135 121
850.0 109 101 105 108 133 162 206 288 417 579
890.0 792 1063 1377 1675 1797 1736 1700 1794 1780 1552
930.0 1198 878 648 524 492 516 599 730 896 1110
970.0 1360 1623 1889 2123 2282 2404 2451 2442 2396 2327
1010.0 2185 2029 1915 1803 1691 1594 1520 1448 1382 1300
1050.0 1230 1211 1264 1392 1518 1659 1758 1867 1968 2018
1090.0 2005 1960 1969 2010 2063 2100 2175 2254 2344 2467
1130.0 2557 2573 2525 2486 2397 2253 2048 1838 1612 1393
1170.0 1195 1007 863 748 681 640 634 650 704 777
1210.0 888 1012 1171 1339 1504 1672 1783 1855 1872 1865
1250.0 1801 1697 1560 1384 1227 1084 979 897 846 810
1290.0 791 781 769 757 755 744 738 740 715 704
1330.0 705 747 802 875 968 1073 1229 1418 1663 1936
1370.0 2183 2384 2524 2647 2679 2637 2440 2146 1802 1486
1410.0 1210 1011 867 774 738 743 799 861 1009 1148
1450.0 1330 1432 1453 1446 1378 1398 1348 1105 936 803
1490.0 638 503 389 302 231 182 144 123 107 97
1530.0 89 85 82 72 77 80 83 75 82 81
1570.0 81 79 82 74 77 71 69 64 62 59
1610.0 54 58 55 57 51 52 52 49 52 57
1650.0 50 58 58 61 61 68 63 68 59 68
1690.0 60 58 46 54 47 47 48 47 53 53
1730.0 58 54 58 55 53 50 53 45 37 40
1770.0 39 34 29 33 33 36 31 34 35 37
1810.0 34 37 40 35 34 33 32 28 30 22
1850.0 23 29 27 26 31 34 33 40 37 43
1890.0 44 45 47 45 44 43 44 41 35 34
1930.0 31 31 28 27 33 31 27 27 22 19
1970.0 23 22 21 24 18 20 19 18 18 13
2010.0 12 13 6 7 5 7 10 5 8 8
2050.0 10 11 4 1 3 4 7 13 23 25
2090.0 32 29 28 27 25 22 25 26 26 31
2130.0 28 31 29 33 36 31 35 34 34 31
2170.0 30 32 33 27 25 23 25 26 26 22
2210.0 20 26 24 21 24 19 21 20 18 24
2250.0 21 20 17 21 25 24 29 32 33 38
2290.0 35 33 37 32 34 31 29 29 39 37
2330.0 34 23 30 20 22 32 37 38 29 34
2370.0 38 47 43 46 46 41 42 38 39 37
2410.0 38 41 37 35 36 31 30 29 33 35
2450.0 32 30 34 34 29 29 33 31 23 23
2490.0 22 23 19 16 13 13 13 14 8 9
2530.0 9 7 4 3 2 2 6 5 4 7
2570.0 14 10 23 31 37 52 52 61 69 76
2610.0 84 91 96 104 109 109 116 125 128 118
2650.0 125 135 140 141 137 140 136 132 119 119
2690.0 123 116 118 119 129 136 141 149 161 177
2730.0 184 204 212 221 231 230 237 248 249 251
2770.0 249 245 255 254 261 276 290 304 328 355
2810.0 382 416 455 509 573 655 761 903 1067 1281
2850.0 1509 1771 2046 2345 2712 3141 3596 3956 4137 4167
2890.0 4288 4253 4123 4104 4067 4093 4204 4423 4783 5210
2930.0 5638 5886 5967 5949 6082 6320 6523 6886 7559 8330
2970.0 9246 10000 9256 8496 7759 6832 5581 4281 3040 2021
3010.0 1313 847 578 420 330 273 254 235 216 211
3050.0 204 208 209 208 221 221 227 217 224 212
3090.0 214 203 192 176 158 146 140 132 115 109
3130.0 109 102 104 104 101 109 108 126 121 134
3170.0 139 149 157 149 144 141 157 140 131 129
3210.0 111 109 95 105 107 96 85 77 61 56
3250.0 56 58 51 50 56 42 51 43 50 50
3290.0 44 39 37 35 34 24 14 7 13 9
3330.0 16 1 11 10 1 15 13 18 15 17
3370.0 25 16 33 35 37 49 32 35 43 31
3410.0 40 50 41 45 54 49 53 49 53 60
3450.0 48 44 59 58 57 60 46 56 50 30
3490.0 51 38 46 18 13 18 26 21 29 26
3530.0 22 30 17 16 31 18 28 5 19 30
3570.0 37 9 16 25 37 37 45 54 59 62
3610.0 87 124 162 195 278 368 477 591 733 860
3650.0 950 970 1003 939 892 861 732 530 371 265
3690.0 171 116 84 62 45 19 4 12 22 20
3730.0 2 6 13 4 4 19 13 1 1 1
3770.0 1 1 1 1 1 0 8 1 1 1
3810.0 1 1 1 4 1 1 1 4 16 18
3850.0 11 1 5 1 1 9 15 1 1 14
3890.0 2 10 3 7 16 3 17 3 1 15
3930.0 1 1 17 10 9 1 7 35 2 19
##END=
