##TITLE=Aniline, N-benzylidene-p-chloro-,
##JCAMP-DX=4.24
##DATA TYPE=INFRARED SPECTRUM
##ORIGIN=Sadtler Research Labs Under US-EPA Contract
##OWNER=NIST Standard Reference Data Program
##CAS REGISTRY NO=780-21-2
##MOLFORM=C 13 H 10 Cl N
##XUNITS=1/CM
##YUNITS=ABSORBANCE
##XFACTOR=1.0
##YFACTOR=0.000079965
##DELTAX=4.0
##FIRSTX=450.0
##LASTX=3966.0
##FIRSTY=0.016713
##MAXX=3966
##MINX=450
##MAXY=0.79965
##MINY=0
##NPOINTS=880
##XYDATA=(X++(Y..Y))
450.0 209 209 191 133 138 88 90 56 16 76
490.0 20 29 10 79 130 265 447 724 1042 1360
530.0 1505 1331 1011 655 434 248 185 115 61 53
570.0 38 33 35 56 56 86 60 57 35 33
610.0 17 1 40 23 63 81 111 144 145 160
650.0 170 236 297 453 533 860 1170 1631 2575 3763
690.0 4791 4176 3243 2322 1737 1377 1125 824 635 547
730.0 571 683 923 1208 1500 1777 1823 1593 1197 820
770.0 533 345 246 226 242 309 433 559 756 1050
810.0 1461 1873 2437 3118 3500 3233 2529 1911 1351 952
850.0 685 539 473 485 545 701 1012 1469 1793 1546
890.0 1032 594 384 255 206 170 152 142 117 109
930.0 100 122 89 88 81 121 156 194 291 371
970.0 462 462 421 324 256 222 241 382 580 1395
1010.0 2717 2899 1426 583 667 516 249 149 142 183
1050.0 210 282 371 471 548 608 690 910 1804 3850
1090.0 5977 5539 3418 1982 1496 1246 1094 870 613 422
1130.0 314 281 256 262 271 344 482 775 1649 3477
1170.0 4406 3631 2250 2549 4012 4519 3157 1828 1232 981
1210.0 851 860 831 780 706 660 612 548 510 484
1250.0 433 355 310 285 292 304 343 387 423 427
1290.0 373 364 421 660 1087 1307 984 560 402 401
1330.0 367 294 235 202 194 202 235 286 329 364
1370.0 362 338 286 245 221 226 234 249 256 250
1410.0 230 193 192 168 179 206 265 365 513 708
1450.0 1020 1275 1529 1802 1882 1862 2244 3824 6758 9834
1490.0 8663 5757 3517 2132 1431 980 716 518 398 304
1530.0 269 241 220 216 197 200 215 275 349 483
1570.0 754 1233 1992 2468 2163 1394 974 817 790 852
1610.0 987 1403 2132 3056 4575 7215 10000 9734 6852 4369
1650.0 3092 2217 1579 1281 1001 815 614 515 437 398
1690.0 361 324 306 277 296 304 353 372 373 358
1730.0 368 365 301 274 265 303 328 358 345 297
1770.0 261 235 208 161 128 117 138 163 226 258
1810.0 245 190 157 154 140 119 83 72 67 73
1850.0 74 85 106 135 173 216 265 299 331 334
1890.0 337 328 296 234 156 110 91 89 90 108
1930.0 145 197 251 278 256 225 210 185 162 150
1970.0 147 116 69 40 36 36 39 43 36 34
2010.0 33 37 34 39 39 42 52 62 76 87
2050.0 94 99 92 92 92 93 80 63 47 39
2090.0 30 29 25 23 16 11 13 8 8 5
2130.0 1 6 5 5 4 4 5 3 4 4
2170.0 3 6 4 5 3 4 6 2 5 6
2210.0 2 3 6 5 9 8 11 10 13 20
2250.0 20 27 34 40 46 48 52 50 46 49
2290.0 48 48 49 55 62 78 98 106 88 69
2330.0 63 60 62 50 74 77 84 75 64 64
2370.0 58 66 74 67 56 43 38 36 35 34
2410.0 31 31 28 22 17 19 17 18 18 25
2450.0 32 37 43 44 47 49 46 40 36 31
2490.0 34 31 33 33 29 32 29 36 30 26
2530.0 26 23 22 26 28 30 31 33 31 32
2570.0 43 42 37 39 37 40 31 36 32 36
2610.0 31 27 28 21 21 23 22 23 23 23
2650.0 23 25 24 30 31 35 35 38 37 38
2690.0 34 38 36 43 45 52 63 80 89 87
2730.0 86 84 74 64 58 58 54 59 61 69
2770.0 73 76 79 86 86 93 106 111 126 134
2810.0 154 174 197 212 216 226 246 285 356 440
2850.0 545 657 769 881 982 1077 1138 1142 1087 966
2890.0 806 642 492 389 295 231 199 174 170 169
2930.0 173 184 182 193 190 182 170 158 154 158
2970.0 165 176 183 193 212 224 244 269 303 339
3010.0 377 435 525 679 907 1210 1465 1486 1263 1001
3050.0 873 844 887 1047 1507 2386 2960 2471 1768 1535
3090.0 1551 1445 1249 988 756 554 409 277 176 126
3130.0 93 83 67 69 69 73 85 88 94 85
3170.0 63 45 35 37 40 38 44 49 48 51
3210.0 51 51 52 49 52 49 57 60 76 92
3250.0 102 114 111 97 78 56 39 35 26 19
3290.0 22 20 13 10 15 8 9 10 8 11
3330.0 7 9 20 16 12 8 9 10 2 7
3370.0 5 9 19 6 10 9 8 19 20 21
3410.0 20 18 29 16 20 21 16 16 7 11
3450.0 7 4 19 10 12 10 8 20 18 7
3490.0 12 17 19 17 10 18 8 11 3 13
3530.0 18 9 4 11 4 6 6 10 16 13
3570.0 20 9 12 21 1 15 21 16 10 6
3610.0 18 7 16 6 10 30 4 31 26 22
3650.0 32 24 35 33 26 40 12 31 26 18
3690.0 32 30 27 38 34 27 29 30 36 39
3730.0 35 27 27 27 27 21 24 22 23 10
3770.0 21 18 17 21 5 13 7 13 12 5
3810.0 2 7 7 13 8 0 19 3 24 11
3850.0 18 20 12 19 15 20 9 1 18 29
3890.0 33 20 8 28 36 21 29 18 30 15
3930.0 8 2 4 11 10 11 21 30 17 10
##END=
