##TITLE=Ethane, 1,1,2-trichloro-
##JCAMP-DX=4.24
##DATA TYPE=INFRARED SPECTRUM
##ORIGIN=Sadtler Research Labs Under US-EPA Contract
##OWNER=NIST Standard Reference Data Program
##CAS REGISTRY NO=79-00-5
##MOLFORM=C 2 H 3 Cl 3
##XUNITS=1/CM
##YUNITS=ABSORBANCE
##XFACTOR=1.0
##YFACTOR=0.000166779
##DELTAX=4.0
##FIRSTX=450.0
##LASTX=3966.0
##FIRSTY=0.000000
##MAXX=3966
##MINX=450
##MAXY=1.66779
##MINY=0
##NPOINTS=880
##XYDATA=(X++(Y..Y))
450.0 0 67 105 39 63 82 54 78 59 80
490.0 42 63 82 64 68 96 125 147 186 205
530.0 218 162 198 101 70 59 70 67 62 97
570.0 69 84 62 102 52 100 77 64 70 69
610.0 102 68 106 91 126 117 182 194 255 365
650.0 452 665 895 1437 1759 2056 2082 2341 2323 1631
690.0 1121 874 718 755 873 1126 1552 2348 3610 5372
730.0 7244 9193 8778 10000 8191 6071 2785 1129 773 780
770.0 817 961 1222 1398 1407 1173 1157 1148 722 442
810.0 272 172 138 124 136 119 148 133 137 128
850.0 129 117 108 114 99 113 112 137 126 155
890.0 158 175 191 226 276 341 487 682 1001 1413
930.0 1881 1816 1881 2140 1739 1260 865 543 341 222
970.0 172 149 140 123 127 126 133 130 138 135
1010.0 141 142 134 148 161 188 217 254 278 297
1050.0 301 292 269 231 197 165 134 102 91 74
1090.0 72 69 70 69 68 74 72 78 75 86
1130.0 82 91 103 126 165 222 292 333 376 341
1170.0 300 238 190 186 226 333 528 934 1343 1489
1210.0 1447 1585 1443 823 499 415 416 495 540 621
1250.0 764 1062 1301 1254 1171 1133 890 570 359 263
1290.0 257 344 473 574 636 589 599 506 310 210
1330.0 166 158 144 138 128 123 110 99 87 81
1370.0 74 73 73 69 74 73 79 79 88 95
1410.0 112 148 222 330 451 656 700 963 668 621
1450.0 453 300 191 118 90 88 78 84 75 79
1490.0 74 75 69 63 69 63 59 64 65 58
1530.0 58 63 63 67 64 63 63 68 64 56
1570.0 54 58 55 50 52 55 53 56 56 56
1610.0 56 59 56 58 50 52 48 55 49 59
1650.0 51 65 49 52 51 50 54 52 52 62
1690.0 54 53 61 59 53 54 55 55 53 53
1730.0 52 56 53 51 54 54 51 52 52 52
1770.0 52 56 50 53 50 55 52 55 51 50
1810.0 51 54 52 55 59 54 53 49 51 49
1850.0 47 45 45 45 46 47 46 47 46 48
1890.0 47 47 45 46 45 44 46 45 46 44
1930.0 45 47 46 46 44 46 46 44 45 47
1970.0 46 51 51 51 52 51 50 50 48 47
2010.0 48 47 47 46 48 47 49 49 50 50
2050.0 50 50 48 49 47 48 49 49 53 53
2090.0 55 58 58 58 58 56 54 52 48 47
2130.0 45 45 45 45 46 44 44 44 45 46
2170.0 46 47 47 49 51 52 55 54 52 51
2210.0 51 49 47 47 47 48 46 48 49 48
2250.0 50 49 49 47 47 46 46 46 45 44
2290.0 44 44 43 44 44 43 42 45 45 42
2330.0 44 46 46 43 58 60 72 67 70 70
2370.0 67 61 58 55 54 54 59 62 64 70
2410.0 65 63 62 61 56 58 58 56 62 64
2450.0 66 71 78 78 76 73 69 67 65 63
2490.0 61 61 62 61 63 65 65 66 64 62
2530.0 58 54 50 50 51 50 51 53 55 54
2570.0 56 54 53 52 51 51 53 54 53 52
2610.0 50 50 50 47 45 47 48 48 49 50
2650.0 50 48 48 48 48 47 48 49 52 53
2690.0 58 60 61 59 60 58 53 52 51 52
2730.0 59 60 62 62 62 59 56 53 51 51
2770.0 51 49 50 51 49 50 50 48 50 52
2810.0 50 52 52 53 54 56 63 67 78 95
2850.0 117 127 124 124 118 101 78 73 70 70
2890.0 69 71 72 74 75 76 78 75 79 80
2930.0 83 82 90 96 110 139 166 228 356 564
2970.0 610 670 635 614 499 296 197 205 207 182
3010.0 186 195 187 150 124 115 109 88 73 63
3050.0 61 56 58 55 56 55 54 59 56 58
3090.0 53 51 53 51 51 54 53 52 52 52
3130.0 53 50 52 54 52 53 52 54 52 54
3170.0 50 51 52 54 52 52 51 52 53 51
3210.0 51 51 52 52 51 49 52 51 50 51
3250.0 49 51 50 50 48 51 50 50 49 49
3290.0 49 49 51 47 51 50 51 53 56 54
3330.0 51 49 50 50 50 51 52 51 52 49
3370.0 51 49 51 52 51 53 55 52 52 53
3410.0 55 54 53 53 54 52 53 46 50 49
3450.0 47 50 49 51 50 50 52 51 49 50
3490.0 51 53 48 50 45 52 48 53 46 48
3530.0 54 49 52 48 45 48 53 50 49 43
3570.0 47 49 53 56 46 50 43 51 49 50
3610.0 49 50 48 49 54 47 55 50 55 59
3650.0 49 56 51 58 58 52 59 50 65 56
3690.0 61 51 62 60 60 59 53 59 55 51
3730.0 52 51 53 48 64 56 59 64 65 63
3770.0 68 65 63 59 63 61 59 68 60 65
3810.0 67 65 63 51 59 55 55 52 52 47
3850.0 52 47 45 49 47 46 47 52 48 51
3890.0 52 59 59 59 53 58 53 50 53 54
3930.0 59 54 65 55 64 56 64 60 60 61
##END=
