##TITLE=Acetic acid, bromo-
##JCAMP-DX=4.24
##DATA TYPE=INFRARED SPECTRUM
##ORIGIN=Sadtler Research Labs Under US-EPA Contract
##OWNER=NIST Standard Reference Data Program
##CAS REGISTRY NO=79-08-3
##MOLFORM=C 2 H 3 Br O 2
##XUNITS=1/CM
##YUNITS=ABSORBANCE
##XFACTOR=1.0
##YFACTOR=0.000053223
##DELTAX=4.0
##FIRSTX=450.0
##LASTX=3966.0
##FIRSTY=0.013731
##MAXX=3966
##MINX=450
##MAXY=0.53223
##MINY=0
##NPOINTS=880
##XYDATA=(X++(Y..Y))
450.0 258 253 260 320 423 485 497 610 638 699
490.0 752 759 859 933 904 723 583 572 480 484
530.0 525 502 570 552 620 785 946 1101 1332 1500
570.0 1669 1990 1993 2237 2258 2499 2650 2844 3103 2995
610.0 3270 3472 3554 3400 3621 3413 3223 2663 2165 1639
650.0 1304 1186 1022 976 937 666 682 603 544 486
690.0 420 456 440 397 385 396 452 445 455 387
730.0 399 324 240 144 165 155 165 187 182 198
770.0 210 197 197 236 224 209 230 194 212 174
810.0 151 110 102 98 67 96 103 116 141 143
850.0 187 188 215 260 216 244 283 243 225 235
890.0 213 195 191 163 141 139 108 93 122 108
930.0 85 77 59 50 48 25 28 41 51 31
970.0 33 34 8 18 49 41 32 58 53 59
1010.0 57 54 62 93 113 102 158 192 289 356
1050.0 471 626 829 1086 1412 1760 2239 2806 3579 4472
1090.0 5269 5892 6095 6330 6138 5367 4187 3445 2994 2626
1130.0 2356 2153 1975 1854 1780 1745 1744 1781 1824 1917
1170.0 2043 2209 2362 2457 2512 2495 2587 2581 2556 2593
1210.0 2603 2470 2312 2075 1807 1500 1246 1082 1015 983
1250.0 972 962 955 890 815 765 707 652 606 596
1290.0 587 625 661 749 847 1001 1152 1305 1468 1610
1330.0 1733 1813 1882 1946 1935 1863 1699 1537 1380 1155
1370.0 926 743 601 499 428 386 377 365 374 432
1410.0 500 596 716 810 875 847 771 696 534 416
1450.0 334 278 276 181 164 136 142 103 84 84
1490.0 111 92 98 71 105 78 47 54 75 50
1530.0 30 48 41 84 35 14 27 68 53 6
1570.0 32 17 43 14 14 14 14 23 24 11
1610.0 31 22 57 32 35 35 38 54 34 44
1650.0 41 112 36 48 41 69 70 84 107 166
1690.0 153 198 266 340 355 420 512 648 703 817
1730.0 957 1141 1298 1500 1675 1947 2358 2880 3551 4339
1770.0 5377 6531 7735 8650 9098 9470 10000 9632 7841 6076
1810.0 5075 4396 3600 2739 2053 1489 1051 729 510 371
1850.0 261 192 143 113 86 86 56 47 49 32
1890.0 38 32 22 26 31 23 24 42 34 34
1930.0 36 42 46 67 72 67 69 80 72 81
1970.0 71 62 61 52 45 44 41 37 24 30
2010.0 20 17 27 8 18 17 20 19 19 19
2050.0 19 24 22 20 20 20 20 10 10 21
2090.0 10 10 12 5 11 5 12 12 11 11
2130.0 4 12 13 12 11 6 12 11 16 23
2170.0 28 31 29 30 30 31 41 30 31 21
2210.0 21 21 16 13 19 21 13 12 12 12
2250.0 13 14 22 11 22 31 31 38 48 57
2290.0 58 67 77 96 97 109 109 107 119 115
2330.0 109 100 95 104 114 105 122 145 158 144
2370.0 101 86 76 62 36 15 21 21 22 30
2410.0 32 32 32 43 49 49 49 44 39 42
2450.0 32 40 31 31 22 20 22 25 19 27
2490.0 22 22 29 21 21 31 31 22 30 30
2530.0 30 26 32 31 30 30 24 30 21 21
2570.0 21 21 20 16 11 12 12 13 13 20
2610.0 4 13 13 12 12 12 21 15 21 25
2650.0 26 27 23 31 31 31 30 31 22 29
2690.0 22 21 21 16 18 19 21 13 14 13
2730.0 12 12 13 13 13 9 22 16 24 23
2770.0 22 22 23 23 23 31 30 33 32 32
2810.0 21 32 32 40 31 22 32 42 41 51
2850.0 49 41 52 40 51 51 50 49 51 51
2890.0 61 61 51 62 61 66 71 73 82 88
2930.0 86 97 106 116 115 124 136 163 185 203
2970.0 226 255 279 287 288 274 257 237 200 161
3010.0 143 125 115 116 112 102 109 91 88 81
3050.0 88 79 81 81 78 82 81 81 80 80
3090.0 75 78 74 62 62 63 53 61 62 54
3130.0 58 56 57 48 44 54 53 54 54 54
3170.0 54 46 46 35 50 54 49 45 51 53
3210.0 46 45 45 44 44 47 34 43 52 45
3250.0 33 38 47 28 29 36 28 36 35 28
3290.0 28 27 27 37 31 35 27 19 28 27
3330.0 19 28 18 19 22 13 8 8 11 17
3370.0 9 9 10 18 18 10 11 2 10 11
3410.0 16 3 1 16 10 2 11 10 19 11
3450.0 11 13 20 15 10 16 13 19 10 19
3490.0 20 20 57 73 115 150 187 221 253 275
3530.0 296 296 316 343 381 409 501 647 977 1652
3570.0 2686 3567 3883 4016 3912 3555 2528 1453 819 523
3610.0 379 264 196 151 106 107 73 52 39 40
3650.0 49 21 29 11 13 26 26 43 6 7
3690.0 32 25 3 3 4 4 30 2 11 15
3730.0 18 31 41 36 52 39 16 13 13 5
3770.0 5 5 4 4 4 2 5 5 21 3
3810.0 15 4 23 15 4 4 18 22 29 19
3850.0 20 49 25 14 24 34 23 15 15 15
3890.0 15 15 19 23 27 27 24 34 25 24
3930.0 25 25 15 16 9 17 0 1 1 1
##END=
