##TITLE=Propanoic acid
##JCAMP-DX=4.24
##DATA TYPE=INFRARED SPECTRUM
##ORIGIN=Sadtler Research Labs Under US-EPA Contract
##OWNER=NIST Standard Reference Data Program
##CAS REGISTRY NO=79-09-4
##MOLFORM=C 3 H 6 O 2
##XUNITS=1/CM
##YUNITS=ABSORBANCE
##XFACTOR=1.0
##YFACTOR=0.000179147
##DELTAX=4.0
##FIRSTX=450.0
##LASTX=3966.0
##FIRSTY=0.085274
##MAXX=3966
##MINX=450
##MAXY=1.79147
##MINY=0
##NPOINTS=880
##XYDATA=(X++(Y..Y))
450.0 476 413 401 402 477 464 552 537 509 490
490.0 492 501 522 564 518 582 603 639 702 817
530.0 836 830 903 1016 1130 1199 1358 1422 1526 1598
570.0 1684 1717 1773 1769 1852 1872 1800 1756 1736 1740
610.0 1703 1701 1663 1772 1831 1728 1407 1281 1213 1065
650.0 963 814 731 653 617 511 481 458 434 397
690.0 392 396 373 373 350 334 308 300 276 254
730.0 240 223 208 221 182 176 171 159 151 146
770.0 156 166 190 223 275 324 288 382 444 556
810.0 598 557 588 519 455 391 307 245 198 159
850.0 121 91 66 57 43 43 36 23 18 16
890.0 18 10 11 6 8 7 10 11 10 18
930.0 15 22 27 41 52 74 107 144 200 268
970.0 339 401 435 436 490 521 536 564 562 546
1010.0 544 569 620 697 819 978 1186 1430 1691 1955
1050.0 2182 2466 2754 2931 2890 2743 2507 2395 2339 2123
1090.0 1819 1638 1551 1601 1776 2094 2528 3059 3587 4002
1130.0 4266 4613 5031 5314 5404 5397 4999 4460 4261 4056
1170.0 3693 3351 3038 2710 2432 2151 1813 1512 1267 1087
1210.0 955 850 786 729 685 660 641 605 577 550
1250.0 526 513 506 505 509 517 517 522 526 521
1290.0 514 495 478 459 439 420 407 393 393 408
1330.0 434 476 516 591 670 769 892 1027 1178 1326
1370.0 1429 1492 1565 1561 1505 1469 1286 1088 932 809
1410.0 700 652 614 624 584 568 569 609 635 620
1450.0 608 624 662 712 614 561 563 537 509 443
1490.0 346 284 215 179 142 115 101 98 68 76
1530.0 56 64 46 30 31 41 31 13 34 31
1570.0 34 34 38 39 52 52 59 65 68 75
1610.0 75 87 67 85 71 87 68 67 64 63
1650.0 40 52 51 53 52 47 44 59 43 51
1690.0 63 83 74 109 139 203 256 349 511 686
1730.0 903 1112 1410 1725 2284 2927 3941 5158 6681 7866
1770.0 8448 8950 8320 8390 8658 10000 8596 7241 5426 4044
1810.0 3027 2271 1681 1210 876 637 487 378 295 228
1850.0 193 164 142 123 109 88 88 82 76 67
1890.0 62 57 52 48 41 41 36 38 36 37
1930.0 42 37 40 35 42 42 43 42 39 35
1970.0 36 36 30 30 28 24 19 23 19 18
2010.0 18 19 16 14 18 15 19 15 13 17
2050.0 18 18 12 14 10 8 5 2 1 2
2090.0 2 1 1 1 3 3 6 6 9 11
2130.0 11 12 11 14 12 15 13 13 15 17
2170.0 18 19 22 24 26 29 30 31 31 31
2210.0 30 31 30 28 28 27 29 29 28 28
2250.0 28 26 26 23 25 24 27 27 25 26
2290.0 27 29 31 31 34 41 39 41 37 35
2330.0 36 33 32 26 31 36 36 30 28 21
2370.0 27 22 23 23 22 23 17 20 19 20
2410.0 20 22 22 21 24 23 21 19 19 18
2450.0 16 16 16 19 13 14 13 13 17 15
2490.0 18 17 21 21 23 23 25 28 26 26
2530.0 24 24 25 26 22 24 23 21 21 23
2570.0 22 28 25 21 23 20 25 24 22 20
2610.0 12 14 11 12 11 8 9 8 6 13
2650.0 13 14 19 16 15 14 20 24 22 27
2690.0 31 35 36 35 31 35 35 36 38 35
2730.0 41 42 44 44 49 53 52 56 55 53
2770.0 57 54 58 54 51 56 53 54 58 60
2810.0 63 66 69 74 84 94 101 112 120 125
2850.0 128 138 140 151 167 184 211 254 310 383
2890.0 438 462 494 532 542 557 567 574 586 608
2930.0 658 711 815 946 1078 1111 1122 1190 1115 1170
2970.0 1260 1269 1305 1337 1366 1428 1573 1510 1369 1241
3010.0 1113 939 781 653 545 455 390 340 291 259
3050.0 225 200 175 168 156 149 141 135 132 129
3090.0 130 130 122 123 121 129 120 121 126 126
3130.0 116 120 113 107 112 112 113 106 110 109
3170.0 111 105 108 107 100 101 99 101 100 91
3210.0 88 84 86 81 79 85 72 74 75 62
3250.0 65 66 63 68 61 65 62 55 56 60
3290.0 64 58 58 50 57 54 53 53 54 48
3330.0 46 42 41 37 42 37 38 40 44 42
3370.0 36 39 39 40 40 34 30 34 35 31
3410.0 27 36 35 18 29 28 28 32 22 36
3450.0 20 25 29 19 23 27 25 14 19 16
3490.0 20 25 34 22 38 54 67 81 92 106
3530.0 128 145 159 191 216 313 536 901 1487 2082
3570.0 2356 2226 2641 2592 2223 2299 2193 1518 861 404
3610.0 197 106 70 52 57 32 37 43 39 33
3650.0 5 26 22 34 26 17 7 21 21 28
3690.0 15 29 30 26 30 12 10 33 31 28
3730.0 27 20 26 31 27 9 41 24 35 36
3770.0 49 58 58 42 51 57 46 48 33 44
3810.0 30 56 44 48 47 41 43 31 23 39
3850.0 40 9 23 14 12 1 1 1 1 2
3890.0 1 1 1 1 1 20 6 9 27 1
3930.0 4 1 1 14 9 0 14 0 1 1
##END=
