##TITLE=Acetyl chloride, chloro-
##JCAMP-DX=4.24
##DATA TYPE=INFRARED SPECTRUM
##ORIGIN=Sadtler Research Labs Under US-EPA Contract
##OWNER=NIST Standard Reference Data Program
##CAS REGISTRY NO=79-04-9
##MOLFORM=C 2 H 2 Cl 2 O
##XUNITS=1/CM
##YUNITS=ABSORBANCE
##XFACTOR=1.0
##YFACTOR=0.000118774
##DELTAX=4.0
##FIRSTX=450.0
##LASTX=3966.0
##FIRSTY=0.093357
##MAXX=3966
##MINX=450
##MAXY=1.18774
##MINY=0
##NPOINTS=880
##XYDATA=(X++(Y..Y))
450.0 786 482 170 288 146 22 264 173 16 78
490.0 177 149 148 140 134 148 153 131 109 159
530.0 254 362 387 506 719 855 1091 1146 1365 1278
570.0 1323 1167 1016 888 717 617 637 596 677 851
610.0 941 1220 1312 1189 1129 1057 942 749 577 476
650.0 432 455 448 460 416 458 470 508 551 732
690.0 949 1430 2253 3608 5647 7831 9193 9239 10000 8620
730.0 4960 2468 1299 1247 1224 1014 619 300 239 381
770.0 590 1071 1637 2042 2279 2221 2197 1695 906 351
810.0 233 151 183 173 194 143 91 143 143 131
850.0 59 43 57 91 71 57 76 88 77 133
890.0 161 176 256 348 462 478 574 546 587 559
930.0 540 572 847 1367 2062 2612 2855 3067 3452 3361
970.0 2699 2620 3434 3866 3907 3657 3760 3663 2884 1967
1010.0 1690 1744 1814 1947 2130 2448 2835 2976 2942 2986
1050.0 2968 2502 1788 1255 937 781 692 657 628 593
1090.0 570 573 532 485 433 472 377 352 373 378
1130.0 368 381 407 405 425 470 471 491 523 561
1170.0 657 773 932 913 891 842 888 716 512 422
1210.0 357 303 311 291 289 293 280 277 268 298
1250.0 286 347 379 388 410 416 419 402 333 277
1290.0 254 226 223 184 187 150 148 130 117 129
1330.0 117 113 101 111 125 139 144 160 158 190
1370.0 207 217 255 263 315 325 389 454 590 751
1410.0 690 730 820 893 749 627 477 386 279 197
1450.0 132 133 104 120 72 98 88 77 81 64
1490.0 63 94 78 82 68 86 0 76 54 65
1530.0 37 44 94 97 63 30 66 70 131 34
1570.0 53 72 62 72 39 48 77 24 86 55
1610.0 51 82 85 87 51 103 70 101 99 62
1650.0 146 122 145 49 113 99 100 102 94 144
1690.0 101 102 140 165 103 98 101 135 142 119
1730.0 188 182 280 279 340 420 503 627 811 1081
1770.0 1455 2067 2837 3748 4834 5466 5770 6386 6771 6725
1810.0 6353 6404 7172 8150 9239 8848 7728 8147 7824 5478
1850.0 3618 2543 1775 1172 807 553 432 351 322 300
1890.0 299 296 301 310 321 340 350 372 386 400
1930.0 418 433 434 413 405 388 362 321 283 254
1970.0 226 192 158 137 123 102 87 76 70 59
2010.0 59 52 48 63 62 59 62 62 64 60
2050.0 56 56 57 57 54 67 64 62 67 58
2090.0 52 47 44 41 40 38 35 36 34 33
2130.0 33 30 30 26 26 26 25 26 29 22
2170.0 25 29 27 30 29 29 27 26 30 26
2210.0 27 29 28 34 30 34 35 33 37 36
2250.0 36 41 41 47 52 53 51 50 45 39
2290.0 41 31 37 36 39 41 41 50 51 57
2330.0 56 46 74 38 91 25 87 43 85 60
2370.0 53 50 35 33 23 24 23 24 25 22
2410.0 25 24 23 26 24 24 23 21 23 23
2450.0 22 21 21 22 20 19 18 14 16 14
2490.0 15 16 12 18 15 13 16 15 20 20
2530.0 18 20 22 24 23 25 23 20 19 18
2570.0 12 14 14 13 12 12 12 12 12 12
2610.0 11 15 15 14 12 10 6 1 8 5
2650.0 9 9 6 9 10 7 10 27 20 16
2690.0 21 22 23 31 35 13 17 12 9 32
2730.0 32 17 10 22 12 38 52 27 26 24
2770.0 33 57 77 36 44 34 41 71 68 43
2810.0 40 48 51 97 51 44 42 38 57 73
2850.0 19 37 12 33 45 21 23 26 20 26
2890.0 23 27 18 31 54 39 50 47 88 112
2930.0 122 100 99 139 158 190 269 485 635 633
2970.0 644 638 514 381 223 136 127 119 105 71
3010.0 81 89 83 55 57 74 50 40 41 57
3050.0 39 33 35 36 32 36 31 28 22 28
3090.0 26 20 25 21 26 23 21 19 23 19
3130.0 19 21 18 17 17 17 20 22 22 22
3170.0 21 21 25 15 19 14 26 25 18 25
3210.0 20 17 21 24 25 13 24 25 22 26
3250.0 24 21 21 20 23 24 23 21 21 23
3290.0 19 22 24 17 24 31 22 25 17 20
3330.0 25 30 27 23 32 19 21 23 28 30
3370.0 27 24 35 27 27 27 32 32 28 27
3410.0 29 31 31 29 27 25 31 30 27 34
3450.0 33 35 30 25 31 32 34 38 33 28
3490.0 33 33 33 18 26 28 34 39 38 34
3530.0 44 45 56 60 59 69 113 114 136 136
3570.0 168 174 167 144 147 121 129 92 95 79
3610.0 86 94 104 130 114 177 155 173 152 177
3650.0 155 191 89 94 61 57 96 59 52 19
3690.0 67 42 10 36 41 44 56 17 50 14
3730.0 59 72 43 106 70 154 43 75 23 46
3770.0 48 43 35 22 21 41 19 60 38 78
3810.0 13 70 36 88 32 31 41 62 38 36
3850.0 32 115 74 19 45 54 39 49 48 60
3890.0 68 39 60 57 63 71 26 45 37 46
3930.0 52 31 49 46 41 46 69 35 34 56
##END=
