##TITLE=Trichloroethylene
##JCAMP-DX=4.24
##DATA TYPE=INFRARED SPECTRUM
##ORIGIN=Sadtler Research Labs Under US-EPA Contract
##OWNER=NIST Standard Reference Data Program
##CAS REGISTRY NO=79-01-6
##MOLFORM=C 2 H Cl 3
##XUNITS=1/CM
##YUNITS=ABSORBANCE
##XFACTOR=1.0
##YFACTOR=0.000162167
##DELTAX=4.0
##FIRSTX=450.0
##LASTX=3966.0
##FIRSTY=0.210331
##MAXX=3966
##MINX=450
##MAXY=1.62167
##MINY=0
##NPOINTS=880
##XYDATA=(X++(Y..Y))
450.0 1297 765 414 251 337 188 154 90 82 43
490.0 41 34 27 29 29 30 15 23 3 10
530.0 9 9 10 13 14 16 22 10 21 25
570.0 16 22 26 33 23 24 22 21 51 110
610.0 217 397 617 907 1097 1044 1024 1114 775 362
650.0 172 84 54 52 47 34 32 37 16 12
690.0 8 0 9 3 4 4 15 22 28 36
730.0 45 70 71 82 85 120 158 294 558 844
770.0 1186 1427 2072 2386 1899 1491 1605 1260 898 599
810.0 463 296 347 636 1369 2919 5105 7957 8727 10000
850.0 9103 9014 3919 903 151 136 112 130 116 159
890.0 209 300 449 579 656 935 1496 2308 3628 5416
930.0 7008 7220 7108 7458 6816 3900 1915 966 457 223
970.0 185 213 262 252 237 221 208 167 152 160
1010.0 170 173 162 162 134 96 64 54 47 42
1050.0 37 33 32 24 26 25 26 23 24 27
1090.0 28 39 47 57 58 67 67 60 49 42
1130.0 35 27 27 22 22 16 18 13 15 16
1170.0 15 15 16 24 22 26 32 40 49 62
1210.0 78 96 122 154 186 204 264 385 590 742
1250.0 773 826 808 673 524 387 238 133 76 49
1290.0 35 32 37 37 43 43 48 47 42 32
1330.0 27 22 18 16 12 17 14 17 20 21
1370.0 21 28 28 25 33 32 34 32 32 30
1410.0 32 33 36 37 29 37 27 33 20 25
1450.0 18 20 30 21 22 20 29 21 22 16
1490.0 23 16 21 24 18 34 20 40 27 61
1530.0 68 117 191 324 460 606 791 761 701 762
1570.0 711 614 595 628 608 546 520 461 266 134
1610.0 72 38 24 20 9 17 8 22 8 20
1650.0 9 24 9 10 13 11 24 14 24 28
1690.0 25 18 32 26 16 14 14 24 16 14
1730.0 15 23 23 25 34 38 46 43 46 47
1770.0 50 50 40 42 37 37 25 20 15 14
1810.0 9 12 7 9 13 12 14 12 18 18
1850.0 25 26 28 29 33 32 25 21 14 13
1890.0 9 10 9 7 8 4 9 7 9 8
1930.0 8 5 7 7 7 9 9 9 9 10
1970.0 8 8 7 7 5 5 7 4 5 4
2010.0 4 5 4 7 5 5 5 7 5 8
2050.0 4 5 7 7 8 8 9 11 14 16
2090.0 16 15 16 15 10 7 2 1 3 3
2130.0 1 5 4 5 4 4 8 5 7 7
2170.0 7 8 8 9 9 10 7 9 9 9
2210.0 9 9 7 8 8 7 7 4 4 2
2250.0 4 2 3 2 3 2 1 4 1 3
2290.0 3 3 4 4 5 3 7 1 2 0
2330.0 0 0 0 0 2 0 0 0 0 3
2370.0 0 0 3 2 4 3 5 3 7 4
2410.0 7 7 8 11 9 10 9 7 5 4
2450.0 3 5 5 10 13 16 16 15 15 14
2490.0 16 14 14 11 12 11 9 9 10 8
2530.0 7 7 4 3 1 2 4 2 4 5
2570.0 4 4 3 1 2 2 4 3 1 2
2610.0 3 1 1 2 2 2 0 2 0 0
2650.0 1 0 2 2 2 3 1 0 2 4
2690.0 3 4 2 3 5 4 4 3 2 1
2730.0 1 0 2 1 3 3 2 2 3 5
2770.0 5 7 7 9 9 11 13 15 17 20
2810.0 22 25 28 30 34 29 27 27 22 20
2850.0 14 15 14 17 17 18 21 24 24 25
2890.0 26 26 28 29 32 35 35 38 36 42
2930.0 41 46 46 49 50 54 55 60 66 66
2970.0 68 71 68 64 63 59 54 49 41 38
3010.0 32 33 26 25 25 22 23 25 27 26
3050.0 32 32 42 48 75 111 155 240 401 681
3090.0 812 823 754 859 602 253 130 90 68 71
3130.0 72 79 78 88 96 104 112 120 124 115
3170.0 103 86 65 38 14 7 7 8 9 9
3210.0 8 10 7 10 8 7 8 8 9 7
3250.0 10 10 10 8 10 10 10 10 5 5
3290.0 8 7 9 8 7 7 7 7 7 9
3330.0 11 9 5 7 9 7 5 8 9 10
3370.0 9 5 8 5 5 8 9 8 8 8
3410.0 10 7 10 5 7 4 5 9 9 10
3450.0 8 8 8 8 7 7 5 5 7 5
3490.0 5 8 4 2 5 11 7 9 2 0
3530.0 7 8 5 10 4 9 8 10 7 1
3570.0 9 8 10 5 10 5 4 2 4 9
3610.0 7 9 5 8 10 7 10 5 9 3
3650.0 11 10 7 17 8 5 8 7 9 7
3690.0 14 9 9 10 9 13 14 20 15 11
3730.0 23 15 15 1 16 2 5 4 1 4
3770.0 11 8 5 8 7 5 0 12 2 10
3810.0 4 4 2 0 13 8 1 9 8 8
3850.0 11 17 15 14 10 11 7 11 1 11
3890.0 4 13 3 7 5 8 9 12 17 13
3930.0 11 8 18 21 14 13 20 9 13 11
##END=
