##TITLE=2-Propenoic acid
##JCAMP-DX=4.24
##DATA TYPE=INFRARED SPECTRUM
##ORIGIN=Sadtler Research Labs Under US-EPA Contract
##OWNER=NIST Standard Reference Data Program
##CAS REGISTRY NO=79-10-7
##MOLFORM=C 3 H 4 O 2
##XUNITS=1/CM
##YUNITS=ABSORBANCE
##XFACTOR=1.0
##YFACTOR=0.000050055
##DELTAX=4.0
##FIRSTX=450.0
##LASTX=3966.0
##FIRSTY=0.015968
##MAXX=3966
##MINX=450
##MAXY=0.50055
##MINY=0
##NPOINTS=880
##XYDATA=(X++(Y..Y))
450.0 319 323 274 392 591 843 771 255 384 416
490.0 477 537 433 221 209 463 366 278 524 239
530.0 607 506 496 800 884 1037 994 1154 1370 1668
570.0 1922 2404 2753 2394 2279 2028 2047 1782 1576 1695
610.0 1585 2285 1874 1562 1233 1212 1085 867 772 605
650.0 360 381 207 224 444 214 264 112 308 206
690.0 319 290 199 209 214 193 91 130 219 209
730.0 137 197 131 88 403 285 113 183 291 274
770.0 227 368 461 541 715 761 831 801 975 1406
810.0 1759 1915 1473 1174 1104 1079 1035 843 687 602
850.0 381 355 367 245 248 156 390 279 199 147
890.0 257 238 234 276 269 239 269 334 381 354
930.0 336 368 460 504 615 681 846 936 1115 1557
970.0 1730 1646 1490 1477 2171 1992 1768 1445 1549 1684
1010.0 1869 1907 1720 1457 1399 1567 1719 1566 1372 1263
1050.0 1136 1145 1077 1109 1104 1055 1030 931 776 772
1090.0 796 878 873 1021 1528 1979 2871 4037 5014 6060
1130.0 6166 6411 6967 6323 6723 6748 5370 3837 3107 2834
1170.0 3005 3397 3771 4117 3994 3681 3635 3507 3205 2740
1210.0 2242 1760 1321 1094 916 767 738 576 533 571
1250.0 615 696 727 823 877 834 773 714 683 661
1290.0 700 800 862 895 908 1002 1038 1059 1067 1087
1330.0 1118 1218 1183 1068 968 844 801 762 684 620
1370.0 544 527 524 596 719 900 1267 1652 2003 2140
1410.0 2227 2252 2211 2147 2086 1752 1491 1055 830 693
1450.0 580 515 564 440 510 411 433 348 269 260
1490.0 226 224 194 215 234 209 216 210 197 210
1530.0 151 210 163 267 197 176 225 184 248 168
1570.0 187 249 186 254 210 257 284 329 368 419
1610.0 506 498 643 629 684 695 724 753 788 668
1650.0 648 544 467 426 403 400 369 340 266 338
1690.0 241 273 333 362 430 436 581 702 817 1040
1730.0 1283 1785 2415 3198 4363 5732 7208 8617 9104 8990
1770.0 8137 7426 8918 10000 8155 5907 3832 2650 1904 1318
1810.0 945 642 449 345 295 243 229 206 202 201
1850.0 183 200 165 194 187 182 199 166 185 158
1890.0 175 178 170 167 170 163 183 180 218 211
1930.0 227 247 235 262 256 260 236 225 202 199
1970.0 188 180 157 148 133 129 136 135 135 124
2010.0 121 126 127 133 130 133 129 132 132 134
2050.0 128 131 122 122 119 120 118 105 99 106
2090.0 100 109 103 101 104 100 104 106 96 103
2130.0 103 107 95 93 93 98 102 97 95 94
2170.0 97 102 99 107 103 103 108 111 110 106
2210.0 111 120 112 118 116 108 122 120 120 123
2250.0 126 117 115 120 118 112 114 101 98 94
2290.0 73 60 38 34 40 2 28 2 2 10
2330.0 17 29 10 47 4 67 0 11 1 2
2370.0 5 2 52 52 83 106 99 108 112 110
2410.0 104 110 121 112 111 114 114 126 120 127
2450.0 126 127 128 129 125 132 130 123 125 127
2490.0 127 130 124 119 123 123 122 125 118 117
2530.0 114 113 117 122 119 120 117 118 119 121
2570.0 116 116 134 124 124 113 115 129 123 122
2610.0 124 123 124 115 119 116 106 117 111 117
2650.0 112 108 118 114 112 115 118 119 114 106
2690.0 116 111 118 110 112 110 114 111 113 112
2730.0 112 106 112 107 112 115 97 108 101 108
2770.0 104 100 94 92 97 105 102 92 99 97
2810.0 97 101 105 100 103 110 104 109 107 113
2850.0 117 110 107 115 120 130 125 142 133 135
2890.0 149 144 163 163 158 163 173 179 174 183
2930.0 184 187 194 199 198 201 197 202 222 228
2970.0 233 225 232 241 238 235 222 217 220 219
3010.0 213 223 223 212 196 201 210 223 220 229
3050.0 221 226 221 205 186 193 185 173 167 175
3090.0 178 184 194 223 236 228 218 221 207 204
3130.0 201 173 145 133 117 119 106 103 106 104
3170.0 105 99 107 105 95 98 101 97 97 86
3210.0 104 95 96 101 92 104 94 92 85 79
3250.0 86 81 84 95 72 84 78 76 80 76
3290.0 82 85 81 95 80 93 83 78 85 62
3330.0 63 76 75 76 71 65 56 69 53 69
3370.0 79 58 64 73 62 78 63 59 59 53
3410.0 67 61 74 76 72 67 73 53 57 60
3450.0 68 62 44 73 54 75 70 81 86 74
3490.0 75 89 91 120 115 130 126 127 142 141
3530.0 141 149 119 166 135 169 237 357 691 1189
3570.0 1923 2484 2481 2660 2658 2369 2241 2476 1945 1381
3610.0 862 403 261 198 67 140 75 76 15 109
3650.0 38 156 19 128 30 109 89 93 103 18
3690.0 158 35 123 63 84 98 83 44 103 75
3730.0 91 99 63 140 28 208 2 136 15 59
3770.0 97 61 64 58 46 69 39 121 18 188
3810.0 4 135 48 141 19 68 51 138 87 63
3850.0 66 119 136 63 128 53 79 85 84 70
3890.0 160 43 91 105 144 69 62 82 49 96
3930.0 85 118 82 60 117 67 43 71 81 107
##END=
