##TITLE=Acetic acid, methyl ester
##JCAMP-DX=4.24
##DATA TYPE=INFRARED SPECTRUM
##ORIGIN=Sadtler Research Labs Under US-EPA Contract
##OWNER=NIST Standard Reference Data Program
##CAS REGISTRY NO=79-20-9
##MOLFORM=C 3 H 6 O 2
##XUNITS=1/CM
##YUNITS=ABSORBANCE
##XFACTOR=1.0
##YFACTOR=0.000132617
##DELTAX=4.0
##FIRSTX=450.0
##LASTX=3966.0
##FIRSTY=0.000000
##MAXX=3966
##MINX=450
##MAXY=1.32617
##MINY=0
##NPOINTS=880
##XYDATA=(X++(Y..Y))
450.0 0 389 445 467 399 438 379 494 355 421
490.0 418 451 446 435 473 394 481 421 448 387
530.0 441 369 444 490 441 473 407 481 434 459
570.0 424 467 458 460 505 468 519 532 614 636
610.0 642 594 610 687 705 735 599 782 612 638
650.0 603 584 491 417 408 381 390 362 385 366
690.0 391 369 375 374 367 395 365 377 366 392
730.0 363 374 373 357 377 358 383 351 378 365
770.0 376 368 372 385 351 407 407 439 441 499
810.0 539 623 732 861 991 1054 1052 998 1005 1084
850.0 1183 1096 922 742 596 526 467 442 386 387
890.0 371 362 359 358 362 349 362 347 356 348
930.0 363 358 353 372 371 386 388 412 426 442
970.0 455 469 478 489 517 528 561 577 612 649
1010.0 733 849 974 1150 1294 1618 1895 2073 2231 2465
1050.0 2542 2576 2540 2466 2282 2068 1773 1471 1269 1074
1090.0 971 876 820 752 714 674 628 609 565 552
1130.0 513 510 488 477 467 454 448 437 449 442
1170.0 451 458 491 519 560 640 740 911 1142 1515
1210.0 2022 2793 3823 5164 6644 8151 9226 9708 9895 10000
1250.0 9765 8860 8672 6795 4687 3145 2296 1968 1720 1521
1290.0 1375 1101 867 698 617 574 558 549 539 539
1330.0 553 569 625 676 750 919 1168 1506 1809 1917
1370.0 2012 2184 2069 2120 2166 1753 1291 946 768 678
1410.0 684 696 824 948 1117 1272 1359 1525 1436 1489
1450.0 1731 1588 1301 1031 893 844 859 837 777 768
1490.0 749 683 660 613 632 636 583 587 607 560
1530.0 557 534 558 568 556 517 527 552 529 480
1570.0 489 475 477 453 438 446 441 450 445 457
1610.0 449 457 477 458 473 452 480 479 459 483
1650.0 509 541 505 496 512 520 529 515 527 552
1690.0 502 495 533 546 527 542 612 723 777 912
1730.0 1173 1573 2047 2666 3651 4865 6343 7354 7439 5901
1770.0 5183 6630 8612 7630 5658 4021 2831 2040 1475 1021
1810.0 734 566 468 433 414 407 391 381 393 404
1850.0 394 383 396 401 422 435 427 427 437 439
1890.0 444 440 433 427 419 413 404 403 397 384
1930.0 376 377 378 380 382 374 375 374 377 376
1970.0 374 372 371 373 367 381 379 381 381 385
2010.0 387 394 395 392 400 394 401 405 415 427
2050.0 439 463 476 496 505 523 525 533 527 527
2090.0 517 498 475 442 423 406 402 391 389 380
2130.0 372 366 361 362 358 361 355 357 356 360
2170.0 358 355 365 364 365 366 373 370 377 377
2210.0 377 378 375 373 370 369 365 362 359 362
2250.0 366 362 363 363 372 369 374 373 373 378
2290.0 382 384 385 388 396 406 403 421 420 407
2330.0 416 389 385 380 362 393 454 433 396 344
2370.0 346 346 346 346 346 348 352 360 365 365
2410.0 365 364 365 360 362 357 357 356 360 361
2450.0 362 366 366 374 374 377 375 377 377 377
2490.0 375 372 375 365 365 359 362 357 352 355
2530.0 349 349 350 355 352 352 351 353 356 353
2570.0 349 350 359 359 362 365 366 370 370 368
2610.0 368 377 377 381 374 374 376 365 364 371
2650.0 379 379 385 384 383 378 374 367 370 368
2690.0 366 371 367 365 361 358 360 362 362 358
2730.0 367 364 366 363 367 366 365 366 367 361
2770.0 359 366 361 364 370 376 375 386 385 387
2810.0 396 401 413 417 426 448 473 511 544 569
2850.0 560 582 579 588 607 571 530 503 500 506
2890.0 531 548 567 591 622 652 663 669 691 712
2930.0 728 788 882 1026 1201 1371 1471 1425 1542 1529
2970.0 1431 1486 1400 1213 1032 916 885 917 1041 1016
3010.0 896 937 923 935 887 852 823 804 791 746
3050.0 690 632 605 574 564 556 540 533 520 510
3090.0 487 483 467 464 446 440 423 420 419 421
3130.0 414 402 400 381 374 378 373 375 366 373
3170.0 358 358 366 360 356 361 365 353 358 350
3210.0 353 348 355 351 348 354 356 356 354 358
3250.0 356 364 355 364 363 349 355 357 364 354
3290.0 367 359 360 353 357 351 352 356 351 359
3330.0 359 356 357 363 353 356 346 352 366 350
3370.0 368 360 364 359 359 354 355 359 355 365
3410.0 354 360 355 362 358 356 359 357 353 357
3450.0 365 365 361 365 366 369 366 365 373 377
3490.0 372 405 400 417 442 427 431 418 426 433
3530.0 458 433 415 405 377 370 371 365 357 372
3570.0 370 366 350 368 374 373 380 348 371 355
3610.0 373 367 390 375 374 396 368 363 361 376
3650.0 372 375 385 377 387 372 377 383 372 368
3690.0 376 377 374 369 368 368 381 380 381 391
3730.0 380 392 354 364 389 366 375 368 352 356
3770.0 358 360 349 372 373 369 371 370 363 364
3810.0 370 348 358 357 377 355 365 377 377 373
3850.0 384 386 365 361 358 371 357 354 362 397
3890.0 392 390 378 372 399 370 365 374 392 377
3930.0 378 373 368 387 393 382 401 370 374 407
##END=
