##TITLE=Ethane, nitro-
##JCAMP-DX=4.24
##DATA TYPE=INFRARED SPECTRUM
##ORIGIN=Sadtler Research Labs Under US-EPA Contract
##OWNER=NIST Standard Reference Data Program
##CAS REGISTRY NO=79-24-3
##MOLFORM=C 2 H 5 N O 2
##XUNITS=1/CM
##YUNITS=ABSORBANCE
##XFACTOR=1.0
##YFACTOR=0.000195413
##DELTAX=4.0
##FIRSTX=450.0
##LASTX=3966.0
##FIRSTY=0.000000
##MAXX=3966
##MINX=450
##MAXY=1.95413
##MINY=0
##NPOINTS=880
##XYDATA=(X++(Y..Y))
450.0 0 114 141 189 146 180 136 201 162 220
490.0 197 213 176 173 228 190 193 187 202 157
530.0 205 198 186 114 177 203 186 263 207 213
570.0 201 255 256 294 329 373 421 419 537 547
610.0 567 599 622 626 576 588 485 447 352 317
650.0 274 292 282 239 224 217 195 186 204 195
690.0 201 192 208 189 184 194 174 184 163 171
730.0 150 153 148 152 142 145 144 139 149 141
770.0 149 140 150 142 158 132 161 174 175 191
810.0 191 196 193 206 204 213 233 249 271 314
850.0 408 517 645 760 753 761 894 835 727 816
890.0 693 517 328 240 198 166 163 149 148 130
930.0 137 130 128 128 128 128 126 136 127 141
970.0 140 164 170 189 190 194 222 205 210 222
1010.0 217 191 177 168 167 168 163 166 159 163
1050.0 160 173 173 185 195 215 244 266 317 349
1090.0 401 443 515 558 576 609 633 628 605 593
1130.0 553 522 467 431 394 354 328 299 292 273
1170.0 265 244 235 227 212 204 196 198 189 202
1210.0 201 214 224 242 258 272 296 306 324 329
1250.0 347 357 371 379 384 372 357 360 352 368
1290.0 375 394 402 428 447 467 502 532 559 563
1330.0 617 701 843 1016 1247 1488 1692 1844 1960 2178
1370.0 2147 2188 2522 2643 2486 2243 2200 2176 2075 2222
1410.0 2245 1853 1371 1017 888 861 900 915 913 955
1450.0 1008 1017 1062 1018 934 918 897 767 733 679
1490.0 638 561 526 497 506 549 585 694 854 1074
1530.0 1377 1819 2417 3201 4239 5495 7110 8364 9775 9591
1570.0 9172 8025 8131 9513 10000 9276 7184 5303 3767 2719
1610.0 1911 1299 864 573 417 316 282 256 232 223
1650.0 231 217 196 186 188 184 192 173 185 187
1690.0 167 164 179 173 162 146 151 163 140 128
1730.0 137 147 133 126 136 138 131 132 131 127
1770.0 135 137 125 127 124 128 131 125 132 119
1810.0 122 122 120 121 127 126 122 117 124 129
1850.0 120 119 119 117 124 127 120 117 119 116
1890.0 119 116 117 114 115 116 117 119 121 118
1930.0 115 119 118 123 121 119 122 122 121 124
1970.0 123 121 124 121 123 125 126 124 124 123
2010.0 122 125 127 130 125 129 128 131 129 131
2050.0 134 133 133 129 132 126 125 123 122 121
2090.0 119 118 116 117 115 115 117 111 114 112
2130.0 116 113 114 115 116 113 111 115 113 115
2170.0 114 115 114 113 113 116 116 118 118 117
2210.0 121 122 120 119 119 121 120 123 123 125
2250.0 124 127 125 126 126 129 129 131 133 134
2290.0 141 143 150 155 161 168 167 168 167 167
2330.0 162 157 154 150 156 163 180 163 170 143
2370.0 139 133 135 132 133 135 133 137 138 144
2410.0 144 149 150 158 160 161 166 163 166 166
2450.0 170 171 168 157 153 149 143 142 138 136
2490.0 133 133 130 131 129 127 128 124 126 122
2530.0 127 127 126 128 127 131 129 131 129 131
2570.0 129 132 133 135 130 125 129 127 127 123
2610.0 124 121 121 118 116 113 112 113 114 114
2650.0 114 115 121 116 116 112 120 125 126 132
2690.0 134 141 147 155 158 164 167 175 174 182
2730.0 184 191 193 198 194 196 190 194 197 189
2770.0 186 175 168 161 159 161 157 159 153 152
2810.0 155 155 153 151 154 157 164 164 169 168
2850.0 176 185 194 202 216 235 253 283 313 347
2890.0 366 395 415 438 469 482 504 514 512 520
2930.0 543 596 694 798 855 838 838 891 825 836
2970.0 866 823 799 809 833 844 869 915 971 917
3010.0 880 839 770 690 616 558 497 453 407 367
3050.0 332 295 276 247 225 201 180 173 160 152
3090.0 152 147 144 141 135 142 140 139 140 132
3130.0 138 140 137 138 142 140 135 133 137 129
3170.0 133 132 129 135 132 134 134 146 135 131
3210.0 139 138 136 138 129 135 123 128 123 127
3250.0 123 122 125 129 121 127 114 122 127 121
3290.0 127 115 120 120 119 119 119 123 119 121
3330.0 115 119 118 118 127 123 121 125 123 125
3370.0 125 126 122 120 126 123 127 125 118 121
3410.0 128 121 119 124 128 129 119 126 121 126
3450.0 129 126 134 125 128 130 132 125 126 127
3490.0 132 123 116 126 124 123 128 133 140 123
3530.0 120 120 122 116 133 119 126 124 120 121
3570.0 124 128 123 118 125 122 124 132 124 140
3610.0 125 118 119 121 128 128 125 128 120 123
3650.0 119 131 132 127 124 126 135 127 121 126
3690.0 128 127 122 138 141 124 137 139 133 135
3730.0 139 133 125 137 143 134 142 138 136 132
3770.0 136 141 130 126 134 127 128 138 142 148
3810.0 143 145 152 133 142 138 126 119 123 129
3850.0 135 139 149 148 134 146 124 132 139 120
3890.0 146 135 111 149 126 135 139 143 129 125
3930.0 151 126 157 149 125 111 142 147 147 153
##END=
