##TITLE=Ethene, tetrabromo-
##JCAMP-DX=4.24
##DATA TYPE=INFRARED SPECTRUM
##ORIGIN=Sadtler Research Labs Under US-EPA Contract
##OWNER=NIST Standard Reference Data Program
##CAS REGISTRY NO=79-28-7
##MOLFORM=C 2 Br 4
##XUNITS=1/CM
##YUNITS=ABSORBANCE
##XFACTOR=1.0
##YFACTOR=0.000073340
##DELTAX=4.0
##FIRSTX=450.0
##LASTX=3966.0
##FIRSTY=0.011954
##MAXX=3966
##MINX=450
##MAXY=0.7334
##MINY=0
##NPOINTS=880
##XYDATA=(X++(Y..Y))
450.0 163 140 230 169 208 278 444 307 278 190
490.0 310 223 162 167 8 110 320 292 490 598
530.0 419 378 134 106 69 154 226 388 467 405
570.0 177 148 168 233 159 450 318 291 91 147
610.0 168 262 310 930 2169 3595 4402 3994 2498 864
650.0 97 72 27 375 363 486 196 197 231 182
690.0 517 488 692 998 1159 1118 840 526 423 258
730.0 676 731 1232 2282 3045 3777 5067 6581 8682 9861
770.0 10000 7851 4947 2423 1218 513 360 191 208 351
810.0 368 360 386 336 242 338 438 617 830 1105
850.0 1294 1297 968 383 58 155 79 152 59 181
890.0 178 274 281 216 196 171 196 231 246 168
930.0 236 287 300 317 260 196 165 183 99 151
970.0 140 152 155 153 133 134 168 139 135 174
1010.0 167 218 261 230 229 199 236 210 200 131
1050.0 130 133 130 93 136 144 149 164 172 139
1090.0 162 150 142 136 170 124 168 143 138 166
1130.0 123 98 105 106 106 115 107 98 122 143
1170.0 117 95 145 90 100 121 90 105 111 92
1210.0 91 104 136 121 111 99 122 91 103 107
1250.0 117 93 134 134 122 140 110 80 117 117
1290.0 103 107 127 91 96 93 78 111 97 119
1330.0 112 97 129 117 123 94 112 96 130 124
1370.0 129 89 119 101 128 123 116 110 109 132
1410.0 126 125 128 143 113 127 95 124 109 121
1450.0 110 108 141 105 113 102 134 99 91 131
1490.0 130 117 108 96 101 151 121 120 129 122
1530.0 81 122 102 109 132 116 100 78 129 97
1570.0 109 87 74 84 72 112 105 100 106 73
1610.0 101 92 105 89 89 87 108 108 91 104
1650.0 94 136 105 102 93 112 85 105 105 119
1690.0 118 99 121 107 122 118 110 123 117 102
1730.0 121 141 108 118 131 131 124 130 128 107
1770.0 130 114 128 121 126 120 103 124 130 96
1810.0 122 94 83 99 108 78 91 103 97 95
1850.0 102 68 85 100 100 92 85 85 90 84
1890.0 102 85 90 100 80 82 77 96 111 100
1930.0 86 85 94 87 86 94 89 100 81 94
1970.0 68 80 93 79 85 79 89 75 70 72
2010.0 97 79 91 71 72 71 75 76 85 88
2050.0 79 74 75 86 78 90 89 69 68 73
2090.0 92 85 78 88 87 84 79 78 66 68
2130.0 86 60 80 76 77 71 86 70 75 87
2170.0 87 73 90 77 76 76 70 77 73 81
2210.0 83 93 71 74 92 72 73 75 75 88
2250.0 73 80 87 77 92 95 95 111 118 137
2290.0 150 173 206 233 257 283 271 265 271 228
2330.0 247 213 249 220 306 291 315 305 253 284
2370.0 214 193 208 215 118 86 60 74 46 67
2410.0 52 50 66 55 44 63 49 47 51 48
2450.0 37 56 78 57 55 36 48 46 59 59
2490.0 66 36 37 67 69 53 46 57 67 43
2530.0 53 60 61 67 46 47 59 45 44 52
2570.0 39 42 48 33 41 37 33 40 55 46
2610.0 44 37 21 41 29 50 40 46 48 50
2650.0 17 51 34 35 47 46 45 52 44 48
2690.0 47 42 31 50 37 46 45 46 30 31
2730.0 58 24 39 11 17 35 46 40 40 47
2770.0 49 47 29 36 43 17 35 46 32 32
2810.0 37 42 47 31 51 29 23 45 51 32
2850.0 36 48 31 44 56 50 61 52 16 61
2890.0 60 32 60 28 55 37 20 57 46 75
2930.0 56 74 65 72 74 86 47 71 43 33
2970.0 53 65 13 49 62 49 50 61 27 31
3010.0 48 53 33 31 32 20 21 57 23 30
3050.0 28 76 61 47 46 23 38 47 69 37
3090.0 61 48 49 16 28 28 28 42 37 44
3130.0 46 46 48 49 48 48 52 32 49 63
3170.0 46 60 58 64 40 42 49 50 65 61
3210.0 58 22 50 38 34 41 37 65 46 27
3250.0 61 41 60 48 21 53 45 55 32 44
3290.0 12 20 52 43 52 40 57 48 36 67
3330.0 74 52 28 35 43 43 39 19 42 71
3370.0 28 69 74 13 20 31 42 48 69 58
3410.0 46 13 75 59 42 55 15 8 56 39
3450.0 76 82 59 70 64 56 50 78 65 34
3490.0 29 25 74 86 27 35 53 29 76 74
3530.0 63 72 50 71 85 89 9 47 75 71
3570.0 114 51 79 90 33 83 117 72 29 41
3610.0 64 99 33 86 68 104 26 64 57 75
3650.0 67 72 60 85 63 99 81 37 64 36
3690.0 71 56 48 76 67 47 66 75 59 103
3730.0 49 98 108 82 99 91 42 44 80 46
3770.0 30 59 43 37 59 36 36 38 8 40
3810.0 53 108 53 80 30 56 64 114 60 34
3850.0 42 73 71 15 34 22 111 103 69 81
3890.0 48 33 51 81 82 77 65 58 48 29
3930.0 84 77 90 75 92 91 0 6 6 6
##END=
