##TITLE=Ethane, 1,1,2,2-tetrabromo-
##JCAMP-DX=4.24
##DATA TYPE=INFRARED SPECTRUM
##ORIGIN=Sadtler Research Labs Under US-EPA Contract
##OWNER=NIST Standard Reference Data Program
##CAS REGISTRY NO=79-27-6
##MOLFORM=C 2 H 2 Br 4
##XUNITS=1/CM
##YUNITS=ABSORBANCE
##XFACTOR=1.0
##YFACTOR=0.000092239
##DELTAX=4.0
##FIRSTX=450.0
##LASTX=3966.0
##FIRSTY=0.184479
##MAXX=3966
##MINX=450
##MAXY=0.92239
##MINY=0
##NPOINTS=880
##XYDATA=(X++(Y..Y))
450.0 2000 1929 898 365 261 122 18 194 147 278
490.0 81 191 267 133 109 162 0 166 329 559
530.0 927 1199 1620 1307 939 684 362 225 273 244
570.0 274 383 629 1334 2144 2737 2378 1446 1065 1948
610.0 3268 5710 7864 8939 6322 3688 2741 4007 5511 5975
650.0 4832 2438 869 542 581 623 492 400 373 626
690.0 1155 2292 4150 6457 8868 9701 10000 9132 8222 5818
730.0 3530 1775 726 260 226 297 413 536 674 812
770.0 656 441 404 293 220 191 188 178 207 165
810.0 196 183 263 332 400 537 615 627 520 348
850.0 174 146 131 161 126 135 127 100 107 107
890.0 128 109 138 124 131 105 107 99 103 104
930.0 111 116 108 128 102 97 85 86 81 86
970.0 105 109 132 135 184 204 257 319 436 567
1010.0 675 607 388 214 115 101 95 104 95 111
1050.0 118 129 141 145 146 132 131 117 130 133
1090.0 146 170 206 245 286 323 347 405 583 1184
1130.0 2851 5429 7424 7140 4795 3242 2739 2003 1238 680
1170.0 394 277 262 232 224 241 307 369 344 310
1210.0 228 199 171 175 189 269 461 976 1948 2961
1250.0 3167 2518 1627 914 542 295 189 161 157 157
1290.0 160 175 170 176 155 148 113 114 99 99
1330.0 92 92 88 88 98 105 123 124 126 113
1370.0 101 90 83 90 85 93 85 84 69 77
1410.0 73 70 72 74 77 70 78 69 75 68
1450.0 75 65 69 80 74 65 71 70 59 62
1490.0 55 70 60 65 52 51 63 56 72 72
1530.0 89 86 91 82 88 81 73 87 82 79
1570.0 65 72 64 73 57 69 65 66 66 58
1610.0 71 65 78 69 76 66 71 65 68 62
1650.0 64 77 64 72 64 68 72 70 62 77
1690.0 70 65 71 75 81 72 82 64 83 68
1730.0 69 61 71 65 63 62 63 72 63 70
1770.0 65 73 66 70 64 65 56 58 64 64
1810.0 68 62 68 63 63 57 56 62 59 62
1850.0 58 73 71 74 70 79 74 73 73 52
1890.0 58 63 71 66 70 75 68 69 57 66
1930.0 56 62 57 70 63 77 68 76 74 72
1970.0 70 59 62 53 50 47 51 53 54 56
2010.0 57 59 49 57 49 53 47 51 45 47
2050.0 47 50 49 50 53 51 48 45 52 48
2090.0 53 51 52 51 51 53 50 53 48 48
2130.0 50 58 59 59 59 54 58 55 55 55
2170.0 59 53 52 54 52 52 51 48 48 53
2210.0 49 51 52 51 49 54 60 61 74 78
2250.0 90 87 103 110 120 119 111 98 82 68
2290.0 62 57 52 58 50 31 38 48 74 90
2330.0 125 124 138 115 75 46 50 58 61 53
2370.0 58 71 53 55 55 69 70 71 64 68
2410.0 75 87 100 107 101 93 92 91 91 88
2450.0 65 55 43 48 42 45 32 36 35 45
2490.0 36 40 35 37 27 31 26 24 25 29
2530.0 27 29 28 32 24 34 30 36 26 30
2570.0 25 30 30 30 24 23 31 27 26 24
2610.0 28 31 28 30 30 33 23 33 28 35
2650.0 32 39 30 31 24 25 25 30 32 24
2690.0 36 28 34 20 27 20 24 17 17 23
2730.0 17 17 20 21 20 20 19 12 20 11
2770.0 15 6 17 6 15 5 12 15 21 19
2810.0 15 15 20 21 17 18 21 26 31 33
2850.0 23 23 27 26 34 17 31 32 33 32
2890.0 31 34 35 31 32 34 27 38 34 43
2930.0 43 36 43 37 51 40 50 49 60 57
2970.0 54 54 57 71 69 135 236 581 1006 1300
3010.0 1148 693 402 364 489 487 230 144 48 49
3050.0 44 48 43 41 44 35 46 47 58 51
3090.0 36 47 38 44 32 55 45 44 40 35
3130.0 31 29 28 25 29 31 31 24 25 33
3170.0 26 33 20 24 23 29 16 25 33 30
3210.0 26 33 18 29 30 25 27 16 38 17
3250.0 21 31 30 25 27 18 24 26 34 26
3290.0 23 25 31 24 34 21 24 32 37 20
3330.0 33 29 36 12 36 16 18 20 18 19
3370.0 35 38 32 38 39 13 23 25 40 32
3410.0 25 24 15 24 38 35 27 25 41 28
3450.0 30 37 33 38 31 28 25 25 32 25
3490.0 38 27 35 23 33 24 30 26 9 20
3530.0 31 35 23 36 41 26 31 44 27 21
3570.0 23 21 10 5 35 30 33 29 29 34
3610.0 20 38 28 32 19 37 11 29 14 30
3650.0 24 39 21 38 13 51 51 24 31 35
3690.0 49 59 48 53 69 81 44 101 88 76
3730.0 60 53 16 24 26 14 38 38 45 61
3770.0 31 30 27 51 20 17 21 51 37 40
3810.0 5 29 6 8 74 7 16 5 46 1
3850.0 32 13 34 12 27 7 6 21 4 43
3890.0 47 27 43 7 23 57 53 4 47 7
3930.0 44 12 14 25 11 25 28 26 20 32
##END=
