##TITLE=Propanoic acid, 2-methyl-
##JCAMP-DX=4.24
##DATA TYPE=INFRARED SPECTRUM
##ORIGIN=Sadtler Research Labs Under US-EPA Contract
##OWNER=NIST Standard Reference Data Program
##CAS REGISTRY NO=79-31-2
##MOLFORM=C 4 H 8 O 2
##XUNITS=1/CM
##YUNITS=ABSORBANCE
##XFACTOR=1.0
##YFACTOR=0.000064529
##DELTAX=4.0
##FIRSTX=450.0
##LASTX=3966.0
##FIRSTY=0.005808
##MAXX=3966
##MINX=450
##MAXY=0.64529
##MINY=0
##NPOINTS=880
##XYDATA=(X++(Y..Y))
450.0 90 77 110 163 227 306 410 481 530 588
490.0 722 617 671 685 583 517 508 579 629 697
530.0 825 878 953 1039 1147 1323 1511 1700 1862 2086
570.0 2317 2535 2635 2646 2686 2543 2417 2221 1970 1807
610.0 1510 1314 1107 891 699 539 405 318 242 194
650.0 171 134 122 96 95 72 59 58 51 66
690.0 63 90 100 139 153 188 223 269 310 370
730.0 436 512 577 642 696 689 707 746 755 751
770.0 727 726 747 629 515 407 375 287 214 156
810.0 101 76 59 46 13 36 29 14 14 9
850.0 5 12 12 1 14 12 14 21 37 53
890.0 69 85 92 101 106 108 103 99 90 77
930.0 70 69 69 60 68 61 60 58 56 69
970.0 74 72 85 85 91 92 100 100 115 142
1010.0 181 236 323 462 604 759 922 1107 1256 1328
1050.0 1383 1423 1471 1556 1720 1997 2406 2911 3485 4026
1090.0 4590 5146 5445 5697 5820 5464 5053 4751 4550 4365
1130.0 4208 4060 3884 3688 3358 2972 2624 2272 2034 1940
1170.0 1954 1985 1970 1931 1935 1829 1582 1379 1128 876
1210.0 672 523 431 363 321 304 283 275 259 256
1250.0 263 272 278 294 310 321 334 349 357 377
1290.0 401 434 456 483 504 530 527 529 510 500
1330.0 495 511 553 593 635 673 717 744 757 756
1370.0 762 798 843 879 931 968 1055 1013 925 895
1410.0 810 650 509 368 314 293 318 350 377 429
1450.0 502 608 716 808 898 957 981 1019 868 774
1490.0 677 509 365 248 185 158 122 112 106 87
1530.0 81 76 74 77 70 57 44 53 51 33
1570.0 32 29 32 27 20 17 14 25 20 17
1610.0 20 20 29 19 33 28 30 40 42 38
1650.0 57 59 67 65 75 80 90 88 101 115
1690.0 123 128 165 189 224 271 358 481 625 801
1730.0 1000 1223 1478 1827 2348 3135 4301 5644 6924 7798
1770.0 8406 9451 10000 9275 8718 7953 6239 4399 2905 1924
1810.0 1345 968 686 486 349 260 198 158 127 107
1850.0 99 89 83 82 78 82 77 75 67 64
1890.0 67 63 47 46 38 32 33 33 28 24
1930.0 23 23 20 28 22 23 18 17 17 18
1970.0 17 9 7 10 10 13 7 10 9 19
2010.0 17 13 12 11 10 18 19 20 20 20
2050.0 14 19 20 20 19 20 20 20 21 20
2090.0 22 18 13 13 14 5 5 7 7 7
2130.0 7 7 5 6 5 5 9 10 9 11
2170.0 10 19 17 26 33 32 32 32 32 33
2210.0 29 35 30 29 29 30 29 29 29 27
2250.0 20 20 18 18 19 17 19 15 17 8
2290.0 8 9 8 8 8 0 0 0 0 0
2330.0 0 0 1 8 17 9 0 3 20 18
2370.0 30 24 34 34 26 18 18 12 12 12
2410.0 4 13 13 10 12 10 13 10 13 15
2450.0 15 15 15 16 16 16 16 16 25 25
2490.0 25 25 25 27 27 26 27 27 27 28
2530.0 30 33 38 37 36 38 37 37 31 31
2570.0 30 31 24 25 25 25 22 22 25 25
2610.0 27 26 27 34 34 34 44 37 43 44
2650.0 44 44 44 44 46 52 46 46 39 31
2690.0 34 32 33 37 31 37 40 41 41 50
2730.0 58 58 59 59 66 74 74 70 76 73
2770.0 67 75 68 76 77 76 78 78 80 85
2810.0 86 94 100 107 110 118 125 133 134 143
2850.0 150 175 199 228 274 359 466 585 675 762
2890.0 834 858 859 866 867 868 886 908 952 1021
2930.0 1085 1155 1234 1320 1400 1416 1441 1509 1618 1840
2970.0 2170 2522 2854 3225 3390 3261 2973 2480 1992 1512
3010.0 1063 720 493 356 268 228 189 165 152 149
3050.0 141 136 135 135 135 129 128 128 134 129
3090.0 138 138 138 140 131 132 132 134 132 134
3130.0 134 134 134 139 134 128 136 136 136 136
3170.0 137 152 152 153 143 150 142 139 138 147
3210.0 141 132 126 126 109 110 117 110 95 105
3250.0 105 106 107 90 83 90 83 85 91 75
3290.0 74 81 90 90 77 88 79 79 73 72
3330.0 73 73 83 65 70 66 67 72 69 68
3370.0 70 69 54 62 62 63 61 55 64 65
3410.0 63 63 64 54 63 59 51 57 50 57
3450.0 57 58 61 54 59 60 65 43 58 66
3490.0 61 62 75 72 83 92 100 109 122 116
3530.0 147 168 176 179 181 235 396 719 1298 1917
3570.0 2232 2232 3057 2509 2305 2257 1684 949 495 257
3610.0 142 105 69 64 64 44 54 75 64 55
3650.0 23 41 62 65 59 34 16 42 49 54
3690.0 19 39 51 33 46 43 26 52 31 10
3730.0 30 4 11 26 20 0 48 45 59 62
3770.0 47 54 50 44 45 49 59 59 44 53
3810.0 54 57 22 34 38 54 46 33 30 63
3850.0 45 18 55 56 48 53 47 65 45 50
3890.0 44 58 46 24 29 63 41 41 48 51
3930.0 56 49 54 52 48 54 71 72 67 59
##END=
