##TITLE=Ethane, 1,1,2,2-tetrachloro-
##JCAMP-DX=4.24
##DATA TYPE=INFRARED SPECTRUM
##ORIGIN=Sadtler Research Labs Under US-EPA Contract
##OWNER=NIST Standard Reference Data Program
##CAS REGISTRY NO=79-34-5
##MOLFORM=C 2 H 2 Cl 4
##XUNITS=1/CM
##YUNITS=ABSORBANCE
##XFACTOR=1.0
##YFACTOR=0.000090021
##DELTAX=4.0
##FIRSTX=450.0
##LASTX=3966.0
##FIRSTY=0.014763
##MAXX=3966
##MINX=450
##MAXY=0.90021
##MINY=0
##NPOINTS=880
##XYDATA=(X++(Y..Y))
450.0 164 155 201 224 216 226 222 204 190 167
490.0 171 137 142 165 183 224 235 271 338 487
530.0 711 1169 1644 2051 2170 1860 1271 682 144 74
570.0 7 79 94 90 123 115 87 119 135 131
610.0 103 108 123 149 210 336 534 795 1238 1672
650.0 2067 2252 1693 1177 862 195 39 14 62 109
690.0 192 317 523 899 1521 2457 3561 4431 5063 5586
730.0 6213 6887 8215 9355 10000 9621 9424 8787 8687 7986
770.0 6637 5044 3436 2820 3516 5031 6860 8482 9062 8997
810.0 8366 6199 4587 3222 1924 945 384 165 124 144
850.0 164 174 142 143 124 136 102 114 109 87
890.0 71 67 57 67 84 95 63 56 58 46
930.0 36 42 37 42 47 42 57 73 107 142
970.0 184 221 227 214 181 169 185 231 336 489
1010.0 646 775 890 853 641 494 331 191 108 75
1050.0 47 34 37 43 51 58 66 89 108 122
1090.0 132 136 130 104 87 88 87 87 79 71
1130.0 68 64 81 88 117 127 154 144 114 128
1170.0 167 240 382 605 943 1274 1907 2550 2818 2673
1210.0 2444 1873 1315 928 472 395 309 255 274 390
1250.0 234 218 167 122 187 415 849 1276 1474 1432
1290.0 1132 789 425 160 64 39 40 41 48 36
1330.0 48 49 42 55 65 75 77 58 55 41
1370.0 39 39 32 47 29 27 15 9 23 35
1410.0 28 46 18 35 18 43 22 65 48 54
1450.0 74 69 98 62 81 46 54 27 36 13
1490.0 24 22 39 15 36 17 14 28 36 42
1530.0 30 54 14 55 21 25 12 27 51 15
1570.0 33 10 43 7 24 15 21 19 34 28
1610.0 23 19 39 25 10 30 9 36 13 30
1650.0 6 64 8 25 19 44 17 40 4 47
1690.0 15 7 11 51 17 16 8 25 20 19
1730.0 16 21 25 39 29 36 43 49 68 64
1770.0 74 95 99 108 122 123 145 127 126 122
1810.0 114 99 102 83 87 70 57 55 25 46
1850.0 31 34 31 26 26 37 24 33 25 26
1890.0 25 16 18 27 20 26 18 24 12 19
1930.0 27 26 29 26 24 28 27 21 29 24
1970.0 25 28 28 27 28 21 35 26 31 32
2010.0 34 32 29 42 39 32 34 27 31 31
2050.0 35 43 36 30 30 33 32 37 37 43
2090.0 42 41 38 31 35 33 32 26 31 26
2130.0 27 32 25 25 26 26 27 28 27 27
2170.0 32 37 25 25 26 20 25 25 23 25
2210.0 26 26 30 30 30 30 24 30 30 28
2250.0 28 28 28 26 25 21 24 22 30 23
2290.0 16 18 21 20 21 25 31 21 28 20
2330.0 22 22 28 35 37 12 25 33 45 18
2370.0 16 27 20 27 39 56 69 81 86 81
2410.0 65 56 59 59 62 78 82 75 68 65
2450.0 53 42 41 36 41 43 53 58 73 86
2490.0 82 74 62 51 41 45 50 51 51 51
2530.0 45 40 25 20 15 14 5 6 6 7
2570.0 11 18 12 12 11 9 5 5 6 6
2610.0 13 10 4 4 4 0 5 11 9 16
2650.0 16 18 17 17 14 9 10 5 9 9
2690.0 21 14 9 16 11 11 16 22 9 15
2730.0 16 10 9 16 13 17 15 15 22 13
2770.0 14 14 15 10 21 15 15 14 11 11
2810.0 7 6 12 14 9 9 15 8 9 4
2850.0 9 8 8 6 9 17 10 16 10 15
2890.0 14 13 9 13 4 15 12 19 15 21
2930.0 11 13 13 19 13 7 14 13 19 12
2970.0 21 25 45 102 240 441 484 673 560 567
3010.0 388 345 239 192 110 47 29 23 17 17
3050.0 23 11 11 23 27 22 19 16 16 16
3090.0 14 22 26 17 10 11 21 15 13 18
3130.0 20 18 17 12 14 14 12 20 20 22
3170.0 26 24 25 17 26 26 17 20 21 27
3210.0 26 15 15 20 16 32 27 24 18 19
3250.0 29 33 8 20 20 35 25 13 30 12
3290.0 27 25 31 13 28 22 24 17 18 18
3330.0 23 34 16 21 22 19 19 25 30 37
3370.0 17 28 21 5 22 40 23 31 22 33
3410.0 29 29 26 14 20 26 15 14 31 21
3450.0 19 22 17 14 28 20 31 26 34 16
3490.0 24 23 23 22 19 30 17 12 8 13
3530.0 34 33 26 10 18 23 28 27 34 50
3570.0 53 67 54 101 77 86 54 47 34 18
3610.0 26 19 16 27 10 41 13 10 19 8
3650.0 42 11 41 11 2 25 18 37 0 6
3690.0 17 16 4 0 6 22 11 1 13 15
3730.0 13 30 25 12 25 7 28 0 5 7
3770.0 11 33 17 19 26 30 28 36 45 38
3810.0 18 14 7 13 0 12 14 7 0 4
3850.0 0 0 0 0 0 4 3 10 0 0
3890.0 0 6 1 2 0 17 7 9 0 0
3930.0 0 0 0 0 0 0 9 9 12 20
##END=
