##TITLE=Propane, 2-nitro-
##JCAMP-DX=4.24
##DATA TYPE=INFRARED SPECTRUM
##ORIGIN=Sadtler Research Labs Under US-EPA Contract
##OWNER=NIST Standard Reference Data Program
##CAS REGISTRY NO=79-46-9
##MOLFORM=C 3 H 7 N O 2
##XUNITS=1/CM
##YUNITS=ABSORBANCE
##XFACTOR=1.0
##YFACTOR=0.000185242
##DELTAX=4.0
##FIRSTX=450.0
##LASTX=3966.0
##FIRSTY=0.095585
##MAXX=3966
##MINX=450
##MAXY=1.85242
##MINY=0
##NPOINTS=880
##XYDATA=(X++(Y..Y))
450.0 516 174 9 40 61 134 59 5 328 284
490.0 96 162 165 177 208 294 353 367 398 448
530.0 421 421 383 337 265 229 201 186 190 186
570.0 178 171 169 177 223 270 247 291 327 340
610.0 334 376 388 396 376 366 347 303 275 251
650.0 183 169 153 147 117 128 139 126 126 135
690.0 134 138 146 151 141 140 144 149 157 159
730.0 162 171 171 162 165 154 154 148 141 138
770.0 134 131 129 126 126 136 143 140 146 154
810.0 169 181 213 272 330 459 651 803 853 902
850.0 1103 881 801 810 627 414 254 208 200 227
890.0 242 258 266 280 271 244 246 221 188 163
930.0 161 162 166 170 164 163 157 153 148 140
970.0 132 127 128 119 118 117 119 114 116 113
1010.0 118 116 113 117 116 121 122 129 126 131
1050.0 132 134 143 146 162 172 202 251 323 413
1090.0 516 619 700 872 941 848 891 884 785 683
1130.0 609 586 551 522 483 456 437 415 387 367
1170.0 362 342 328 322 276 225 213 187 168 157
1210.0 146 151 150 158 161 166 172 178 185 188
1250.0 199 198 209 212 228 243 275 327 399 503
1290.0 629 766 891 1082 1148 1077 1085 1089 1048 936
1330.0 890 997 1283 1575 1885 2229 2432 2669 2864 2579
1370.0 2442 2359 2001 1852 1972 2288 2227 2435 2660 1979
1410.0 1980 1986 1485 952 676 626 661 726 763 847
1450.0 937 1042 1166 1212 1253 1184 1326 1266 1014 947
1490.0 881 704 594 487 492 550 623 802 1040 1343
1530.0 1733 2266 3003 4015 5306 6471 7721 8234 8676 8967
1570.0 10000 9432 8366 8507 7561 6069 4176 2859 1918 1358
1610.0 988 694 519 364 312 248 241 230 196 198
1650.0 210 204 166 157 155 156 171 133 160 161
1690.0 133 111 147 134 117 93 103 129 87 75
1730.0 84 113 79 77 83 88 74 71 68 56
1770.0 75 76 58 61 64 65 70 67 73 59
1810.0 60 62 53 58 58 66 54 46 55 65
1850.0 49 38 43 46 52 60 46 45 44 43
1890.0 45 42 40 38 39 43 44 48 52 45
1930.0 43 45 44 47 43 34 31 35 34 38
1970.0 31 32 33 33 34 44 44 44 50 49
2010.0 54 56 68 66 64 67 68 68 70 71
2050.0 70 68 65 68 66 59 55 47 43 35
2090.0 33 29 25 25 23 24 25 25 22 22
2130.0 21 21 20 23 20 21 23 20 20 20
2170.0 20 20 20 20 25 28 29 29 32 32
2210.0 34 33 33 33 31 30 29 32 30 33
2250.0 34 32 33 32 38 38 42 45 46 40
2290.0 36 39 32 31 24 18 17 5 2 3
2330.0 3 9 17 8 51 21 2 2 8 76
2370.0 108 122 120 108 95 82 82 82 88 90
2410.0 88 93 92 86 85 80 72 67 63 65
2450.0 64 63 66 67 70 70 69 68 70 69
2490.0 66 66 67 67 66 70 68 68 68 69
2530.0 71 72 69 70 71 71 74 74 72 71
2570.0 69 72 73 72 69 71 71 70 70 69
2610.0 65 63 61 58 60 60 58 58 64 61
2650.0 56 58 60 60 63 66 76 88 98 110
2690.0 119 131 143 153 161 158 154 152 146 143
2730.0 136 129 128 134 134 140 139 132 126 120
2770.0 116 109 109 108 103 104 103 107 107 110
2810.0 114 114 121 122 128 130 129 133 139 142
2850.0 149 158 176 206 238 291 344 388 446 501
2890.0 542 570 600 616 632 639 658 689 712 740
2930.0 790 856 940 1017 1074 1104 1117 1117 1037 996
2970.0 983 1006 1145 1391 1627 1760 2114 2322 2036 2241
3010.0 2104 1583 1221 968 740 537 399 291 221 173
3050.0 140 115 104 99 88 86 81 80 76 84
3090.0 85 81 82 74 79 73 80 78 75 71
3130.0 81 75 69 61 65 62 62 68 68 69
3170.0 59 66 68 66 73 68 66 65 65 63
3210.0 60 62 60 59 52 51 43 39 33 32
3250.0 31 25 23 26 21 18 14 12 13 17
3290.0 9 11 12 2 13 14 9 8 14 15
3330.0 20 22 26 36 30 28 30 30 30 33
3370.0 29 29 22 30 27 25 27 13 33 26
3410.0 27 14 24 21 22 30 28 16 27 15
3450.0 20 19 22 17 21 13 14 18 19 18
3490.0 21 14 21 18 16 22 23 14 15 14
3530.0 16 12 14 13 24 26 20 16 18 13
3570.0 18 23 16 12 27 16 25 8 30 22
3610.0 25 18 11 17 16 26 29 21 27 19
3650.0 25 25 21 17 11 21 15 21 15 8
3690.0 7 24 12 19 32 24 23 28 18 25
3730.0 27 17 17 19 18 26 48 15 21 20
3770.0 4 20 14 16 8 7 10 9 11 15
3810.0 17 9 21 26 20 28 13 17 30 14
3850.0 1 26 24 7 18 24 22 29 25 19
3890.0 18 24 19 15 30 20 28 44 27 2
3930.0 2 5 8 0 15 15 15 30 50 30
##END=
