##TITLE=2-Propenoic acid, 2-methyl-
##JCAMP-DX=4.24
##DATA TYPE=INFRARED SPECTRUM
##ORIGIN=Sadtler Research Labs Under US-EPA Contract
##OWNER=NIST Standard Reference Data Program
##CAS REGISTRY NO=79-41-4
##MOLFORM=C 4 H 6 O 2
##XUNITS=1/CM
##YUNITS=ABSORBANCE
##XFACTOR=1.0
##YFACTOR=0.000284042
##DELTAX=4.0
##FIRSTX=450.0
##LASTX=3966.0
##FIRSTY=0.161336
##MAXX=3966
##MINX=450
##MAXY=2.84042
##MINY=0
##NPOINTS=880
##XYDATA=(X++(Y..Y))
450.0 568 531 521 550 551 527 538 509 513 505
490.0 558 633 742 879 984 1125 1247 1367 1470 1486
530.0 1424 1428 1528 1515 1484 1665 1932 2218 2844 3275
570.0 3016 2799 2553 2323 2362 1716 1184 956 796 654
610.0 547 460 438 421 426 430 550 552 513 619
650.0 651 625 593 577 672 676 609 472 391 356
690.0 285 226 155 120 61 53 25 18 11 16
730.0 30 58 135 230 350 426 471 530 550 539
770.0 527 421 264 201 178 229 295 371 427 481
810.0 685 981 879 534 483 445 392 287 195 124
850.0 83 58 47 54 46 54 46 53 53 58
890.0 64 63 68 78 120 164 256 370 501 622
930.0 771 950 1221 1605 1676 1200 977 785 672 525
970.0 377 266 200 193 237 324 447 562 608 568
1010.0 576 600 591 495 362 246 171 135 130 139
1050.0 155 179 213 250 284 329 391 464 575 755
1090.0 1043 1494 2191 3208 4688 6174 7861 8244 8822 8462
1130.0 8661 8645 7555 5791 3921 2700 1944 1506 1213 997
1170.0 823 671 541 452 381 335 316 314 313 306
1210.0 295 281 267 247 224 203 204 228 268 309
1250.0 337 368 367 372 393 375 322 281 251 245
1290.0 247 262 288 321 366 437 522 626 719 822
1330.0 933 1057 1226 1374 1492 1563 1568 1556 1601 1418
1370.0 1335 1181 911 701 627 626 655 740 788 877
1410.0 900 869 992 879 927 818 701 579 621 740
1450.0 760 742 775 781 739 708 610 462 318 245
1490.0 222 142 157 121 151 162 128 126 150 105
1530.0 96 80 92 129 91 64 71 113 87 64
1570.0 87 72 97 96 91 112 133 153 171 222
1610.0 260 316 414 468 576 617 767 805 806 700
1650.0 735 630 508 377 253 210 157 184 205 278
1690.0 272 370 463 568 687 801 968 1061 1147 1230
1730.0 1719 2342 3679 4969 7960 7775 8170 9286 8995 10000
1770.0 7902 7918 4819 3325 1939 1225 788 612 487 418
1810.0 376 381 392 409 339 262 237 200 180 145
1850.0 108 79 87 96 122 158 153 172 178 189
1890.0 189 179 151 133 113 89 67 47 45 17
1930.0 14 9 8 14 11 4 0 4 0 11
1970.0 4 8 5 11 9 22 25 21 28 28
2010.0 33 36 42 36 34 29 21 18 14 13
2050.0 4 5 3 7 9 8 9 7 9 7
2090.0 11 7 11 9 12 12 16 17 14 17
2130.0 14 17 13 14 8 8 7 7 7 5
2170.0 7 4 5 4 5 7 9 11 11 16
2210.0 17 24 28 33 37 42 46 47 47 46
2250.0 45 41 37 29 25 18 17 13 12 11
2290.0 7 8 5 8 5 7 11 13 17 20
2330.0 22 22 32 22 20 32 12 20 17 18
2370.0 20 28 22 25 26 26 26 25 28 26
2410.0 26 26 29 29 29 29 33 34 38 42
2450.0 42 46 49 55 55 58 59 59 59 59
2490.0 59 59 59 59 62 61 59 58 54 53
2530.0 47 45 41 41 38 37 39 38 41 43
2570.0 49 47 49 50 53 51 53 54 53 54
2610.0 54 55 54 54 53 53 51 50 47 43
2650.0 43 41 41 41 43 43 45 49 51 53
2690.0 54 55 54 57 55 55 55 57 55 55
2730.0 57 59 62 64 67 68 70 70 71 72
2770.0 71 72 71 71 70 72 75 75 79 80
2810.0 84 87 92 95 99 103 107 113 118 129
2850.0 141 153 168 185 199 212 225 234 242 243
2890.0 249 251 253 251 251 256 264 285 318 389
2930.0 473 535 551 562 591 608 619 556 520 454
2970.0 595 801 725 734 758 792 822 746 740 677
3010.0 579 492 445 414 376 349 312 291 268 259
3050.0 250 246 235 230 229 217 214 205 200 192
3090.0 201 213 235 259 274 283 280 283 266 258
3130.0 233 203 178 164 160 154 151 147 147 145
3170.0 141 138 135 130 128 129 126 122 118 117
3210.0 116 116 114 109 109 110 109 105 107 107
3250.0 105 103 99 99 95 99 92 88 85 85
3290.0 83 80 82 78 78 72 71 67 68 67
3330.0 67 62 59 61 54 55 54 55 51 55
3370.0 53 50 49 49 49 47 49 47 47 42
3410.0 42 39 37 38 32 30 30 30 25 28
3450.0 28 28 32 30 41 38 46 54 72 76
3490.0 88 96 104 112 114 105 89 75 67 63
3530.0 39 36 38 32 57 66 117 212 466 892
3570.0 1527 2195 2527 2857 2875 2845 2762 2316 1862 1140
3610.0 579 242 108 74 41 70 29 34 25 30
3650.0 55 17 29 4 20 21 34 29 16 26
3690.0 28 25 14 24 17 24 29 13 16 37
3730.0 18 30 34 37 12 50 26 13 20 17
3770.0 17 11 12 18 11 12 13 5 34 5
3810.0 22 3 33 28 16 14 26 21 32 28
3850.0 12 47 28 17 32 29 29 13 37 11
3890.0 37 4 36 28 45 9 24 25 28 30
3930.0 24 34 18 25 17 33 9 25 18 13
##END=
