##TITLE=Acetic acid, dichloro-
##JCAMP-DX=4.24
##DATA TYPE=INFRARED SPECTRUM
##ORIGIN=Sadtler Research Labs Under US-EPA Contract
##OWNER=NIST Standard Reference Data Program
##CAS REGISTRY NO=79-43-6
##MOLFORM=C 2 H 2 Cl 2 O 2
##XUNITS=1/CM
##YUNITS=ABSORBANCE
##XFACTOR=1.0
##YFACTOR=0.000075284
##DELTAX=4.0
##FIRSTX=450.0
##LASTX=3966.0
##FIRSTY=0.028683
##MAXX=3966
##MINX=450
##MAXY=0.75284
##MINY=0
##NPOINTS=880
##XYDATA=(X++(Y..Y))
450.0 381 224 105 191 189 264 348 282 345 414
490.0 511 437 527 586 693 739 866 907 967 1230
530.0 1454 1715 1789 1905 1930 1730 1468 1279 1005 903
570.0 862 880 919 958 1214 1492 1932 2346 2488 4456
610.0 3016 2996 3044 2324 1942 1616 1508 1724 1903 1998
650.0 2235 2167 2098 1917 1991 2193 2694 2981 3665 3998
690.0 4170 3935 3531 2994 2421 1949 1643 1642 1656 1658
730.0 1652 1530 1315 1075 940 904 927 978 1087 1199
770.0 1241 1293 1229 1119 1102 1059 1106 1288 1609 2150
810.0 2802 3412 3792 3908 3789 3366 2790 2064 1396 958
850.0 679 551 451 404 373 372 373 418 480 507
890.0 492 532 546 491 440 365 295 219 156 82
930.0 20 15 5 9 2 10 10 17 26 52
970.0 78 89 104 119 125 117 142 122 125 139
1010.0 131 132 119 127 112 111 106 116 111 113
1050.0 152 163 191 247 317 395 515 649 821 1074
1090.0 1485 2189 3115 4378 5449 6391 7138 7052 6383 5713
1130.0 4753 4185 4167 4410 5162 5144 5454 6152 3801 3452
1170.0 2803 1925 1384 1057 1005 1007 1123 1208 1373 1543
1210.0 1696 1836 1790 1701 1517 1381 1252 1087 945 927
1250.0 861 800 761 718 683 680 682 704 730 779
1290.0 836 897 944 990 1052 1160 1332 1519 1729 1949
1330.0 2206 2273 2192 2123 2019 1931 1821 1659 1607 1546
1370.0 1453 1389 1277 1212 1122 911 713 550 389 259
1410.0 181 129 126 114 108 86 54 40 83 55
1450.0 44 44 65 69 36 52 46 56 39 39
1490.0 36 44 54 43 46 79 62 53 67 56
1530.0 49 29 40 56 61 33 34 36 82 50
1570.0 40 34 62 44 44 48 60 53 61 55
1610.0 58 65 78 87 85 94 110 155 185 208
1650.0 161 172 153 113 120 113 110 134 125 154
1690.0 146 140 161 195 185 205 218 277 326 393
1730.0 479 593 783 932 1136 1354 1683 2064 2655 3351
1770.0 4244 5341 6588 7989 8643 9623 10000 9888 9237 8176
1810.0 7149 6461 5710 5002 4279 3417 2763 2117 1513 1052
1850.0 747 539 396 305 241 198 164 139 116 98
1890.0 85 77 71 65 62 55 48 52 49 47
1930.0 41 38 38 46 45 37 44 36 44 59
1970.0 42 50 45 52 48 52 55 57 66 70
2010.0 73 73 83 88 83 72 73 64 57 60
2050.0 59 52 49 40 25 21 17 14 10 13
2090.0 12 12 8 6 5 6 9 6 6 5
2130.0 2 8 9 14 12 24 25 25 27 23
2170.0 27 30 33 32 37 42 50 63 64 73
2210.0 80 89 95 96 89 87 81 82 82 84
2250.0 87 83 79 77 78 87 102 120 144 173
2290.0 202 258 305 355 410 483 483 493 521 520
2330.0 511 543 546 466 621 570 437 284 186 181
2370.0 149 119 163 170 125 30 2 2 12 45
2410.0 60 70 79 85 91 100 115 115 120 125
2450.0 128 123 117 114 112 119 114 118 116 122
2490.0 122 130 132 136 139 139 142 136 129 127
2530.0 120 112 106 105 110 103 100 92 97 99
2570.0 96 94 98 98 98 106 105 106 106 112
2610.0 105 108 108 112 106 106 97 102 105 104
2650.0 97 100 100 96 86 85 77 80 77 70
2690.0 77 78 77 80 71 69 71 75 69 78
2730.0 80 80 88 80 81 89 79 84 92 82
2770.0 86 96 92 80 81 79 78 87 81 81
2810.0 80 87 92 94 90 94 89 92 90 99
2850.0 97 97 93 107 106 108 115 117 126 133
2890.0 132 123 124 138 140 139 141 151 150 153
2930.0 171 169 168 161 169 157 162 159 163 172
2970.0 169 165 168 181 177 176 174 188 199 215
3010.0 217 223 217 222 230 212 212 194 191 191
3050.0 178 174 160 150 141 149 144 134 144 134
3090.0 129 144 136 134 128 129 132 122 131 112
3130.0 127 123 129 126 115 121 125 133 126 128
3170.0 123 123 126 109 112 116 115 129 136 114
3210.0 125 129 125 119 126 123 132 112 100 118
3250.0 107 96 112 101 110 109 78 80 79 99
3290.0 88 94 77 76 81 89 84 89 90 77
3330.0 71 79 49 58 62 90 67 74 77 60
3370.0 89 85 68 56 79 75 80 85 83 69
3410.0 67 63 77 63 65 61 90 74 94 102
3450.0 99 110 107 94 93 79 94 87 52 82
3490.0 88 103 83 112 133 102 122 141 150 184
3530.0 205 277 320 337 456 525 651 880 1340 2235
3570.0 3548 4675 5472 6041 5876 5229 3825 2483 1387 680
3610.0 396 255 147 71 64 30 0 19 10 15
3650.0 48 53 43 22 43 92 109 90 33 47
3690.0 22 38 7 4 9 32 37 43 31 39
3730.0 14 19 24 50 41 28 12 3 32 2
3770.0 5 4 63 33 43 9 53 75 41 64
3810.0 19 71 24 40 51 100 82 97 101 76
3850.0 50 42 91 56 34 142 107 64 81 2
3890.0 2 30 34 35 55 57 32 48 39 27
3930.0 18 38 41 59 47 3 18 20 48 46
##END=
