##TITLE=Phenol, 4,4'-(1-methylethylidene)bis-
##JCAMP-DX=4.24
##DATA TYPE=INFRARED SPECTRUM
##ORIGIN=Sadtler Research Labs Under US-EPA Contract
##OWNER=NIST Standard Reference Data Program
##CAS REGISTRY NO=80-05-7
##MOLFORM=C 15 H 16 O 2
##XUNITS=1/CM
##YUNITS=ABSORBANCE
##XFACTOR=1.0
##YFACTOR=0.000059198
##DELTAX=4.0
##FIRSTX=450.0
##LASTX=3966.0
##FIRSTY=0.000000
##MAXX=3966
##MINX=450
##MAXY=0.59198
##MINY=0
##NPOINTS=880
##XYDATA=(X++(Y..Y))
450.0 0 72 163 291 289 309 429 512 623 624
490.0 790 960 936 1071 970 762 768 745 628 632
530.0 562 602 571 601 654 802 758 696 590 449
570.0 431 331 292 204 257 220 174 153 75 101
610.0 85 84 61 78 84 96 100 81 77 100
650.0 137 125 205 282 391 536 619 614 779 1249
690.0 1195 614 508 467 424 389 379 389 521 650
730.0 821 960 1130 1489 2206 2315 1555 1205 1145 989
770.0 789 593 441 387 379 521 662 731 944 1085
810.0 1219 1403 1557 1850 2044 2171 2006 1586 1154 827
850.0 563 429 338 347 356 401 490 598 683 720
890.0 759 683 618 539 479 429 371 335 277 253
930.0 189 196 171 171 152 155 135 148 161 134
970.0 144 133 158 162 202 207 225 244 278 353
1010.0 444 508 475 416 398 356 352 339 309 313
1050.0 354 400 463 441 433 442 496 536 543 549
1090.0 534 558 573 628 616 624 601 579 640 778
1130.0 1020 1248 1479 1556 1645 1876 2104 2674 3745 5548
1170.0 7873 9448 10000 8301 6680 5309 4284 3559 3104 2524
1210.0 1912 1514 1304 1249 1273 1399 1647 2024 2490 3081
1250.0 3812 4527 5164 5002 4280 3064 1906 1224 935 818
1290.0 748 709 726 714 763 787 886 996 1219 1410
1330.0 1578 1559 1328 1328 1174 1064 1044 767 623 580
1370.0 595 586 621 654 670 551 418 314 319 347
1410.0 362 471 451 607 608 654 584 593 633 702
1450.0 846 936 1129 1176 1256 1290 1369 1533 1870 2199
1490.0 2325 2551 2706 3478 3743 4901 4939 3615 2619 1247
1530.0 790 513 366 377 323 403 355 384 432 530
1570.0 605 760 1013 1464 1793 2431 2820 3457 3426 3608
1610.0 3475 2771 2258 1647 1223 889 714 557 482 365
1650.0 251 209 187 213 199 178 172 183 180 160
1690.0 215 244 194 180 183 201 148 92 119 149
1730.0 103 61 113 129 135 110 159 149 152 152
1770.0 138 118 156 150 150 142 123 130 90 124
1810.0 117 119 141 135 128 122 143 166 143 134
1850.0 144 154 143 148 126 117 139 139 144 136
1890.0 130 124 131 131 145 143 138 135 125 140
1930.0 163 152 140 111 105 101 93 87 81 64
1970.0 75 82 80 86 92 76 88 92 98 90
2010.0 97 87 82 77 82 83 81 77 77 88
2050.0 87 95 105 105 110 121 119 113 109 104
2090.0 101 99 92 80 68 72 72 66 64 64
2130.0 58 60 63 56 60 56 62 59 63 63
2170.0 65 58 64 65 62 70 70 73 67 72
2210.0 70 73 63 64 67 60 71 73 67 69
2250.0 72 71 71 80 82 89 95 104 108 124
2290.0 137 157 185 194 210 225 222 204 213 186
2330.0 169 166 157 181 200 211 197 179 170 138
2370.0 140 136 158 169 154 122 113 111 126 131
2410.0 133 150 161 177 187 200 202 193 179 165
2450.0 141 129 127 120 115 104 110 109 113 114
2490.0 115 125 130 135 138 146 151 137 135 121
2530.0 112 108 102 99 101 96 100 95 95 98
2570.0 98 99 104 101 106 103 102 112 110 109
2610.0 113 116 110 109 113 112 109 103 108 102
2650.0 105 107 105 101 99 97 99 96 91 95
2690.0 95 97 94 88 88 88 93 94 101 93
2730.0 104 108 112 106 110 104 104 109 105 108
2770.0 109 109 104 112 116 109 105 111 116 108
2810.0 119 113 130 129 131 130 143 149 155 173
2850.0 194 216 256 307 363 420 458 473 481 478
2890.0 467 454 463 468 489 506 553 614 672 754
2930.0 813 857 865 851 800 776 820 924 1075 1283
2970.0 1602 1868 1867 1547 1199 911 689 606 612 681
3010.0 766 849 902 990 1125 1296 1435 1465 1430 1373
3050.0 1310 1285 1282 1269 1223 1214 1179 1141 1174 1220
3090.0 1185 1117 1008 823 662 566 487 397 338 288
3130.0 252 215 186 174 146 140 131 117 114 119
3170.0 121 118 109 113 120 121 111 105 110 112
3210.0 109 107 110 109 112 106 114 101 113 111
3250.0 104 110 99 106 108 107 108 105 104 95
3290.0 100 101 110 105 112 102 105 93 93 106
3330.0 110 128 130 127 122 151 144 139 134 140
3370.0 143 124 138 139 141 126 139 136 119 133
3410.0 115 104 111 115 104 136 111 119 115 108
3450.0 103 94 96 101 105 93 95 103 88 87
3490.0 82 79 69 88 92 93 79 77 77 57
3530.0 99 78 84 88 84 91 127 109 134 133
3570.0 129 151 121 133 119 130 138 115 145 145
3610.0 155 150 199 246 382 511 944 1457 2275 3086
3650.0 3879 3860 3541 2680 1930 1039 579 351 194 195
3690.0 140 165 116 112 94 98 100 114 85 113
3730.0 90 111 100 144 88 86 102 76 109 97
3770.0 112 103 90 110 73 93 119 103 105 95
3810.0 101 93 119 137 89 108 81 83 107 118
3850.0 108 123 112 126 167 182 154 122 160 141
3890.0 130 113 99 105 94 88 122 106 123 161
3930.0 128 148 124 124 126 128 150 144 139 106
##END=
