##TITLE=Benzenesulfonic acid, 4-methyl-, ethyl ester
##JCAMP-DX=4.24
##DATA TYPE=INFRARED SPECTRUM
##ORIGIN=Sadtler Research Labs Under US-EPA Contract
##OWNER=NIST Standard Reference Data Program
##CAS REGISTRY NO=80-40-0
##MOLFORM=C 9 H 12 O 3 S
##XUNITS=1/CM
##YUNITS=ABSORBANCE
##XFACTOR=1.0
##YFACTOR=0.000086606
##DELTAX=4.0
##FIRSTX=450.0
##LASTX=3966.0
##FIRSTY=0.000000
##MAXX=3966
##MINX=450
##MAXY=0.86606
##MINY=0
##NPOINTS=880
##XYDATA=(X++(Y..Y))
450.0 0 365 352 378 84 354 526 109 315 439
490.0 604 578 650 697 324 452 648 293 567 605
530.0 895 808 911 815 1447 2109 2441 2895 3374 3470
570.0 2900 2355 1779 1303 904 690 473 414 448 394
610.0 208 262 416 394 346 307 444 459 574 701
650.0 1000 1500 2037 2507 2772 2778 2540 2414 2419 2450
690.0 2251 1696 1335 906 790 809 749 727 765 883
730.0 1212 1501 2285 2909 3329 3936 4178 3867 3544 3064
770.0 2626 2359 1907 1649 1425 1537 1622 1716 1832 1973
810.0 2360 2562 2362 1869 1354 953 783 666 544 545
850.0 449 377 453 687 720 731 740 917 1089 1465
890.0 1866 2452 3480 4641 5800 6385 6638 6135 5279 4160
930.0 3081 2243 1662 1247 1036 927 819 768 789 727
970.0 760 814 818 945 1122 1405 1830 2394 3198 4030
1010.0 4806 5347 5196 4689 4014 3272 2613 2241 1990 1706
1050.0 1306 1061 926 842 781 763 757 783 872 1055
1090.0 1283 1578 1679 1682 1552 1260 1026 997 1054 1140
1130.0 1075 775 675 702 750 763 832 914 1063 1368
1170.0 1914 3093 5088 7145 9081 10000 9346 7828 5578 3944
1210.0 3123 2625 2137 1722 1371 1141 932 814 695 513
1250.0 463 430 458 376 340 395 479 530 550 456
1290.0 453 512 475 506 518 552 514 458 450 451
1330.0 473 532 598 759 950 1237 1643 2099 2594 3108
1370.0 3494 3868 4269 4601 5055 5174 5006 4429 3466 2619
1410.0 1838 1387 1072 867 757 663 609 591 553 553
1450.0 565 579 539 538 512 529 508 505 520 568
1490.0 658 763 799 718 580 461 379 373 335 320
1530.0 310 289 298 273 284 279 269 293 305 292
1570.0 308 322 339 379 428 498 610 679 770 755
1610.0 670 578 423 355 294 280 279 283 285 308
1650.0 321 301 308 259 266 234 239 220 221 221
1690.0 218 213 209 213 190 200 192 188 197 189
1730.0 207 180 196 192 203 211 207 220 228 221
1770.0 218 217 205 209 213 227 251 255 245 226
1810.0 201 180 171 161 159 160 156 162 155 163
1850.0 152 151 150 160 163 166 169 173 181 182
1890.0 190 198 206 230 247 266 276 273 248 216
1930.0 192 178 168 157 156 147 149 142 143 140
1970.0 140 140 138 139 142 137 135 139 134 134
2010.0 134 132 127 132 134 131 131 130 128 130
2050.0 135 130 131 129 130 130 130 127 131 128
2090.0 127 132 128 128 129 132 130 130 133 129
2130.0 129 126 123 123 122 123 124 123 122 122
2170.0 126 129 129 127 132 134 135 134 132 132
2210.0 128 128 124 123 125 126 123 123 125 122
2250.0 125 125 127 127 132 134 132 143 150 154
2290.0 163 165 174 173 174 169 152 141 150 147
2330.0 143 125 145 131 178 125 147 113 152 164
2370.0 157 144 146 142 137 128 125 124 124 125
2410.0 120 127 120 122 120 109 114 109 113 110
2450.0 111 111 111 111 108 111 111 108 108 105
2490.0 107 101 100 96 100 99 105 103 97 96
2530.0 100 101 100 105 106 111 116 117 116 118
2570.0 122 125 127 119 117 114 116 110 105 101
2610.0 100 97 91 96 91 89 87 81 77 78
2650.0 79 77 74 78 81 83 83 89 89 92
2690.0 92 93 98 101 101 99 97 97 98 104
2730.0 104 109 114 114 123 128 124 117 119 117
2770.0 116 122 126 128 118 118 124 125 122 129
2810.0 129 131 140 143 146 151 158 166 181 199
2850.0 213 239 275 325 374 432 486 540 564 571
2890.0 569 553 551 559 578 621 689 751 811 894
2930.0 1011 1158 1282 1337 1281 1143 989 859 795 782
2970.0 824 875 962 1081 1213 1321 1355 1303 1203 1086
3010.0 972 875 802 764 751 781 813 834 820 770
3050.0 712 651 582 521 492 495 480 423 344 291
3090.0 260 248 239 204 178 159 151 143 137 131
3130.0 119 112 112 106 101 95 102 103 98 102
3170.0 88 89 87 89 89 84 80 86 74 84
3210.0 78 82 80 83 85 84 82 83 83 81
3250.0 91 84 86 84 85 80 89 86 81 82
3290.0 92 93 93 85 90 80 84 84 88 90
3330.0 92 85 90 89 87 84 92 90 91 85
3370.0 91 91 84 83 84 88 99 89 94 94
3410.0 87 92 82 89 90 90 90 105 99 93
3450.0 89 95 87 89 102 95 92 88 89 87
3490.0 95 88 86 91 102 88 94 87 78 86
3530.0 92 100 89 94 84 89 98 93 79 73
3570.0 86 84 94 80 80 85 86 89 90 93
3610.0 87 85 94 96 85 101 75 92 83 90
3650.0 93 106 112 100 106 93 139 101 120 102
3690.0 84 95 85 111 98 87 104 96 112 103
3730.0 101 93 86 123 81 114 106 111 99 101
3770.0 102 96 105 94 93 101 103 114 112 98
3810.0 112 104 107 125 115 124 128 105 84 106
3850.0 89 122 88 119 94 135 110 94 126 121
3890.0 121 92 115 117 133 125 100 109 108 131
3930.0 130 128 110 115 110 101 141 117 120 108
##END=
