##TITLE=Ethanol, 2-chloro-, 4-methylbenzenesulfonate
##JCAMP-DX=4.24
##DATA TYPE=INFRARED SPECTRUM
##ORIGIN=Sadtler Research Labs Under US-EPA Contract
##OWNER=NIST Standard Reference Data Program
##CAS REGISTRY NO=80-41-1
##MOLFORM=C 9 H 11 Cl O 3 S
##XUNITS=1/CM
##YUNITS=ABSORBANCE
##XFACTOR=1.0
##YFACTOR=0.000052686
##DELTAX=4.0
##FIRSTX=450.0
##LASTX=3966.0
##FIRSTY=0.022075
##MAXX=3966
##MINX=450
##MAXY=0.52686
##MINY=0
##NPOINTS=880
##XYDATA=(X++(Y..Y))
450.0 419 418 252 89 10 105 210 248 432 369
490.0 436 335 251 377 269 547 703 696 772 626
530.0 710 638 718 891 1421 2229 2439 2850 2088 1804
570.0 1963 1177 1035 659 551 578 421 373 247 165
610.0 266 234 370 384 479 448 416 405 392 663
650.0 899 1353 1970 2164 2546 1969 1944 2034 1691 2140
690.0 1763 1515 1153 957 865 637 618 626 960 1306
730.0 1707 2461 2916 3453 3220 2720 2406 1846 1799 1622
770.0 1476 1567 1464 1621 1576 1594 1727 1834 2027 2154
810.0 2704 2763 2479 2302 1794 1591 1307 1113 1010 745
850.0 703 607 715 852 957 1187 1351 1564 1577 1603
890.0 1783 1685 1677 1311 1009 789 594 604 491 479
930.0 567 588 810 887 1028 1186 1389 1689 1876 2287
970.0 2572 3009 3173 3079 3376 3228 3327 2980 2646 2820
1010.0 3027 3124 2625 2100 1654 1407 1341 1182 1306 1051
1050.0 1050 1171 1139 1234 1155 1134 1049 817 877 852
1090.0 961 1285 1377 1406 1246 982 915 928 1039 975
1130.0 848 533 497 565 520 742 745 830 981 1131
1170.0 1719 2441 4036 6721 7221 10000 6753 5546 3724 2758
1210.0 2088 1575 1564 1198 1232 948 718 736 633 795
1250.0 797 679 757 680 680 578 538 574 619 620
1290.0 598 603 647 672 752 684 601 525 432 426
1330.0 370 406 450 471 573 658 914 1208 1550 1896
1370.0 2183 2393 2452 2591 2725 3056 3558 3622 3245 2342
1410.0 1508 1016 703 550 506 498 548 510 488 385
1450.0 387 400 433 425 390 448 351 332 275 233
1490.0 393 527 529 441 392 292 200 139 155 139
1530.0 122 157 214 166 150 129 127 204 90 155
1570.0 208 178 234 206 302 349 450 574 545 589
1610.0 498 429 314 252 188 144 192 137 183 274
1650.0 205 260 141 103 99 71 96 52 104 91
1690.0 76 98 81 109 125 118 136 133 133 97
1730.0 86 125 71 123 118 147 127 119 149 117
1770.0 106 93 106 127 109 144 123 146 139 101
1810.0 101 72 98 106 87 92 52 63 78 53
1850.0 68 80 100 91 82 77 71 83 72 93
1890.0 100 101 140 111 138 147 155 191 155 152
1930.0 121 116 105 78 72 71 85 95 82 110
1970.0 81 99 71 60 71 65 87 81 74 79
2010.0 72 73 66 64 71 83 90 85 79 64
2050.0 69 79 56 80 80 91 102 64 71 53
2090.0 62 72 57 78 77 87 66 62 55 54
2130.0 72 63 81 80 71 87 47 49 60 49
2170.0 91 71 82 83 81 79 52 72 75 93
2210.0 81 71 83 51 64 58 44 81 72 99
2250.0 77 55 67 56 69 53 64 78 88 102
2290.0 67 80 53 71 80 47 97 94 90 73
2330.0 6 29 33 33 14 100 121 117 128 59
2370.0 31 53 48 70 52 64 65 36 64 16
2410.0 34 51 47 71 44 47 50 30 24 10
2450.0 33 47 72 62 45 55 32 45 33 30
2490.0 76 55 74 54 39 51 32 60 48 56
2530.0 70 70 65 27 49 38 58 73 57 93
2570.0 92 92 88 54 76 73 75 93 73 83
2610.0 75 52 37 44 64 60 82 46 55 69
2650.0 23 49 23 27 69 66 77 59 68 62
2690.0 57 60 51 89 92 97 79 46 81 56
2730.0 82 73 75 128 101 103 74 44 72 58
2770.0 77 82 104 107 97 89 55 78 85 82
2810.0 99 80 139 115 79 105 83 130 159 161
2850.0 199 172 208 219 215 227 270 329 335 372
2890.0 340 348 357 304 344 341 396 487 460 497
2930.0 514 568 646 609 592 565 598 584 570 561
2970.0 545 607 573 571 592 534 565 462 413 412
3010.0 364 437 403 429 456 493 535 528 507 463
3050.0 498 512 445 448 366 424 381 277 251 191
3090.0 250 233 199 192 149 160 118 118 116 152
3130.0 179 117 134 92 78 118 56 109 110 138
3170.0 180 89 105 65 80 98 71 107 111 142
3210.0 108 69 60 42 118 72 93 137 77 129
3250.0 55 43 63 65 124 102 121 107 108 103
3290.0 47 70 38 117 117 73 112 43 80 63
3330.0 26 98 78 146 115 60 92 46 73 38
3370.0 69 76 123 132 54 89 54 39 81 24
3410.0 88 74 78 92 27 37 19 57 69 42
3450.0 86 79 93 42 26 34 22 101 65 97
3490.0 106 42 103 26 24 57 49 92 78 58
3530.0 72 64 40 21 59 56 86 100 59 90
3570.0 20 53 39 17 98 71 118 109 54 80
3610.0 62 72 92 72 110 114 104 39 47 68
3650.0 78 116 66 106 107 97 110 36 68 85
3690.0 65 89 82 91 111 102 60 55 77 73
3730.0 123 122 90 156 71 107 43 60 97 90
3770.0 114 89 72 68 49 55 57 80 118 150
3810.0 131 114 104 81 94 122 92 139 132 108
3850.0 133 62 72 80 91 109 112 139 121 105
3890.0 50 38 63 69 119 125 139 163 125 96
3930.0 39 63 95 90 135 139 0 10 10 10
##END=
