##TITLE=.alpha.-Pinene
##JCAMP-DX=4.24
##DATA TYPE=INFRARED SPECTRUM
##ORIGIN=Sadtler Research Labs Under US-EPA Contract
##OWNER=NIST Standard Reference Data Program
##CAS REGISTRY NO=80-56-8
##MOLFORM=C 10 H 16
##XUNITS=1/CM
##YUNITS=ABSORBANCE
##XFACTOR=1.0
##YFACTOR=0.000153271
##DELTAX=4.0
##FIRSTX=450.0
##LASTX=3966.0
##FIRSTY=0.000000
##MAXX=3966
##MINX=450
##MAXY=1.53271
##MINY=0
##NPOINTS=880
##XYDATA=(X++(Y..Y))
450.0 0 222 400 390 269 388 316 342 327 359
490.0 324 247 236 339 346 360 299 298 324 293
530.0 329 322 323 320 327 328 319 313 352 378
570.0 379 365 308 313 311 314 309 304 295 293
610.0 302 335 362 372 350 346 314 291 281 297
650.0 291 332 295 300 315 315 309 279 303 331
690.0 313 287 296 306 317 297 286 302 285 313
730.0 335 298 380 361 334 307 364 376 446 498
770.0 557 680 792 848 992 987 816 688 583 418
810.0 353 311 301 330 310 338 347 350 340 353
850.0 362 374 366 393 402 469 521 600 684 705
890.0 607 596 507 456 409 377 387 386 383 391
930.0 406 404 414 438 461 488 510 479 462 410
970.0 360 338 328 322 336 343 370 386 414 457
1010.0 484 521 548 543 536 514 473 444 419 406
1050.0 399 403 393 389 397 407 433 470 505 542
1090.0 561 559 539 511 487 483 499 508 509 529
1130.0 490 456 407 357 344 350 367 394 408 425
1170.0 433 422 414 410 412 430 459 490 543 594
1210.0 607 629 627 581 533 466 414 380 362 370
1250.0 386 408 441 455 473 460 429 401 380 365
1290.0 362 360 366 370 378 386 396 420 448 485
1330.0 512 521 525 485 452 444 474 576 694 865
1370.0 1076 1246 1203 1331 1214 1072 821 646 496 392
1410.0 380 385 407 460 529 655 790 938 1115 1196
1450.0 1195 1228 1202 1138 1094 1033 989 884 742 651
1490.0 523 420 351 315 287 276 269 262 264 258
1530.0 252 253 249 255 260 269 278 283 292 307
1570.0 317 323 310 305 302 289 284 287 288 295
1610.0 297 298 301 304 313 314 314 323 334 349
1650.0 366 382 399 402 386 362 339 319 304 304
1690.0 317 338 360 374 378 369 348 330 323 322
1730.0 321 319 313 306 297 288 277 271 269 270
1770.0 271 265 264 258 252 247 242 242 239 236
1810.0 234 236 234 235 236 237 237 234 235 239
1850.0 236 235 237 235 235 235 234 233 233 232
1890.0 234 233 233 229 229 229 228 227 230 231
1930.0 229 233 235 234 234 234 236 234 234 234
1970.0 233 234 232 233 234 234 236 237 236 236
2010.0 234 235 234 232 236 235 238 238 240 239
2050.0 239 239 240 237 238 235 237 236 234 237
2090.0 234 234 234 234 234 235 234 234 233 234
2130.0 234 235 234 234 236 236 234 234 234 234
2170.0 234 233 234 231 229 229 229 229 229 233
2210.0 232 233 231 229 228 228 225 226 227 224
2250.0 225 225 224 226 224 225 227 227 230 230
2290.0 231 234 233 230 233 230 230 229 232 227
2330.0 226 224 228 229 228 236 231 234 237 234
2370.0 233 234 237 240 236 234 232 231 230 229
2410.0 227 227 228 229 227 228 230 230 229 230
2450.0 230 229 232 235 235 238 236 236 236 237
2490.0 239 238 238 238 239 240 239 240 237 239
2530.0 241 240 240 242 241 241 243 241 241 243
2570.0 242 244 243 242 243 242 237 239 243 234
2610.0 236 240 242 245 246 246 249 245 248 253
2650.0 259 265 272 277 275 270 264 257 252 247
2690.0 249 250 248 254 261 272 283 297 318 339
2730.0 361 372 375 371 348 334 319 314 322 323
2770.0 327 329 321 323 326 329 342 355 375 391
2810.0 414 435 456 495 563 709 970 1235 1541 1817
2850.0 1906 1840 1861 1921 2035 2343 2747 3224 3756 4034
2890.0 4297 4710 4230 4024 4280 4797 6029 7683 8972 9940
2930.0 10000 8958 7668 6337 5707 5353 5149 5214 5099 4956
2970.0 4649 4462 4114 4204 4246 4259 4451 4037 3296 2478
3010.0 1760 1215 1092 1166 1285 1382 1374 1179 999 744
3050.0 576 524 491 496 508 490 513 493 459 426
3090.0 404 376 367 363 366 364 358 355 346 344
3130.0 335 324 324 321 316 318 305 297 295 283
3170.0 271 264 256 253 250 244 243 238 238 237
3210.0 240 240 240 244 242 245 237 234 231 228
3250.0 228 231 233 234 231 230 230 230 234 230
3290.0 235 229 234 234 238 236 238 236 238 236
3330.0 235 234 234 239 236 232 234 236 236 239
3370.0 238 235 239 239 241 237 236 237 238 238
3410.0 239 239 238 237 234 234 233 235 238 236
3450.0 236 232 232 237 238 231 227 229 234 233
3490.0 233 237 233 236 237 235 232 231 234 238
3530.0 231 240 234 234 237 241 234 229 226 236
3570.0 238 234 233 239 231 241 234 231 232 233
3610.0 237 232 234 244 243 250 254 264 263 261
3650.0 251 249 242 231 231 231 237 228 224 228
3690.0 225 237 241 233 230 226 230 235 239 247
3730.0 236 246 243 245 234 232 236 237 239 242
3770.0 234 234 239 241 236 239 237 235 234 238
3810.0 244 246 246 239 239 249 247 257 261 241
3850.0 245 234 241 248 251 231 260 253 233 247
3890.0 248 257 251 243 240 250 235 233 240 244
3930.0 250 234 225 244 232 235 230 232 234 234
##END=
