##TITLE=2-Bromobutyric acid
##JCAMP-DX=4.24
##DATA TYPE=INFRARED SPECTRUM
##ORIGIN=Sadtler Research Labs Under US-EPA Contract
##OWNER=NIST Standard Reference Data Program
##CAS REGISTRY NO=80-58-0
##MOLFORM=C 4 H 7 Br O 2
##XUNITS=1/CM
##YUNITS=ABSORBANCE
##XFACTOR=1.0
##YFACTOR=0.000101837
##DELTAX=4.0
##FIRSTX=450.0
##LASTX=3966.0
##FIRSTY=0.000000
##MAXX=3966
##MINX=450
##MAXY=1.01837
##MINY=0
##NPOINTS=880
##XYDATA=(X++(Y..Y))
450.0 0 25 101 92 151 147 178 159 163 189
490.0 215 218 236 263 313 367 424 487 563 645
530.0 728 823 943 1061 1143 1191 1229 1227 1161 1083
570.0 1079 1112 1168 1233 1311 1416 1464 1561 1656 1718
610.0 1753 1785 1887 1921 1941 1981 1854 1791 1645 1460
650.0 1272 1078 980 897 875 837 753 658 543 431
690.0 315 286 236 220 192 218 196 208 215 220
730.0 241 262 343 379 449 476 487 456 467 474
770.0 466 501 476 371 331 251 186 166 239 207
810.0 229 231 224 213 178 140 111 112 111 141
850.0 169 210 249 277 285 277 257 221 184 154
890.0 142 127 131 136 154 174 207 246 280 299
930.0 302 291 255 215 175 139 104 79 70 63
970.0 62 63 62 57 65 64 71 76 85 104
1010.0 123 158 194 238 272 300 330 349 375 423
1050.0 509 636 816 1022 1271 1537 1734 1979 2256 2578
1090.0 2870 3109 3265 3265 3154 3024 3018 3160 3470 3759
1130.0 3965 3909 3610 3234 2911 2750 2695 2761 2700 2441
1170.0 2163 1917 1695 1567 1528 1523 1522 1459 1326 1125
1210.0 924 740 605 515 466 432 424 436 467 506
1250.0 543 576 596 624 649 684 736 792 843 860
1290.0 860 845 820 789 785 805 854 934 1018 1102
1330.0 1141 1139 1079 1002 934 893 908 931 982 1041
1370.0 1098 1129 1180 1242 1257 1266 1151 973 770 566
1410.0 393 302 224 219 200 231 249 302 373 433
1450.0 506 572 615 641 619 594 476 335 285 190
1490.0 137 102 92 71 54 48 44 48 24 53
1530.0 36 47 36 31 39 48 58 31 58 59
1570.0 65 56 58 53 57 54 51 56 50 60
1610.0 54 68 52 71 62 73 68 65 74 61
1650.0 61 58 70 73 75 73 59 98 68 93
1690.0 97 128 107 152 188 228 277 343 502 602
1730.0 809 934 1145 1220 1387 1584 1943 2634 3588 5082
1770.0 6369 8465 8808 10000 8175 6984 5218 3885 2829 2141
1810.0 1691 1356 1108 890 739 565 457 341 276 189
1850.0 172 148 128 115 106 96 92 102 90 94
1890.0 81 86 78 72 70 65 67 60 64 61
1930.0 69 67 72 67 67 70 65 68 66 66
1970.0 63 69 65 66 65 59 62 59 66 62
2010.0 65 63 64 63 65 65 62 62 59 65
2050.0 58 62 60 61 58 57 59 56 57 56
2090.0 56 53 55 54 54 55 55 59 54 57
2130.0 56 57 54 57 55 54 56 56 59 58
2170.0 63 61 66 67 70 70 69 73 71 74
2210.0 73 75 72 75 73 71 67 64 64 58
2250.0 61 58 57 58 58 55 53 53 55 54
2290.0 54 56 56 59 60 63 59 56 60 51
2330.0 54 48 53 45 55 52 48 55 51 59
2370.0 53 58 62 63 61 60 62 61 63 64
2410.0 68 66 70 66 66 67 68 68 68 70
2450.0 69 70 73 77 74 73 73 73 71 72
2490.0 72 68 71 69 70 70 71 71 69 68
2530.0 68 70 66 67 64 65 64 65 64 65
2570.0 67 68 67 62 62 63 65 61 63 62
2610.0 61 64 60 61 58 61 63 64 66 65
2650.0 64 63 65 65 65 63 66 68 66 66
2690.0 65 69 66 66 67 65 68 69 70 65
2730.0 68 68 73 76 82 85 88 94 95 95
2770.0 90 88 85 87 86 93 91 90 95 95
2810.0 97 100 102 105 110 114 121 130 137 155
2850.0 175 199 226 255 277 298 335 399 513 619
2890.0 707 716 682 610 529 479 479 500 537 579
2930.0 618 679 773 883 995 1064 1038 984 929 939
2970.0 1102 1335 1728 2123 2036 1870 1629 1210 825 542
3010.0 380 286 236 206 193 180 170 166 158 153
3050.0 150 147 143 143 143 144 145 150 155 147
3090.0 148 144 138 133 130 128 124 123 124 125
3130.0 124 124 123 122 126 127 125 125 125 125
3170.0 125 122 122 119 115 115 109 105 101 103
3210.0 97 96 98 90 94 88 90 96 91 86
3250.0 84 86 84 84 83 84 83 82 82 80
3290.0 80 80 78 71 76 77 77 72 72 71
3330.0 72 71 68 71 69 68 66 69 64 66
3370.0 67 65 64 63 62 60 64 65 62 62
3410.0 65 66 58 71 66 64 61 60 63 62
3450.0 62 58 69 60 77 72 76 86 98 104
3490.0 126 159 193 214 225 231 215 209 205 215
3530.0 208 219 212 217 224 213 261 398 808 1599
3570.0 2714 3550 3861 3878 3364 2232 1185 545 258 154
3610.0 114 117 106 106 88 95 83 73 68 75
3650.0 71 60 64 58 69 65 82 61 66 56
3690.0 72 57 62 63 58 60 70 60 63 72
3730.0 72 80 84 60 72 76 68 80 64 71
3770.0 70 67 69 61 62 67 62 62 72 75
3810.0 74 61 69 67 70 70 65 68 75 63
3850.0 69 71 74 70 63 61 69 65 70 76
3890.0 76 74 71 73 76 59 58 70 75 71
3930.0 71 81 61 62 77 74 63 67 75 80
##END=
