##TITLE=Cyclohexanemethanamine, 4-amino-.alpha.,.alpha.,4-trimethyl-
##JCAMP-DX=4.24
##DATA TYPE=INFRARED SPECTRUM
##ORIGIN=Sadtler Research Labs Under US-EPA Contract
##OWNER=NIST Standard Reference Data Program
##CAS REGISTRY NO=80-52-4
##MOLFORM=C 10 H 22 N 2
##XUNITS=1/CM
##YUNITS=ABSORBANCE
##XFACTOR=1.0
##YFACTOR=0.000083917
##DELTAX=4.0
##FIRSTX=450.0
##LASTX=3966.0
##FIRSTY=0.006210
##MAXX=3966
##MINX=450
##MAXY=0.83917
##MINY=0
##NPOINTS=880
##XYDATA=(X++(Y..Y))
450.0 74 67 413 135 232 338 240 413 325 314
490.0 358 96 227 148 174 110 142 281 247 263
530.0 171 100 203 93 161 86 0 141 32 117
570.0 92 118 150 146 329 306 324 287 255 237
610.0 159 107 139 69 153 131 121 102 101 169
650.0 147 193 226 208 230 227 286 286 298 346
690.0 409 387 429 452 515 611 713 692 679 743
730.0 757 858 754 1060 1548 1586 1661 2083 2419 2629
770.0 2828 3028 3276 3649 4058 4288 4420 4465 4319 4141
810.0 3668 3039 2512 1899 1511 1290 1205 1077 1018 942
850.0 822 726 570 491 396 351 268 251 185 196
890.0 190 280 275 295 243 272 301 301 389 433
930.0 479 419 306 196 161 134 155 167 164 232
970.0 206 174 201 203 258 259 256 223 213 238
1010.0 240 237 223 204 187 168 151 150 136 138
1050.0 112 115 104 135 164 154 158 155 149 175
1090.0 168 157 202 187 218 255 313 457 522 592
1130.0 657 639 624 595 519 536 596 665 718 758
1170.0 744 773 837 919 1121 1344 1445 1450 1407 1342
1210.0 1175 1059 980 854 720 648 504 377 342 319
1250.0 283 232 265 260 273 251 264 247 276 295
1290.0 341 335 338 376 423 458 466 542 542 488
1330.0 412 332 291 256 266 343 503 819 1212 1654
1370.0 1931 2119 2180 2062 1878 1440 968 565 295 195
1410.0 167 155 194 191 233 340 484 723 997 1200
1450.0 1433 1508 1540 1471 1457 1354 1190 968 700 529
1490.0 389 322 280 281 279 286 326 283 272 268
1530.0 280 263 261 278 277 261 286 279 306 284
1570.0 304 351 387 448 480 580 654 796 973 1166
1610.0 1429 1634 1718 1884 1680 1559 1224 927 828 560
1650.0 451 393 269 285 192 223 181 204 175 178
1690.0 175 166 163 153 146 138 168 140 143 132
1730.0 123 127 90 116 105 97 97 106 86 87
1770.0 102 93 104 111 115 107 110 112 120 106
1810.0 106 105 96 88 101 77 84 76 91 84
1850.0 89 79 84 92 88 87 78 72 75 74
1890.0 71 75 67 63 60 69 69 62 78 58
1930.0 63 65 55 63 64 65 64 54 64 65
1970.0 74 63 62 66 58 68 63 59 60 55
2010.0 54 52 56 54 55 52 49 51 56 57
2050.0 52 54 51 52 56 52 57 54 48 50
2090.0 53 54 55 52 51 46 51 47 48 53
2130.0 50 44 52 48 51 46 47 47 48 50
2170.0 39 44 40 38 43 45 39 38 40 43
2210.0 43 45 44 46 48 49 47 41 44 44
2250.0 46 45 44 42 43 45 47 45 40 40
2290.0 33 30 18 18 10 4 15 19 27 39
2330.0 36 52 38 54 15 49 31 57 35 23
2370.0 32 22 21 24 29 38 51 46 44 45
2410.0 45 44 38 39 43 42 43 39 46 46
2450.0 42 46 45 48 48 49 50 49 53 55
2490.0 55 55 51 55 51 53 52 52 50 50
2530.0 47 45 45 49 47 45 50 48 51 53
2570.0 54 52 57 64 70 66 76 75 82 82
2610.0 85 93 95 102 105 102 102 101 102 109
2650.0 109 109 110 116 112 111 118 120 112 124
2690.0 124 128 123 125 135 135 149 156 169 180
2730.0 179 177 171 157 157 146 140 142 144 144
2770.0 147 147 150 162 171 194 206 221 244 281
2810.0 317 364 430 510 616 755 990 1342 1902 2617
2850.0 3237 3566 3601 3502 3527 3754 4006 4115 4008 3794
2890.0 3627 3626 3913 4573 5616 6713 7494 7709 7608 7600
2930.0 7930 8347 8697 8898 8975 9184 9467 9799 10000 9674
2970.0 8946 7805 6479 5234 4060 2942 1976 1249 779 527
3010.0 372 301 259 225 212 203 183 177 149 137
3050.0 119 97 92 83 86 80 73 82 73 77
3090.0 75 77 82 79 85 85 78 78 82 84
3130.0 89 94 97 97 108 98 96 114 114 118
3170.0 110 104 115 110 104 103 117 113 114 121
3210.0 113 118 111 103 94 91 82 84 79 79
3250.0 70 74 79 62 63 68 64 66 62 70
3290.0 65 78 90 94 111 138 180 248 301 331
3330.0 342 323 288 229 192 148 127 117 95 90
3370.0 102 98 81 92 97 104 99 96 93 88
3410.0 77 74 87 70 62 73 79 71 76 69
3450.0 81 61 73 76 72 62 58 64 55 65
3490.0 69 55 56 64 68 66 48 54 60 59
3530.0 64 51 48 51 70 67 50 60 38 82
3570.0 59 39 41 36 43 77 64 61 58 56
3610.0 66 43 76 54 59 59 65 49 62 46
3650.0 72 15 52 62 45 75 11 71 30 61
3690.0 57 54 62 66 53 59 65 79 67 100
3730.0 45 44 84 30 96 19 78 6 75 62
3770.0 37 64 28 73 79 59 66 52 82 43
3810.0 75 76 67 28 42 57 57 73 39 50
3850.0 116 33 93 57 56 55 28 79 70 76
3890.0 35 101 86 129 80 38 42 50 100 53
3930.0 87 85 90 66 49 96 34 40 59 65
##END=
