##TITLE=Propanoic acid, 2-hydroxy-2-methyl-, ethyl ester
##JCAMP-DX=4.24
##DATA TYPE=INFRARED SPECTRUM
##ORIGIN=Sadtler Research Labs Under US-EPA Contract
##OWNER=NIST Standard Reference Data Program
##CAS REGISTRY NO=80-55-7
##MOLFORM=C 6 H 12 O 3
##XUNITS=1/CM
##YUNITS=ABSORBANCE
##XFACTOR=1.0
##YFACTOR=0.000146332
##DELTAX=4.0
##FIRSTX=450.0
##LASTX=3966.0
##FIRSTY=0.065996
##MAXX=3966
##MINX=450
##MAXY=1.46332
##MINY=0
##NPOINTS=880
##XYDATA=(X++(Y..Y))
450.0 451 229 148 136 76 114 86 48 127 14
490.0 61 21 171 80 89 145 140 176 134 206
530.0 141 142 130 169 124 148 209 175 203 193
570.0 271 258 266 259 260 283 333 406 390 484
610.0 432 431 355 328 264 184 144 126 132 82
650.0 106 89 120 82 110 83 83 94 70 93
690.0 95 86 62 89 73 85 82 93 117 80
730.0 133 82 95 116 123 122 155 205 266 336
770.0 381 385 325 307 217 220 233 138 164 126
810.0 139 129 163 148 143 150 136 141 134 152
850.0 154 204 247 319 366 399 389 349 285 217
890.0 213 202 235 240 239 224 201 180 155 154
930.0 142 154 167 196 218 272 359 474 631 803
970.0 983 1069 1087 983 828 643 496 415 412 481
1010.0 586 768 976 1209 1350 1385 1281 1094 829 605
1050.0 481 393 357 337 348 359 383 433 483 552
1090.0 645 776 910 1100 1294 1530 1782 2051 2311 2531
1130.0 2763 3012 3314 3653 4051 4367 4609 4741 4854 5133
1170.0 5739 6900 8278 9637 10000 9388 7827 5692 3823 2677
1210.0 2109 1824 1699 1628 1626 1661 1764 1969 2310 2787
1250.0 3359 3950 4313 4346 3996 3357 2568 1868 1387 1101
1290.0 952 880 877 865 839 774 696 599 531 500
1330.0 482 485 495 543 588 674 777 878 972 1070
1370.0 1106 1145 1273 1340 1324 1265 1107 847 659 582
1410.0 504 466 402 400 367 386 387 442 468 518
1450.0 591 660 770 868 990 1051 995 908 743 548
1490.0 384 300 215 172 140 127 102 115 107 120
1530.0 105 120 108 99 91 86 72 61 75 52
1570.0 53 54 59 47 49 48 43 45 44 45
1610.0 35 48 37 56 39 55 44 56 53 59
1650.0 46 82 67 65 80 86 102 128 135 182
1690.0 203 246 279 324 353 408 488 657 987 1507
1730.0 2364 3452 4698 5449 5892 5760 5078 4116 3279 2623
1770.0 2153 1705 1328 1041 833 654 522 426 362 318
1810.0 259 228 191 160 117 87 65 52 42 34
1850.0 40 33 36 32 39 32 44 47 51 51
1890.0 47 51 42 46 35 33 29 31 27 22
1930.0 28 26 26 18 27 20 25 21 24 18
1970.0 21 23 18 23 21 24 20 28 30 32
2010.0 35 34 33 33 36 28 30 26 26 24
2050.0 16 20 14 13 5 11 6 11 10 16
2090.0 18 17 20 18 25 13 22 18 23 22
2130.0 21 24 23 27 20 26 23 27 25 23
2170.0 21 18 13 9 10 9 13 8 10 11
2210.0 13 11 10 15 10 13 10 15 11 13
2250.0 15 13 12 11 17 14 16 16 16 13
2290.0 11 13 7 8 3 5 0 0 0 0
2330.0 0 0 4 3 12 0 0 1 1 11
2370.0 25 36 27 30 25 25 25 26 28 25
2410.0 27 30 34 32 35 31 37 35 35 32
2450.0 29 28 23 26 22 21 22 24 24 22
2490.0 21 21 26 24 25 22 27 24 24 25
2530.0 24 22 23 23 19 23 24 24 24 24
2570.0 24 22 19 17 21 15 20 19 22 23
2610.0 24 29 27 36 31 35 31 30 31 32
2650.0 30 27 33 27 22 18 18 9 7 4
2690.0 10 9 10 16 15 18 18 24 28 32
2730.0 40 37 45 42 44 40 47 48 48 48
2770.0 50 52 49 62 56 58 58 66 68 68
2810.0 78 82 87 90 98 96 103 104 115 115
2850.0 126 146 166 195 238 293 358 441 523 572
2890.0 591 598 591 577 591 611 645 665 693 738
2930.0 823 960 1127 1296 1371 1347 1255 1136 1046 1065
2970.0 1230 1550 2085 2760 3303 3640 3712 3310 2639 2021
3010.0 1431 983 686 499 367 288 229 186 148 126
3050.0 106 98 85 71 69 71 72 60 61 62
3090.0 64 60 64 65 61 57 57 58 52 57
3130.0 53 48 47 53 56 44 55 52 53 55
3170.0 51 54 47 55 54 58 57 64 63 65
3210.0 59 62 67 62 62 58 55 64 51 48
3250.0 51 44 32 31 25 38 39 38 25 18
3290.0 17 28 16 6 20 15 24 12 27 35
3330.0 31 28 28 24 8 17 19 15 24 17
3370.0 22 26 24 18 22 20 28 18 14 14
3410.0 16 17 13 29 22 23 22 26 17 23
3450.0 35 39 50 55 58 63 75 69 67 68
3490.0 68 62 66 67 53 65 61 50 52 50
3530.0 60 71 94 117 169 256 409 581 805 1008
3570.0 1145 1212 1198 1071 922 754 556 415 303 209
3610.0 173 156 153 186 233 312 360 378 361 302
3650.0 198 142 103 90 67 78 71 78 47 54
3690.0 75 70 49 48 50 52 59 40 42 40
3730.0 43 50 36 40 69 53 48 44 47 49
3770.0 46 37 40 42 42 46 54 54 38 69
3810.0 47 58 50 56 47 36 49 47 52 63
3850.0 71 64 67 64 74 65 80 66 66 69
3890.0 53 68 63 55 46 62 33 40 51 62
3930.0 53 44 68 49 70 60 54 28 52 40
##END=
