##TITLE=2-Propenoic acid, 2-methyl-, methyl ester
##JCAMP-DX=4.24
##DATA TYPE=INFRARED SPECTRUM
##ORIGIN=Sadtler Research Labs Under US-EPA Contract
##OWNER=NIST Standard Reference Data Program
##CAS REGISTRY NO=80-62-6
##MOLFORM=C 5 H 8 O 2
##XUNITS=1/CM
##YUNITS=ABSORBANCE
##XFACTOR=1.0
##YFACTOR=0.000179395
##DELTAX=4.0
##FIRSTX=450.0
##LASTX=3966.0
##FIRSTY=0.000000
##MAXX=3966
##MINX=450
##MAXY=1.79395
##MINY=0
##NPOINTS=880
##XYDATA=(X++(Y..Y))
450.0 0 326 434 328 185 421 212 374 259 426
490.0 301 382 395 358 371 331 398 270 333 269
530.0 313 247 291 283 248 285 267 293 249 308
570.0 280 330 343 387 401 409 442 426 424 361
610.0 351 300 301 295 313 325 354 389 434 489
650.0 448 471 488 465 437 397 362 339 322 284
690.0 281 270 262 258 253 256 250 255 249 253
730.0 250 257 252 257 259 261 259 261 269 265
770.0 270 260 269 280 307 344 406 481 599 725
810.0 948 1169 1119 1076 1036 924 777 640 516 413
850.0 351 316 313 298 299 304 302 300 298 302
890.0 295 305 315 345 387 485 614 801 1027 1246
930.0 1449 1620 1930 1855 1508 1198 957 799 634 502
970.0 435 411 443 476 519 559 621 690 761 853
1010.0 926 1012 1071 1019 982 841 696 560 422 360
1050.0 332 322 315 315 318 322 334 346 362 377
1090.0 397 421 446 470 493 524 558 596 662 771
1130.0 947 1231 1665 2388 3505 5211 6962 8804 9554 9953
1170.0 10000 9196 7698 5924 5142 4870 4878 4743 4635 4286
1210.0 3767 3033 2290 1743 1373 1138 960 838 739 664
1250.0 605 567 535 533 561 628 749 947 1288 1776
1290.0 2363 2856 3202 3507 3752 4063 3937 3691 3501 3515
1330.0 3311 2942 2374 1734 1279 902 689 587 562 570
1370.0 607 662 677 678 734 797 832 869 884 914
1410.0 911 918 910 928 1011 1259 1537 1784 1998 2147
1450.0 2241 2031 1694 1575 1464 1352 1118 920 763 616
1490.0 537 454 440 397 417 397 387 391 384 383
1530.0 360 379 360 367 346 356 351 356 354 350
1570.0 367 360 384 371 388 387 404 400 416 448
1610.0 467 530 584 678 754 891 1027 1050 1017 953
1650.0 1006 877 629 543 434 433 383 459 443 524
1690.0 552 614 613 670 741 861 1130 1554 2353 3252
1730.0 5282 6257 7991 6953 8294 7791 7563 5451 3676 2326
1770.0 1498 921 656 555 491 498 505 528 465 421
1810.0 380 349 311 288 271 251 252 242 252 247
1850.0 258 258 272 287 305 322 329 341 337 338
1890.0 331 314 290 272 256 243 239 234 241 232
1930.0 233 231 231 235 238 233 231 238 243 252
1970.0 256 269 274 282 289 296 300 299 304 298
2010.0 299 294 290 279 268 257 245 241 230 224
2050.0 215 216 210 205 204 202 205 207 213 219
2090.0 224 222 225 226 226 223 221 222 222 224
2130.0 220 224 224 226 227 227 228 224 220 216
2170.0 212 207 204 200 199 193 193 191 186 188
2210.0 186 187 187 189 188 189 191 189 192 188
2250.0 192 189 188 187 187 185 183 185 184 184
2290.0 184 186 190 196 198 199 200 201 205 194
2330.0 195 189 184 184 186 194 200 193 179 176
2370.0 165 169 171 175 177 180 183 182 182 179
2410.0 179 176 179 176 177 177 176 177 177 177
2450.0 174 177 177 179 179 179 178 178 178 176
2490.0 177 177 177 176 175 175 174 173 173 173
2530.0 171 172 172 173 174 175 178 180 183 182
2570.0 185 184 185 182 177 179 179 178 177 179
2610.0 176 178 173 173 171 170 169 170 170 168
2650.0 170 170 170 168 168 167 168 169 167 167
2690.0 165 168 164 167 166 167 167 168 168 169
2730.0 174 176 184 185 187 186 185 188 188 187
2770.0 186 189 187 188 185 188 189 191 195 197
2810.0 203 206 219 225 239 258 291 342 399 450
2850.0 488 512 525 518 479 442 417 410 422 436
2890.0 457 475 502 529 566 602 639 659 690 772
2930.0 878 982 1012 1090 1279 1619 1935 1962 1967 1974
2970.0 2018 1946 1540 1378 1318 1339 1329 1370 1358 1172
3010.0 1056 1009 977 914 845 776 735 703 637 567
3050.0 506 465 430 405 376 352 335 324 314 317
3090.0 324 338 371 405 433 430 427 410 381 333
3130.0 277 243 228 224 213 210 207 201 196 192
3170.0 191 187 182 179 178 175 174 171 173 169
3210.0 168 170 168 168 166 169 171 167 166 164
3250.0 167 170 171 168 167 170 167 170 168 165
3290.0 167 172 166 166 168 166 168 169 169 173
3330.0 170 171 176 174 174 178 179 182 183 185
3370.0 184 183 183 184 184 184 184 179 179 178
3410.0 179 177 172 176 176 177 178 182 184 196
3450.0 198 211 231 238 248 250 247 248 235 220
3490.0 207 187 179 178 173 169 169 166 167 174
3530.0 164 172 174 174 177 171 172 172 171 175
3570.0 172 171 168 172 176 170 169 173 167 178
3610.0 177 178 178 171 177 173 171 168 173 179
3650.0 173 173 168 172 177 183 172 169 169 176
3690.0 173 168 173 172 175 176 175 171 182 177
3730.0 182 182 185 174 182 168 171 172 169 175
3770.0 172 172 172 184 175 177 179 187 174 178
3810.0 168 178 176 175 175 174 183 177 179 182
3850.0 192 179 172 179 179 180 175 175 180 182
3890.0 171 175 175 189 178 178 173 177 173 182
3930.0 188 176 177 184 179 176 190 177 182 180
##END=
