##TITLE=Benzene, 1,3-dichloro-2-(dichloromethyl)-
##JCAMP-DX=4.24
##DATA TYPE=INFRARED SPECTRUM
##ORIGIN=Sadtler Research Labs Under US-EPA Contract
##OWNER=NIST Standard Reference Data Program
##CAS REGISTRY NO=81-19-6
##MOLFORM=C 7 H 4 Cl 4
##XUNITS=1/CM
##YUNITS=ABSORBANCE
##XFACTOR=1.0
##YFACTOR=0.000079749
##DELTAX=4.0
##FIRSTX=450.0
##LASTX=3966.0
##FIRSTY=0.033574
##MAXX=3966
##MINX=450
##MAXY=0.79749
##MINY=0
##NPOINTS=880
##XYDATA=(X++(Y..Y))
450.0 421 316 279 205 313 271 379 417 309 108
490.0 93 32 42 60 49 124 79 186 138 117
530.0 20 81 58 26 96 60 65 64 134 27
570.0 108 96 116 109 172 115 103 112 119 126
610.0 41 101 222 345 484 518 416 205 158 123
650.0 136 134 159 163 182 308 349 381 413 619
690.0 935 1805 3224 4820 6116 4239 2592 1451 1157 1319
730.0 1272 1082 662 442 339 332 348 374 394 441
770.0 668 1328 3029 5430 8485 10000 8482 6060 3663 1945
810.0 1037 530 380 315 357 446 641 905 1238 1710
850.0 2179 2466 2283 1678 946 445 205 141 124 102
890.0 105 92 112 86 97 77 67 61 53 55
930.0 40 57 35 43 45 47 45 48 58 44
970.0 57 50 67 36 49 45 39 34 39 47
1010.0 35 56 44 58 49 81 87 88 84 74
1050.0 70 38 61 50 86 143 203 259 321 419
1090.0 636 1088 1451 1512 1154 636 299 171 122 87
1130.0 94 80 123 205 402 594 713 752 675 629
1170.0 603 829 1353 1799 1747 1262 721 733 999 1093
1210.0 1038 696 626 800 1409 1740 1500 987 601 325
1250.0 223 106 100 63 58 73 66 76 56 56
1290.0 40 50 62 79 117 151 208 214 181 117
1330.0 84 71 73 77 35 45 12 41 45 40
1370.0 39 56 66 40 87 65 92 88 120 150
1410.0 209 302 439 653 942 1619 2553 4048 4558 3959
1450.0 2191 849 248 203 159 171 192 194 184 249
1490.0 313 295 280 243 244 233 166 158 134 115
1530.0 106 107 167 244 351 460 890 1292 2051 2563
1570.0 2886 2719 2132 1614 1244 856 588 347 248 160
1610.0 121 115 106 100 80 90 76 100 73 92
1650.0 116 134 124 119 130 108 139 59 107 94
1690.0 59 40 82 70 58 42 54 87 46 38
1730.0 58 94 59 52 59 54 46 44 39 25
1770.0 55 79 79 126 129 124 88 62 45 31
1810.0 34 26 24 29 34 36 31 23 41 53
1850.0 71 85 124 135 120 92 38 33 25 28
1890.0 27 27 21 15 24 23 35 36 68 80
1930.0 121 165 171 146 86 33 14 20 13 22
1970.0 9 12 16 14 15 15 15 8 10 13
2010.0 11 14 15 15 8 17 12 15 15 18
2050.0 14 22 17 18 23 14 13 11 11 9
2090.0 10 7 11 10 8 11 6 5 0 2
2130.0 1 3 5 1 8 7 9 2 10 6
2170.0 9 4 7 7 8 10 7 14 9 13
2210.0 14 11 11 16 14 13 17 12 13 13
2250.0 19 19 21 21 17 23 20 28 24 24
2290.0 23 27 40 42 56 48 43 46 46 29
2330.0 43 31 27 30 23 28 34 35 46 27
2370.0 10 14 14 12 18 17 16 15 14 15
2410.0 16 21 21 18 18 20 28 46 45 43
2450.0 31 22 12 14 16 18 24 25 25 21
2490.0 24 24 23 15 15 17 17 18 17 18
2530.0 13 19 20 20 22 23 18 12 12 7
2570.0 10 6 14 12 12 20 13 12 14 17
2610.0 18 19 21 26 23 25 29 32 37 40
2650.0 47 50 53 48 51 47 46 37 31 23
2690.0 16 13 11 6 7 2 0 2 6 7
2730.0 10 12 10 9 9 16 11 10 11 12
2770.0 13 13 14 14 9 12 19 20 19 19
2810.0 21 15 18 13 9 11 13 13 8 6
2850.0 9 8 11 8 7 15 12 23 22 20
2890.0 19 17 27 29 28 23 22 26 17 18
2930.0 18 18 22 26 23 20 27 40 47 38
2970.0 35 33 33 44 52 47 46 38 26 25
3010.0 14 17 13 11 16 17 21 36 62 135
3050.0 215 255 248 206 211 263 281 252 208 198
3090.0 172 125 59 23 21 22 30 40 44 46
3130.0 65 66 62 51 32 24 15 7 1 8
3170.0 9 9 5 11 8 7 11 6 9 13
3210.0 19 19 16 16 23 20 24 13 6 17
3250.0 10 7 11 7 5 17 11 11 18 9
3290.0 18 14 16 17 16 4 10 18 15 16
3330.0 13 13 12 8 16 16 13 15 20 11
3370.0 15 18 16 13 9 8 15 16 14 25
3410.0 20 21 20 19 9 14 20 16 20 17
3450.0 23 18 22 24 23 24 17 28 31 23
3490.0 16 26 30 25 35 20 34 28 29 30
3530.0 28 29 28 27 36 38 24 34 20 45
3570.0 34 27 33 28 30 37 37 29 27 27
3610.0 44 21 35 23 27 42 40 11 39 20
3650.0 23 28 15 36 14 59 6 38 7 17
3690.0 37 31 27 29 23 25 26 27 24 22
3730.0 21 13 25 9 46 26 47 6 21 27
3770.0 28 33 27 22 12 26 26 21 36 42
3810.0 19 47 19 38 15 22 43 45 30 54
3850.0 35 37 38 19 30 44 39 32 40 37
3890.0 23 49 21 54 49 46 54 47 36 40
3930.0 54 53 34 44 17 27 9 30 38 19
##END=
