##TITLE=8-Pentadecanone
##JCAMP-DX=4.24
##DATA TYPE=INFRARED SPECTRUM
##ORIGIN=Sadtler Research Labs Under US-EPA Contract
##OWNER=NIST Standard Reference Data Program
##CAS REGISTRY NO=818-23-5
##MOLFORM=C 15 H 30 O
##XUNITS=1/CM
##YUNITS=ABSORBANCE
##XFACTOR=1.0
##YFACTOR=0.000111057
##DELTAX=4.0
##FIRSTX=450.0
##LASTX=3966.0
##FIRSTY=0.000000
##MAXX=3966
##MINX=450
##MAXY=1.11057
##MINY=0
##NPOINTS=880
##XYDATA=(X++(Y..Y))
450.0 0 399 674 421 447 462 423 346 458 486
490.0 468 459 560 564 609 492 470 429 578 527
530.0 588 525 505 462 493 510 492 506 496 489
570.0 524 492 473 477 460 500 538 495 495 501
610.0 487 506 525 512 531 485 477 497 494 482
650.0 482 471 485 459 445 523 472 477 507 484
690.0 501 497 512 536 566 569 609 648 639 630
730.0 601 621 598 591 591 573 530 540 534 528
770.0 570 537 497 509 510 512 510 530 472 489
810.0 507 498 504 512 467 488 489 467 473 529
850.0 529 513 533 503 501 531 519 478 577 493
890.0 517 476 452 479 499 485 503 529 528 513
930.0 492 527 500 513 505 523 519 536 531 541
970.0 555 552 572 591 592 605 614 607 620 605
1010.0 642 646 657 642 638 667 671 688 686 700
1050.0 722 745 748 750 767 796 804 818 826 798
1090.0 791 776 752 736 727 752 773 803 825 865
1130.0 889 900 873 845 816 775 777 763 726 731
1170.0 742 746 738 768 747 754 745 760 750 733
1210.0 742 707 683 678 685 688 671 683 667 658
1250.0 673 662 667 676 712 711 727 710 719 738
1290.0 766 772 803 769 795 799 784 795 776 787
1330.0 840 849 921 980 1068 1138 1182 1209 1187 1124
1370.0 1045 962 890 862 812 777 728 683 676 702
1410.0 743 769 809 794 804 803 817 879 932 1015
1450.0 1147 1226 1338 1369 1301 1160 1034 856 725 644
1490.0 582 556 521 506 501 498 492 468 467 465
1530.0 442 443 478 487 448 425 427 433 413 429
1570.0 401 439 429 414 413 402 393 429 400 440
1610.0 420 439 442 431 432 427 414 416 442 442
1650.0 435 450 454 464 449 485 498 513 554 594
1690.0 648 653 745 880 1045 1308 1633 2145 2581 2648
1730.0 2540 1896 1422 1125 912 832 751 690 662 635
1770.0 635 652 634 614 582 551 517 500 493 479
1810.0 467 450 437 426 413 408 400 393 396 388
1850.0 390 382 378 379 378 390 374 379 374 375
1890.0 377 378 374 377 379 370 375 365 372 370
1930.0 368 368 365 373 370 367 364 369 375 367
1970.0 367 370 364 359 360 366 365 363 358 364
2010.0 372 370 376 371 374 367 371 370 374 373
2050.0 374 367 371 370 371 366 371 367 370 368
2090.0 365 367 367 365 368 360 363 364 363 363
2130.0 364 367 363 366 361 368 365 366 363 367
2170.0 366 365 361 364 366 365 362 363 361 365
2210.0 360 362 361 362 363 357 357 359 357 360
2250.0 360 360 357 356 357 354 356 359 359 361
2290.0 358 365 364 365 362 362 357 348 347 351
2330.0 349 353 347 353 350 353 347 347 347 357
2370.0 368 353 364 364 359 356 359 359 358 358
2410.0 358 362 361 362 361 357 357 357 357 361
2450.0 357 356 355 357 359 354 358 359 357 360
2490.0 361 360 364 361 361 363 364 367 371 368
2530.0 372 371 371 375 373 376 376 376 373 374
2570.0 379 379 382 381 384 389 386 388 390 394
2610.0 396 399 400 402 405 407 408 414 417 421
2650.0 425 428 429 437 447 443 449 458 455 455
2690.0 455 452 454 451 453 455 453 452 455 455
2730.0 458 462 470 470 482 480 477 482 484 488
2770.0 493 498 511 521 534 559 580 597 627 655
2810.0 685 713 749 790 841 899 977 1089 1242 1487
2850.0 1863 2436 3185 3850 4122 3956 3620 3300 3122 3016
2890.0 2900 2873 2976 3212 3570 4033 4664 5491 6583 8029
2930.0 9341 10000 9691 8682 7501 6369 5548 5081 4876 4799
2970.0 4505 3809 2911 2178 1712 1413 1212 1057 943 865
3010.0 797 741 700 665 636 607 592 566 549 533
3050.0 520 501 491 481 471 471 464 462 449 455
3090.0 445 440 438 434 430 427 422 423 415 415
3130.0 413 409 406 403 401 404 396 404 401 399
3170.0 398 400 393 391 389 385 388 386 386 383
3210.0 375 373 381 376 375 368 367 366 370 364
3250.0 366 369 366 364 372 364 362 365 368 369
3290.0 370 370 366 358 362 375 366 363 359 359
3330.0 365 367 364 367 369 368 373 375 375 362
3370.0 368 365 368 377 372 371 374 367 380 379
3410.0 379 382 383 394 393 382 394 389 380 377
3450.0 378 375 369 370 372 369 360 357 357 358
3490.0 354 351 348 355 356 356 363 362 361 353
3530.0 362 363 357 359 357 369 356 365 364 383
3570.0 402 424 419 396 378 365 367 359 367 348
3610.0 358 372 364 366 367 378 379 360 367 371
3650.0 359 384 361 374 358 373 361 385 366 353
3690.0 380 365 371 362 362 356 369 373 355 355
3730.0 360 364 376 371 366 374 370 378 375 365
3770.0 366 377 368 376 383 376 354 356 372 384
3810.0 347 389 352 381 353 370 379 379 392 373
3850.0 365 379 395 372 386 380 357 379 387 382
3890.0 390 362 360 372 402 367 367 367 365 374
3930.0 348 399 375 382 379 379 355 359 368 420
##END=
