##TITLE=1-Octyn-3-0l
##JCAMP-DX=4.24
##DATA TYPE=INFRARED SPECTRUM
##ORIGIN=Sadtler Research Labs Under US-EPA Contract
##OWNER=NIST Standard Reference Data Program
##CAS REGISTRY NO=818-72-4
##MOLFORM=C 8 H 14 O
##XUNITS=1/CM
##YUNITS=ABSORBANCE
##XFACTOR=1.0
##YFACTOR=0.000071854
##DELTAX=4.0
##FIRSTX=450.0
##LASTX=3966.0
##FIRSTY=0.006970
##MAXX=3966
##MINX=450
##MAXY=0.71854
##MINY=0
##NPOINTS=880
##XYDATA=(X++(Y..Y))
450.0 97 25 8 34 4 25 80 89 79 101
490.0 69 31 49 20 38 65 85 74 104 94
530.0 138 218 388 549 648 731 660 562 435 355
570.0 224 203 151 128 104 84 96 56 95 113
610.0 268 495 1081 2051 3203 4405 5030 4254 3160 2506
650.0 2977 4317 4494 3351 2749 1497 834 544 294 246
690.0 98 136 60 78 53 94 82 113 149 173
730.0 194 177 177 123 110 81 79 64 92 89
770.0 82 84 68 65 56 74 76 94 97 108
810.0 112 120 130 122 127 126 124 104 110 119
850.0 136 162 182 194 201 247 292 359 388 397
890.0 422 418 415 396 392 385 386 410 451 503
930.0 570 636 686 728 741 735 718 687 666 675
970.0 682 730 805 905 1027 1150 1266 1361 1504 1710
1010.0 2025 2455 2954 3439 3829 4047 4056 3875 3586 3233
1050.0 2925 2661 2398 2117 1850 1615 1425 1261 1118 984
1090.0 857 765 726 741 812 905 1013 1087 1094 1050
1130.0 954 842 729 631 556 510 489 488 495 489
1170.0 473 448 452 467 498 531 564 602 643 686
1210.0 729 768 804 834 865 902 952 1045 1214 1493
1250.0 1878 2155 2199 2086 1813 1465 1233 1087 1014 976
1290.0 961 972 956 950 995 1107 1190 1249 1328 1337
1330.0 1322 1365 1434 1509 1577 1630 1669 1701 1763 1815
1370.0 1869 1910 1943 1906 1777 1580 1300 1043 851 710
1410.0 608 549 505 483 475 490 539 602 676 771
1450.0 891 1036 1187 1286 1306 1216 1045 831 610 430
1490.0 311 229 178 149 129 109 104 95 87 79
1530.0 67 72 58 58 47 47 37 39 38 36
1570.0 35 40 35 35 31 34 33 32 29 28
1610.0 25 28 26 23 18 23 15 19 18 15
1650.0 14 22 13 20 21 25 31 42 53 88
1690.0 121 168 216 244 248 231 189 137 100 75
1730.0 64 66 72 82 104 123 132 117 91 80
1770.0 71 77 69 67 59 55 46 42 32 27
1810.0 21 16 13 8 12 6 9 8 9 7
1850.0 9 8 7 11 10 7 8 9 6 7
1890.0 5 6 8 4 5 5 3 4 2 7
1930.0 7 6 7 6 6 6 4 7 10 8
1970.0 6 5 7 9 7 11 15 12 13 14
2010.0 13 17 20 21 26 27 27 31 31 32
2050.0 35 33 34 32 33 32 34 39 47 56
2090.0 72 82 93 90 86 74 68 61 56 46
2130.0 35 26 20 17 12 12 12 9 8 6
2170.0 6 5 4 3 4 4 4 4 7 2
2210.0 2 1 3 5 6 5 3 4 6 7
2250.0 6 5 10 9 8 13 15 15 15 19
2290.0 23 30 36 39 47 52 58 61 68 65
2330.0 77 79 61 102 65 68 98 76 105 97
2370.0 74 63 57 43 33 28 25 25 25 27
2410.0 25 20 20 21 20 21 17 19 17 21
2450.0 22 19 20 20 21 18 18 21 18 19
2490.0 18 16 20 19 17 16 20 21 27 27
2530.0 30 31 29 34 34 34 37 39 42 43
2570.0 46 51 51 53 55 58 60 62 65 63
2610.0 64 68 73 70 73 77 82 85 90 92
2650.0 95 102 106 106 119 135 135 136 132 133
2690.0 132 135 129 125 119 118 120 118 129 135
2730.0 143 152 168 173 177 175 166 157 153 152
2770.0 157 157 163 177 190 204 225 245 262 282
2810.0 299 321 348 381 419 469 538 641 785 1011
2850.0 1366 1877 2519 3209 3855 4309 4520 4660 4591 4302
2890.0 3964 3526 3203 3182 3378 3755 4325 5071 6015 7076
2930.0 8116 8979 9696 10000 9865 9320 8562 7995 7854 8123
2970.0 7948 6998 5528 3687 2284 1524 1111 872 720 618
3010.0 537 482 442 400 370 345 314 285 253 223
3050.0 204 184 169 162 148 142 139 131 129 119
3090.0 116 112 109 99 97 91 89 80 81 76
3130.0 73 70 66 61 61 61 57 55 59 60
3170.0 55 53 52 51 50 47 43 44 40 39
3210.0 30 29 22 17 16 14 7 6 14 9
3250.0 13 10 27 30 45 60 78 118 177 242
3290.0 296 416 586 955 1165 1413 1792 2313 3829 4267
3330.0 4209 3892 1879 851 492 278 225 178 184 140
3370.0 131 95 83 53 50 48 41 39 30 34
3410.0 26 29 21 26 18 29 25 24 20 18
3450.0 21 17 27 16 20 23 24 15 23 31
3490.0 33 36 34 40 25 42 31 42 33 19
3530.0 19 21 14 10 6 1 20 4 8 0
3570.0 8 21 23 25 9 12 13 9 13 20
3610.0 29 36 62 82 138 213 364 643 1110 1594
3650.0 1906 1953 1627 1116 687 376 213 141 96 70
3690.0 35 39 36 30 28 15 16 25 11 11
3730.0 10 10 2 23 1 10 13 24 41 30
3770.0 25 37 46 45 39 43 55 48 46 36
3810.0 29 35 5 22 12 12 20 18 18 28
3850.0 22 17 17 20 24 32 16 33 18 19
3890.0 25 14 18 13 7 16 20 16 16 12
3930.0 10 27 41 42 33 24 29 25 16 20
##END=
