##TITLE=Benzene, pentachloronitro-
##JCAMP-DX=4.24
##DATA TYPE=INFRARED SPECTRUM
##ORIGIN=Sadtler Research Labs Under US-EPA Contract
##OWNER=NIST Standard Reference Data Program
##CAS REGISTRY NO=82-68-8
##MOLFORM=C 6 Cl 5 N O 2
##XUNITS=1/CM
##YUNITS=ABSORBANCE
##XFACTOR=1.0
##YFACTOR=0.000103476
##DELTAX=4.0
##FIRSTX=450.0
##LASTX=3966.0
##FIRSTY=0.000414
##MAXX=3966
##MINX=450
##MAXY=1.03476
##MINY=0
##NPOINTS=880
##XYDATA=(X++(Y..Y))
450.0 4 192 305 61 116 276 211 172 122 18
490.0 123 147 13 140 136 125 110 44 45 75
530.0 38 46 67 78 99 272 290 346 228 130
570.0 112 104 84 107 113 113 108 136 122 106
610.0 118 118 122 147 124 145 178 190 259 483
650.0 1289 2710 3910 3247 2064 1571 1863 1925 1682 1456
690.0 1106 740 502 362 306 257 217 176 149 140
730.0 85 85 115 96 97 93 64 64 59 94
770.0 164 296 559 881 1151 1043 718 410 293 275
810.0 249 183 134 108 79 92 107 119 111 104
850.0 113 108 109 113 101 85 93 81 69 64
890.0 75 93 123 150 183 254 352 549 816 1023
930.0 1002 710 380 202 141 124 90 80 71 57
970.0 65 51 61 88 86 80 75 80 74 74
1010.0 87 84 92 97 93 107 102 97 96 86
1050.0 82 78 74 61 57 69 63 62 47 47
1090.0 49 51 65 90 76 93 145 247 352 363
1130.0 247 97 44 35 31 48 47 49 64 61
1170.0 73 74 87 113 149 186 216 246 285 315
1210.0 373 468 568 585 504 381 285 216 173 125
1250.0 115 96 88 82 71 79 81 95 110 131
1290.0 180 230 321 483 704 1030 1504 2240 3339 4947
1330.0 6543 7359 6638 4985 3841 3486 3727 4461 5446 5943
1370.0 4350 2368 1112 580 399 305 287 255 203 171
1410.0 151 150 207 214 196 216 229 175 149 98
1450.0 85 151 131 155 74 131 172 148 145 145
1490.0 236 210 299 450 565 812 660 688 701 569
1530.0 548 508 531 609 654 1015 1752 3220 6154 8039
1570.0 10000 7748 4083 2057 1120 711 555 421 335 299
1610.0 289 374 521 606 613 502 342 253 150 122
1650.0 222 139 165 41 105 77 106 54 110 124
1690.0 67 78 148 160 107 83 82 157 76 26
1730.0 105 91 109 52 69 96 52 62 59 48
1770.0 70 93 50 47 42 63 55 65 41 35
1810.0 46 34 38 34 51 70 22 38 22 69
1850.0 14 21 29 2 41 35 28 15 14 18
1890.0 32 23 24 19 23 24 20 39 29 28
1930.0 21 20 24 25 25 20 16 27 10 29
1970.0 18 21 21 17 26 24 26 22 22 25
2010.0 25 28 31 31 30 26 25 19 13 11
2050.0 6 3 5 2 3 1 1 3 0 1
2090.0 6 3 4 4 7 8 9 7 7 10
2130.0 10 10 17 14 19 18 15 22 19 17
2170.0 22 21 20 17 19 18 19 25 19 26
2210.0 29 21 25 24 22 20 16 16 14 15
2250.0 17 16 17 14 12 9 10 15 12 25
2290.0 33 34 42 47 57 73 57 62 59 60
2330.0 57 33 92 8 91 34 130 31 111 102
2370.0 95 81 59 56 38 25 13 14 15 12
2410.0 16 14 14 14 11 16 15 16 17 14
2450.0 11 13 8 7 7 8 5 9 12 13
2490.0 15 18 16 17 9 11 9 9 8 7
2530.0 12 11 14 19 18 20 20 17 22 23
2570.0 24 25 27 27 24 22 24 23 22 19
2610.0 19 16 18 17 12 16 15 16 19 20
2650.0 23 21 26 30 29 34 36 36 40 46
2690.0 55 61 59 61 55 48 42 45 52 54
2730.0 63 64 69 67 62 56 48 44 41 37
2770.0 39 38 37 39 37 37 38 40 41 37
2810.0 35 34 32 33 32 30 32 29 34 29
2850.0 32 32 34 38 44 48 56 62 76 90
2890.0 107 120 124 114 99 92 92 91 97 98
2930.0 108 110 102 94 79 63 62 56 53 49
2970.0 49 50 50 53 45 45 40 39 41 34
3010.0 35 39 32 30 27 29 28 26 30 26
3050.0 21 23 22 26 24 23 20 22 22 18
3090.0 19 27 26 29 26 28 34 36 38 36
3130.0 37 42 39 37 35 37 40 40 41 41
3170.0 41 43 45 42 42 40 38 37 36 37
3210.0 26 33 30 30 28 26 23 24 21 16
3250.0 18 21 19 20 21 22 18 19 24 25
3290.0 24 29 25 23 27 29 32 29 37 29
3330.0 40 42 39 46 41 42 44 45 46 44
3370.0 42 46 46 39 44 43 48 40 43 45
3410.0 33 37 29 28 28 18 30 26 24 25
3450.0 22 22 24 20 22 28 26 17 32 28
3490.0 23 28 31 26 46 30 43 37 49 44
3530.0 47 40 45 46 58 33 72 33 67 47
3570.0 64 56 71 42 92 30 74 43 50 45
3610.0 57 70 50 73 25 92 36 53 5 87
3650.0 21 110 0 54 29 53 115 37 81 33
3690.0 109 28 56 47 49 72 86 35 90 41
3730.0 78 103 47 164 56 207 57 147 59 102
3770.0 77 56 73 82 64 102 54 121 69 142
3810.0 40 130 51 117 70 72 72 101 48 82
3850.0 46 108 66 42 72 45 76 24 48 34
3890.0 64 6 50 22 55 39 32 63 22 61
3930.0 33 50 59 62 86 45 87 54 69 106
##END=
