##TITLE=5-Hexen-1-ol
##JCAMP-DX=4.24
##DATA TYPE=INFRARED SPECTRUM
##ORIGIN=Sadtler Research Labs Under US-EPA Contract
##OWNER=NIST Standard Reference Data Program
##CAS REGISTRY NO=821-41-0
##MOLFORM=C 6 H 12 O
##XUNITS=1/CM
##YUNITS=ABSORBANCE
##XFACTOR=1.0
##YFACTOR=0.000116852
##DELTAX=4.0
##FIRSTX=450.0
##LASTX=3966.0
##FIRSTY=0.000000
##MAXX=3966
##MINX=450
##MAXY=1.16852
##MINY=0
##NPOINTS=880
##XYDATA=(X++(Y..Y))
450.0 0 63 16 107 166 129 261 74 195 104
490.0 170 193 231 178 250 249 192 165 101 118
530.0 151 121 82 96 140 183 158 105 151 130
570.0 127 87 89 125 85 111 115 98 147 214
610.0 255 317 314 362 480 514 531 499 437 319
650.0 253 244 236 210 183 185 159 121 166 137
690.0 126 118 94 103 140 149 115 135 98 115
730.0 109 177 226 198 228 274 199 191 187 140
770.0 134 118 182 176 144 172 202 195 250 261
810.0 255 278 268 313 302 341 337 334 364 435
850.0 475 473 525 556 588 587 611 603 675 791
890.0 978 1235 1544 2066 2711 3261 3584 3667 3390 2897
930.0 2355 1976 1672 1475 1325 1232 1200 1169 1206 1253
970.0 1309 1444 1628 1889 2204 2429 2562 2652 2695 2610
1010.0 2611 2724 2864 3132 3473 3836 4186 4422 4630 4708
1050.0 4679 4668 4605 4449 4244 3894 3439 2957 2473 2036
1090.0 1652 1400 1202 1058 960 874 797 727 720 703
1130.0 678 656 633 643 654 630 650 635 643 665
1170.0 665 659 663 676 696 704 717 719 764 785
1210.0 802 823 830 842 884 881 896 926 939 942
1250.0 906 894 875 857 841 817 806 812 819 805
1290.0 800 803 803 777 753 739 714 713 699 722
1330.0 738 758 803 827 857 881 872 879 879 917
1370.0 963 1049 1167 1234 1347 1342 1328 1261 1113 1005
1410.0 902 888 817 850 844 894 970 1054 1126 1188
1450.0 1229 1225 1127 1009 922 835 776 681 589 521
1490.0 407 346 237 202 201 177 151 153 129 143
1530.0 123 127 121 131 123 107 123 116 106 86
1570.0 79 73 93 68 95 73 97 94 115 143
1610.0 146 205 287 339 447 624 881 1156 1283 1189
1650.0 1215 905 446 327 196 152 138 81 98 70
1690.0 60 57 49 90 43 56 43 43 57 32
1730.0 47 39 52 46 37 50 39 37 42 42
1770.0 46 46 39 46 42 57 45 67 62 86
1810.0 92 132 180 225 297 315 310 287 234 208
1850.0 135 103 76 53 61 37 54 36 41 39
1890.0 43 35 36 42 33 38 34 40 31 35
1930.0 29 38 38 36 47 32 38 40 45 58
1970.0 62 70 64 75 67 53 56 43 48 46
2010.0 43 46 43 51 46 49 52 52 56 58
2050.0 53 59 50 48 49 45 45 45 44 45
2090.0 42 39 37 34 33 28 26 27 27 22
2130.0 24 20 18 22 19 18 18 18 20 20
2170.0 18 21 20 19 19 20 24 21 19 19
2210.0 18 18 21 20 19 19 21 23 23 27
2250.0 25 25 28 26 25 29 30 27 30 34
2290.0 34 40 41 40 45 44 46 52 49 42
2330.0 35 39 48 48 52 40 55 47 56 48
2370.0 46 48 43 44 41 39 34 38 39 38
2410.0 39 40 40 38 40 38 39 39 37 37
2450.0 37 37 37 35 36 34 35 34 34 33
2490.0 36 36 35 36 37 39 41 44 41 45
2530.0 46 45 46 45 49 46 46 48 47 47
2570.0 47 49 49 51 51 51 53 54 62 64
2610.0 65 66 67 76 78 86 89 92 98 102
2650.0 108 115 121 125 133 136 145 154 163 162
2690.0 169 177 179 183 187 192 203 209 216 226
2730.0 238 247 258 270 284 294 302 316 331 344
2770.0 355 368 386 395 416 429 448 464 483 504
2810.0 530 572 615 682 776 906 1087 1335 1634 1991
2850.0 2389 2811 3257 3681 4061 4401 4678 4838 4862 4792
2890.0 4692 4603 4598 4741 5086 5569 6173 6859 7643 8438
2930.0 9157 9690 10000 9877 9317 8414 7364 6302 5301 4434
2970.0 3736 3196 2800 2521 2297 2118 1959 1830 1709 1580
3010.0 1444 1293 1102 895 738 623 538 499 477 471
3050.0 487 525 591 682 808 952 1139 1433 1767 1883
3090.0 1801 1713 1381 927 594 412 297 224 180 159
3130.0 134 128 117 108 98 91 86 82 76 77
3170.0 68 68 64 60 50 49 49 42 42 44
3210.0 37 41 39 36 34 37 30 30 27 29
3250.0 27 26 27 26 22 27 32 33 30 25
3290.0 24 26 22 21 18 24 20 19 24 29
3330.0 21 26 29 28 20 22 25 27 25 25
3370.0 32 33 27 33 30 32 29 41 41 40
3410.0 40 48 49 48 62 52 51 60 54 62
3450.0 60 60 66 66 62 63 69 72 71 66
3490.0 68 59 67 60 65 66 67 61 66 62
3530.0 61 54 53 43 66 60 66 41 66 57
3570.0 91 58 68 54 81 79 93 65 94 82
3610.0 112 132 133 168 153 219 242 300 379 455
3650.0 640 831 935 1171 1292 1381 1387 1204 1078 806
3690.0 552 389 253 209 172 133 123 86 93 88
3730.0 68 78 72 70 52 65 36 61 32 43
3770.0 34 37 22 40 27 18 26 20 18 38
3810.0 20 23 18 42 31 23 38 25 32 41
3850.0 18 31 37 21 18 29 46 30 40 51
3890.0 16 20 35 20 19 18 17 40 18 18
3930.0 19 17 18 17 40 18 23 18 18 39
##END=
