##TITLE=1,9-Dichlorononane
##JCAMP-DX=4.24
##DATA TYPE=INFRARED SPECTRUM
##ORIGIN=Sadtler Research Labs Under US-EPA Contract
##OWNER=NIST Standard Reference Data Program
##CAS REGISTRY NO=821-99-8
##MOLFORM=C 9 H 18 Cl 2
##XUNITS=1/CM
##YUNITS=ABSORBANCE
##XFACTOR=1.0
##YFACTOR=0.000068317
##DELTAX=4.0
##FIRSTX=450.0
##LASTX=3966.0
##FIRSTY=0.000000
##MAXX=3966
##MINX=450
##MAXY=0.68317
##MINY=0
##NPOINTS=880
##XYDATA=(X++(Y..Y))
450.0 0 129 161 84 140 127 143 167 103 111
490.0 137 157 142 128 147 113 119 145 155 101
530.0 92 136 151 183 201 207 119 124 138 138
570.0 159 182 133 146 146 132 126 143 175 148
610.0 184 169 206 201 224 258 302 344 428 555
650.0 685 908 1187 1311 1287 959 684 526 429 399
690.0 357 402 397 417 472 557 732 914 1017 1175
730.0 1250 1357 1443 1717 1445 1224 1127 1014 948 855
770.0 696 630 539 505 447 436 399 379 371 359
810.0 365 341 345 329 336 319 302 278 276 279
850.0 278 272 277 286 275 277 277 275 267 275
890.0 285 285 285 281 278 281 290 285 284 276
930.0 273 260 255 248 246 244 236 242 236 233
970.0 244 252 257 259 262 260 253 246 252 232
1010.0 230 224 222 229 237 242 244 246 256 264
1050.0 258 246 239 229 220 206 197 189 178 169
1090.0 175 164 162 148 139 131 138 137 131 122
1130.0 123 126 135 137 131 138 147 144 139 152
1170.0 155 148 156 163 168 167 168 170 168 161
1210.0 160 167 180 206 223 252 282 320 362 417
1250.0 484 554 609 660 729 819 924 1040 1153 1279
1290.0 1390 1463 1457 1428 1388 1351 1265 1156 1039 907
1330.0 766 638 562 539 564 585 600 574 523 459
1370.0 419 377 325 268 224 200 188 183 181 191
1410.0 194 211 226 265 320 417 544 687 868 1088
1450.0 1396 1528 1495 1375 1225 1007 751 535 388 278
1490.0 215 171 154 144 147 138 137 133 130 127
1530.0 118 118 115 115 103 109 102 108 103 99
1570.0 101 98 96 90 88 81 74 72 72 80
1610.0 80 88 87 85 89 90 89 89 85 89
1650.0 90 86 87 85 87 89 90 84 84 86
1690.0 84 87 92 90 90 92 91 87 89 91
1730.0 92 93 92 90 91 88 89 87 89 88
1770.0 88 90 85 86 82 87 84 85 85 85
1810.0 85 87 83 84 86 86 85 85 90 84
1850.0 82 86 84 80 83 83 80 85 82 82
1890.0 82 84 82 81 82 81 83 79 83 80
1930.0 81 78 82 80 81 81 80 79 83 80
1970.0 82 83 80 82 78 77 78 83 84 83
2010.0 83 83 84 89 87 90 93 94 90 92
2050.0 92 94 91 89 87 88 86 85 84 85
2090.0 88 85 86 85 85 85 83 87 85 83
2130.0 83 86 83 84 86 82 84 85 86 91
2170.0 90 86 90 89 91 90 92 90 90 91
2210.0 89 91 89 87 89 87 87 90 89 89
2250.0 90 88 89 88 92 92 90 94 92 94
2290.0 98 100 101 102 103 110 102 105 95 92
2330.0 91 80 79 81 90 97 97 93 79 81
2370.0 83 86 90 92 92 90 87 87 90 86
2410.0 86 84 81 80 81 80 79 78 78 78
2450.0 79 81 82 79 81 79 84 83 83 87
2490.0 84 86 88 88 89 90 93 95 94 95
2530.0 96 96 96 93 93 94 94 94 92 96
2570.0 88 92 89 95 97 100 99 102 104 104
2610.0 111 110 111 116 119 121 124 123 126 131
2650.0 135 138 136 144 147 148 148 156 161 169
2690.0 173 176 174 172 166 159 160 160 162 160
2730.0 160 163 162 162 165 167 166 169 170 170
2770.0 177 177 185 189 202 215 228 244 265 283
2810.0 303 325 355 395 435 493 570 677 843 1097
2850.0 1497 2064 2842 3663 4173 4134 3673 3110 2598 2202
2890.0 1960 1910 2036 2324 2700 3133 3629 4286 5269 6590
2930.0 8089 9265 10000 9918 9033 7550 6091 5059 4621 4235
2970.0 3525 2725 2084 1674 1490 1530 1781 2067 1965 1469
3010.0 953 670 526 435 375 331 299 265 245 224
3050.0 205 194 182 166 159 152 144 133 126 124
3090.0 121 122 113 112 106 114 108 103 102 102
3130.0 103 101 103 100 97 97 98 100 97 100
3170.0 98 96 98 95 93 90 90 84 89 89
3210.0 85 88 84 86 83 88 83 86 81 79
3250.0 82 83 83 79 80 78 85 82 78 80
3290.0 79 82 85 82 82 83 81 82 79 83
3330.0 80 84 85 83 89 86 85 87 88 87
3370.0 83 83 88 76 87 89 83 82 85 84
3410.0 86 87 85 85 82 79 88 81 86 84
3450.0 77 82 83 79 90 81 79 84 84 82
3490.0 83 83 79 79 83 86 82 78 81 86
3530.0 82 81 79 79 77 78 83 82 92 90
3570.0 85 86 91 95 87 86 91 90 97 95
3610.0 91 110 98 107 102 94 102 103 97 109
3650.0 112 107 102 97 104 103 98 104 104 98
3690.0 100 85 97 93 96 89 90 85 94 96
3730.0 82 91 93 93 101 101 99 85 81 94
3770.0 91 91 91 103 103 90 98 96 104 85
3810.0 90 94 97 100 83 107 96 95 90 102
3850.0 96 101 109 104 103 100 95 101 103 100
3890.0 93 104 105 117 110 104 96 96 118 99
3930.0 109 101 103 105 109 97 102 96 92 99
##END=
