##TITLE=2-Nonanone
##JCAMP-DX=4.24
##DATA TYPE=INFRARED SPECTRUM
##ORIGIN=Sadtler Research Labs Under US-EPA Contract
##OWNER=NIST Standard Reference Data Program
##CAS REGISTRY NO=821-55-6
##MOLFORM=C 9 H 18 O
##XUNITS=1/CM
##YUNITS=ABSORBANCE
##XFACTOR=1.0
##YFACTOR=0.000081601
##DELTAX=4.0
##FIRSTX=450.0
##LASTX=3966.0
##FIRSTY=0.000245
##MAXX=3966
##MINX=450
##MAXY=0.81601
##MINY=0
##NPOINTS=880
##XYDATA=(X++(Y..Y))
450.0 3 90 81 138 42 67 35 154 107 127
490.0 35 58 195 111 166 211 291 252 305 243
530.0 279 216 273 148 203 207 129 123 166 165
570.0 134 254 193 209 281 294 434 338 281 192
610.0 161 120 144 87 98 149 42 48 67 81
650.0 36 47 55 41 55 103 57 70 59 49
690.0 109 57 112 134 184 235 272 310 283 289
730.0 210 224 189 161 125 107 97 79 96 93
770.0 108 76 99 89 96 61 59 100 63 70
810.0 64 71 50 63 59 45 71 62 73 63
850.0 73 49 60 56 69 78 74 91 96 111
890.0 115 122 105 113 127 131 137 158 176 169
930.0 198 217 255 273 309 326 334 351 346 346
970.0 319 297 258 240 202 192 174 165 152 148
1010.0 156 147 162 143 145 141 143 142 139 155
1050.0 151 160 161 167 169 183 194 206 223 242
1090.0 268 283 320 335 364 383 405 429 441 477
1130.0 501 572 655 800 997 1320 1751 2162 2354 2213
1170.0 1843 1438 1211 1082 1022 964 936 919 900 931
1210.0 942 966 955 933 865 796 719 657 614 574
1250.0 556 532 531 538 543 530 507 485 467 479
1290.0 493 526 533 545 539 537 535 539 560 586
1330.0 655 741 880 1047 1315 1660 2131 2606 2881 2807
1370.0 2429 1965 1565 1271 1062 903 748 664 627 646
1410.0 710 769 829 844 862 841 833 831 882 952
1450.0 1052 1176 1262 1327 1279 1161 984 769 580 430
1490.0 336 263 244 214 181 184 192 170 158 168
1530.0 159 153 137 137 131 132 129 104 104 115
1570.0 107 89 98 92 91 81 84 78 76 82
1610.0 73 73 60 79 70 80 72 75 86 80
1650.0 98 76 128 130 163 181 213 270 337 408
1690.0 529 682 794 1031 1271 1641 2094 2830 3734 4740
1730.0 5639 5929 5564 4651 3535 2573 1861 1407 1131 964
1770.0 863 759 703 621 545 443 368 298 237 194
1810.0 155 132 106 101 81 65 63 60 55 47
1850.0 54 48 41 43 41 40 41 39 38 41
1890.0 35 34 30 35 33 31 28 29 27 26
1930.0 28 31 28 25 28 35 34 32 35 30
1970.0 29 25 28 28 26 23 19 23 27 24
2010.0 23 20 26 28 24 27 25 30 25 27
2050.0 26 27 5 6 27 32 43 48 50 47
2090.0 46 43 38 37 46 43 41 42 43 41
2130.0 46 49 45 49 42 43 49 42 42 43
2170.0 46 41 41 43 38 34 39 36 39 32
2210.0 34 32 32 35 38 32 30 37 32 31
2250.0 28 35 34 33 31 32 33 30 27 21
2290.0 22 24 28 29 17 15 28 28 23 29
2330.0 20 34 19 22 40 30 21 35 24 24
2370.0 41 43 48 40 42 33 38 34 30 31
2410.0 35 28 27 20 23 24 27 23 29 25
2450.0 23 22 19 24 28 28 24 22 27 31
2490.0 32 32 30 32 35 35 41 39 39 38
2530.0 42 39 40 35 40 36 39 37 37 37
2570.0 40 41 40 46 49 56 54 55 57 55
2610.0 63 58 74 75 78 82 95 103 106 92
2650.0 90 95 104 119 125 136 143 146 141 136
2690.0 131 124 136 122 112 112 107 109 110 124
2730.0 128 133 153 170 170 174 160 161 162 164
2770.0 166 176 183 198 210 226 255 286 302 334
2810.0 363 399 435 483 515 567 633 740 897 1156
2850.0 1559 2148 2867 3534 4007 4144 3998 3773 3615 3405
2890.0 3240 3087 3078 3258 3530 3956 4574 5449 6613 7945
2930.0 9137 9877 10000 9500 8612 7503 6568 6078 6020 6303
2970.0 6233 5476 4191 2849 1947 1458 1171 1036 930 913
3010.0 896 853 777 677 604 520 468 430 417 391
3050.0 366 354 338 330 323 312 306 285 272 268
3090.0 252 237 237 223 215 198 191 188 178 171
3130.0 168 165 164 160 164 166 172 156 163 162
3170.0 161 151 177 152 167 154 151 150 157 155
3210.0 142 154 152 148 140 146 145 145 139 134
3250.0 131 136 140 134 129 136 131 117 110 98
3290.0 108 96 99 121 100 112 110 115 115 102
3330.0 119 106 133 110 98 124 119 126 135 120
3370.0 120 113 122 123 119 130 122 144 134 119
3410.0 139 126 145 132 172 154 171 199 175 165
3450.0 200 178 161 168 156 135 104 101 118 93
3490.0 72 104 97 78 67 75 77 98 85 76
3530.0 75 72 98 81 103 81 63 67 96 111
3570.0 161 191 177 155 127 96 73 52 59 37
3610.0 57 65 60 52 45 49 47 52 47 55
3650.0 63 53 32 32 38 34 44 19 43 24
3690.0 17 26 31 23 10 31 22 37 53 60
3730.0 33 34 31 18 0 36 8 7 17 48
3770.0 45 7 26 45 23 16 19 14 18 2
3810.0 42 31 39 41 29 50 49 27 30 41
3850.0 51 2 22 8 26 61 50 77 63 57
3890.0 58 27 55 39 66 44 58 63 46 48
3930.0 59 51 41 56 55 94 83 60 12 64
##END=
