##TITLE=4-Penten-1-ol
##JCAMP-DX=4.24
##DATA TYPE=INFRARED SPECTRUM
##ORIGIN=Sadtler Research Labs Under US-EPA Contract
##OWNER=NIST Standard Reference Data Program
##CAS REGISTRY NO=821-09-0
##MOLFORM=C 5 H 10 O
##XUNITS=1/CM
##YUNITS=ABSORBANCE
##XFACTOR=1.0
##YFACTOR=0.000073752
##DELTAX=4.0
##FIRSTX=450.0
##LASTX=3966.0
##FIRSTY=0.000000
##MAXX=3966
##MINX=450
##MAXY=0.73752
##MINY=0
##NPOINTS=880
##XYDATA=(X++(Y..Y))
450.0 0 247 244 307 315 478 310 526 310 505
490.0 273 472 361 146 351 315 189 149 300 218
530.0 316 295 216 274 350 380 313 361 308 327
570.0 277 294 186 252 291 215 465 322 436 394
610.0 566 637 701 805 882 1014 906 880 819 810
650.0 612 551 485 411 413 318 346 251 316 263
690.0 285 262 268 275 220 242 197 204 188 220
730.0 194 138 95 199 222 199 251 221 278 262
770.0 291 281 293 256 246 298 228 270 208 266
810.0 248 283 307 346 382 399 493 520 584 602
850.0 672 676 706 742 756 827 901 1063 1187 1472
890.0 1774 2193 2672 3349 4096 4556 4996 5159 4904 4587
930.0 3974 3321 2855 2467 2165 1917 1731 1641 1564 1588
970.0 1652 1829 2051 2344 2682 2971 3291 3514 3761 3975
1010.0 4263 4534 4868 5149 5350 5486 5660 5915 6163 6596
1050.0 7014 7427 7524 7350 6883 6198 5427 4596 3887 3198
1090.0 2679 2234 1936 1705 1529 1445 1354 1310 1254 1218
1130.0 1133 1101 1047 1012 1004 990 998 981 1009 1010
1170.0 1021 1036 1058 1066 1071 1095 1087 1100 1096 1112
1210.0 1094 1111 1108 1113 1124 1123 1159 1144 1191 1209
1250.0 1240 1250 1273 1286 1266 1278 1246 1235 1208 1211
1290.0 1190 1170 1141 1119 1086 1046 1026 997 995 988
1330.0 1032 1053 1095 1151 1192 1218 1240 1275 1287 1347
1370.0 1398 1502 1626 1754 1832 1833 1812 1731 1613 1467
1410.0 1382 1318 1242 1237 1278 1355 1413 1519 1578 1622
1450.0 1589 1530 1383 1240 1120 1017 931 841 773 681
1490.0 585 463 373 307 266 240 215 209 196 208
1530.0 195 208 208 205 206 208 198 176 189 167
1570.0 163 160 171 155 165 180 179 207 225 267
1610.0 295 361 423 553 739 1034 1388 1652 1757 1710
1650.0 1694 1505 1003 581 374 291 226 202 161 147
1690.0 145 142 131 118 123 124 133 110 126 119
1730.0 126 106 114 115 100 104 112 104 100 115
1770.0 110 105 112 112 117 117 127 128 145 166
1810.0 194 237 295 371 441 480 480 482 448 381
1850.0 300 242 198 172 158 137 134 124 126 120
1890.0 121 120 125 126 126 132 128 127 114 126
1930.0 125 125 126 123 129 131 142 140 158 156
1970.0 172 174 168 164 156 154 133 128 121 117
2010.0 114 111 116 111 113 112 126 123 133 136
2050.0 146 150 145 151 149 150 138 142 132 133
2090.0 126 123 121 117 120 112 117 106 107 109
2130.0 105 100 103 107 97 102 97 108 98 98
2170.0 101 94 98 95 100 92 102 95 100 103
2210.0 101 94 92 95 91 91 91 97 100 106
2250.0 104 108 110 102 112 108 113 118 117 122
2290.0 126 132 127 134 135 137 128 139 130 129
2330.0 131 112 126 110 135 110 121 110 115 126
2370.0 137 131 124 133 124 127 119 122 118 120
2410.0 126 123 125 119 129 125 125 126 131 127
2450.0 128 132 123 128 128 134 124 130 128 126
2490.0 124 122 129 130 130 124 130 122 115 114
2530.0 112 120 115 122 125 130 123 124 126 122
2570.0 124 127 130 121 125 121 130 126 131 134
2610.0 133 151 148 160 147 158 160 171 184 189
2650.0 203 202 220 222 225 226 252 258 271 291
2690.0 300 325 325 352 354 366 357 361 376 371
2730.0 384 386 411 418 432 437 460 476 489 499
2770.0 525 542 556 581 578 594 610 630 651 663
2810.0 699 751 799 873 999 1147 1367 1636 1959 2320
2850.0 2693 3100 3491 3892 4294 4670 5047 5318 5459 5603
2890.0 5636 5629 5623 5707 5978 6371 6952 7545 8108 8682
2930.0 9304 9789 10000 9946 9619 9051 8261 7335 6470 5618
2970.0 4901 4335 3905 3511 3214 2978 2768 2612 2450 2287
3010.0 2045 1833 1636 1383 1150 971 831 759 724 745
3050.0 770 822 929 1066 1221 1407 1710 2121 2446 2640
3090.0 2519 2356 2191 1661 1109 773 550 435 347 295
3130.0 260 250 234 224 206 207 206 189 178 177
3170.0 171 170 147 164 141 167 165 147 141 152
3210.0 145 131 155 135 152 125 137 161 143 136
3250.0 156 131 149 132 120 144 136 140 129 122
3290.0 137 118 98 105 123 132 132 109 110 101
3330.0 115 108 101 118 101 113 112 111 134 109
3370.0 104 97 94 124 124 104 120 148 128 92
3410.0 147 168 116 137 158 149 114 130 132 128
3450.0 140 118 129 121 130 141 157 152 163 122
3490.0 107 144 140 154 140 131 147 124 116 140
3530.0 124 114 119 133 130 132 127 163 140 172
3570.0 153 147 140 143 137 181 169 179 180 193
3610.0 223 252 343 412 461 528 608 687 798 941
3650.0 1096 1271 1434 1679 1844 1950 1900 1684 1513 1296
3690.0 961 700 524 379 298 274 210 172 167 172
3730.0 168 197 136 150 181 175 118 134 139 112
3770.0 138 125 128 135 159 113 159 181 168 193
3810.0 153 155 115 153 134 127 104 141 152 182
3850.0 142 163 180 186 153 133 196 171 90 219
3890.0 147 156 199 139 161 167 212 156 92 90
3930.0 98 122 108 125 168 118 137 173 146 121
##END=
