##TITLE=2-Cyclohexen-1-ol
##JCAMP-DX=4.24
##DATA TYPE=INFRARED SPECTRUM
##ORIGIN=Sadtler Research Labs Under US-EPA Contract
##OWNER=NIST Standard Reference Data Program
##CAS REGISTRY NO=822-67-3
##MOLFORM=C 6 H 10 O
##XUNITS=1/CM
##YUNITS=ABSORBANCE
##XFACTOR=1.0
##YFACTOR=0.000118515
##DELTAX=4.0
##FIRSTX=450.0
##LASTX=3966.0
##FIRSTY=0.025007
##MAXX=3966
##MINX=450
##MAXY=1.18515
##MINY=0
##NPOINTS=880
##XYDATA=(X++(Y..Y))
450.0 211 280 308 259 255 244 283 205 298 293
490.0 133 135 86 147 113 8 82 87 139 71
530.0 158 167 211 249 314 375 411 479 422 431
570.0 332 286 232 173 148 153 99 80 90 45
610.0 64 32 59 11 62 89 84 82 79 138
650.0 164 244 281 333 396 500 485 419 364 316
690.0 306 289 338 415 619 804 1010 1114 1445 2113
730.0 1876 1195 1057 917 703 430 261 146 96 74
770.0 78 79 108 163 176 264 307 389 510 520
810.0 401 359 330 296 270 258 312 357 396 442
850.0 489 481 510 516 519 514 547 650 655 648
890.0 712 924 878 789 843 866 1030 1071 904 927
930.0 924 951 1058 1236 1503 1825 2232 2600 2823 2743
970.0 2525 2367 1975 1553 1316 1131 1017 933 923 868
1010.0 817 808 830 948 1211 1639 2178 2872 3667 4491
1050.0 5267 5728 5859 5720 5369 4490 3458 2638 1901 1341
1090.0 953 731 607 512 472 455 470 482 503 538
1130.0 575 628 661 715 785 837 921 992 1056 1065
1170.0 1053 1020 1014 986 977 1004 1060 1132 1265 1411
1210.0 1451 1462 1474 1393 1366 1255 1129 1084 1060 1038
1250.0 990 949 898 834 768 696 628 582 548 528
1290.0 519 523 546 595 654 742 831 923 1014 1112
1330.0 1185 1223 1255 1279 1280 1289 1315 1332 1371 1337
1370.0 1295 1262 1232 1256 1280 1291 1292 1275 1244 1144
1410.0 1033 900 782 762 819 932 1064 1125 1296 1351
1450.0 1306 1375 1196 927 800 655 530 377 275 187
1490.0 147 114 107 94 91 101 97 97 104 99
1530.0 97 86 88 78 72 61 58 49 53 40
1570.0 45 33 52 38 34 38 40 49 50 59
1610.0 61 70 82 91 115 148 207 271 332 371
1650.0 385 391 378 323 254 196 162 175 181 227
1690.0 254 287 333 362 339 332 296 281 255 184
1730.0 153 139 139 127 115 99 88 74 70 67
1770.0 74 76 71 70 65 69 65 61 61 62
1810.0 51 54 48 45 43 37 36 38 38 46
1850.0 52 58 63 62 60 54 53 48 47 41
1890.0 40 44 46 46 47 48 52 64 58 62
1930.0 62 63 60 60 56 53 49 43 45 37
1970.0 42 36 41 38 42 44 44 47 51 56
2010.0 57 54 57 53 49 43 37 24 15 17
2050.0 20 19 12 12 8 3 0 4 11 24
2090.0 37 45 52 59 62 64 61 57 58 55
2130.0 55 57 52 51 50 52 49 48 45 47
2170.0 46 46 46 44 45 43 49 48 49 46
2210.0 49 49 45 46 44 44 41 45 44 42
2250.0 38 38 37 36 40 32 34 38 33 33
2290.0 29 28 24 17 11 8 0 5 10 11
2330.0 14 29 25 42 55 21 0 0 53 102
2370.0 116 115 107 91 72 64 56 53 52 52
2410.0 47 43 47 43 42 41 38 38 42 33
2450.0 32 33 31 31 31 35 32 34 34 35
2490.0 34 33 38 38 43 41 37 38 40 34
2530.0 31 30 32 28 31 34 28 27 28 31
2570.0 30 32 37 41 43 51 64 65 78 84
2610.0 96 100 103 106 110 111 114 122 130 144
2650.0 163 179 193 191 184 164 151 131 120 110
2690.0 110 114 107 111 109 110 109 112 111 106
2730.0 106 104 104 102 111 112 115 123 136 148
2770.0 157 174 185 193 199 216 223 241 251 265
2810.0 280 299 341 393 520 741 1109 1531 1949 2385
2850.0 2702 3121 3319 3469 3531 3508 3541 3540 3445 3334
2890.0 3332 3381 3363 3483 3633 3970 4725 5707 6246 6864
2930.0 7504 8522 10000 9969 9597 9261 7947 7247 6301 4657
2970.0 3113 2028 1340 929 709 585 519 474 480 518
3010.0 666 933 1358 1866 2335 2664 2497 2586 2695 2205
3050.0 1692 1189 820 585 445 372 317 271 208 149
3090.0 101 70 57 50 36 30 36 25 32 44
3130.0 43 37 42 49 42 41 35 41 46 43
3170.0 48 43 46 51 61 55 65 65 72 65
3210.0 72 75 65 67 68 61 55 36 41 18
3250.0 23 12 8 6 4 7 8 20 22 27
3290.0 10 33 41 33 46 49 48 51 34 43
3330.0 36 40 24 20 8 8 21 11 6 10
3370.0 12 14 25 29 32 38 45 47 50 48
3410.0 57 54 47 40 30 35 36 25 32 37
3450.0 42 31 37 38 43 44 52 46 48 42
3490.0 45 52 46 51 44 42 56 38 44 37
3530.0 49 36 68 38 40 51 19 38 51 47
3570.0 23 28 32 52 59 84 74 73 69 82
3610.0 135 154 206 289 376 570 773 859 978 1253
3650.0 1156 980 917 762 591 410 239 174 116 87
3690.0 72 65 38 56 46 58 56 50 33 38
3730.0 32 50 68 67 81 52 62 61 74 67
3770.0 67 71 61 42 49 61 68 81 59 62
3810.0 63 71 44 46 48 35 45 57 61 84
3850.0 14 34 64 57 80 76 93 79 76 55
3890.0 36 55 60 91 84 84 86 108 109 102
3930.0 123 112 73 61 80 58 59 32 47 52
##END=
