##TITLE=Hexane, 1,6-diisocyanato-
##JCAMP-DX=4.24
##DATA TYPE=INFRARED SPECTRUM
##ORIGIN=Sadtler Research Labs Under US-EPA Contract
##OWNER=NIST Standard Reference Data Program
##CAS REGISTRY NO=822-06-0
##MOLFORM=C 8 H 12 N 2 O 2
##XUNITS=1/CM
##YUNITS=ABSORBANCE
##XFACTOR=1.0
##YFACTOR=0.000089703
##DELTAX=4.0
##FIRSTX=450.0
##LASTX=3966.0
##FIRSTY=0.000000
##MAXX=3966
##MINX=450
##MAXY=0.89703
##MINY=0
##NPOINTS=880
##XYDATA=(X++(Y..Y))
450.0 0 553 559 477 622 654 620 753 660 655
490.0 829 582 753 703 679 600 578 607 592 674
530.0 691 560 553 583 585 653 601 552 599 554
570.0 572 608 596 570 574 623 671 785 762 743
610.0 830 830 843 742 681 697 711 679 778 655
650.0 720 776 709 652 761 908 763 565 724 720
690.0 682 659 640 650 745 607 553 653 642 591
730.0 484 602 504 618 564 563 527 567 565 517
770.0 518 474 573 524 519 589 613 533 591 604
810.0 571 542 521 524 523 581 547 551 502 523
850.0 555 551 532 523 556 579 602 622 605 590
890.0 567 586 582 571 546 509 547 538 533 494
930.0 514 537 533 557 521 542 540 531 551 547
970.0 532 566 557 525 550 509 528 523 525 556
1010.0 546 580 553 525 513 550 522 521 535 488
1050.0 511 517 506 541 534 509 514 498 519 500
1090.0 519 515 514 504 528 496 477 500 495 496
1130.0 526 520 525 534 541 518 494 505 508 521
1170.0 523 518 508 488 490 510 505 510 490 486
1210.0 477 506 493 495 511 551 556 549 579 582
1250.0 590 598 600 579 573 571 563 561 569 556
1290.0 558 555 570 579 569 578 579 591 594 602
1330.0 594 630 644 709 802 921 1056 1108 1065 989
1370.0 896 815 770 709 649 595 568 550 540 552
1410.0 532 548 540 571 576 624 648 666 682 655
1450.0 623 643 642 660 646 650 653 612 565 528
1490.0 522 500 475 493 475 479 418 465 467 475
1530.0 462 472 497 505 477 465 492 504 531 469
1570.0 489 495 488 504 486 506 525 495 517 501
1610.0 496 492 468 438 424 463 458 490 492 470
1650.0 536 521 521 468 500 499 495 482 471 475
1690.0 452 445 460 484 456 465 472 492 492 468
1730.0 493 483 500 482 471 485 481 484 479 478
1770.0 481 493 482 477 470 482 476 483 467 480
1810.0 473 474 478 472 479 480 471 479 473 479
1850.0 474 479 474 461 482 466 472 471 468 469
1890.0 473 468 472 467 469 469 466 468 466 468
1930.0 465 465 467 466 463 464 468 464 467 463
1970.0 464 464 467 466 464 462 464 464 464 464
2010.0 468 466 465 467 466 467 470 469 474 475
2050.0 471 477 477 480 482 489 491 498 501 505
2090.0 513 515 520 523 527 528 528 530 534 533
2130.0 540 548 548 556 564 577 591 601 621 641
2170.0 660 686 718 753 793 845 902 964 1039 1129
2210.0 1233 1343 1465 1623 1831 2071 2359 2705 3139 3658
2250.0 4339 5217 6314 7659 8956 9844 10000 9683 9195 8371
2290.0 7381 6270 5230 4383 3744 3367 2947 2669 2539 2339
2330.0 2220 2077 1945 1926 1880 1701 1764 2052 1960 1902
2370.0 1629 1414 1199 1035 844 686 615 599 595 588
2410.0 579 577 573 557 550 545 536 529 521 511
2450.0 502 493 486 476 469 462 454 450 444 443
2490.0 442 439 439 431 432 427 426 424 425 425
2530.0 426 417 420 421 417 414 418 420 415 417
2570.0 415 418 418 414 411 416 409 416 413 408
2610.0 411 413 414 408 414 410 412 411 407 406
2650.0 410 408 409 409 407 410 406 406 410 411
2690.0 412 413 411 414 405 411 408 408 407 408
2730.0 406 407 403 397 403 402 401 404 408 406
2770.0 399 407 411 405 405 405 410 410 414 413
2810.0 414 419 415 421 428 430 432 438 439 448
2850.0 460 485 537 605 674 715 730 717 708 709
2890.0 720 721 711 695 682 682 707 735 781 831
2930.0 915 1034 1207 1376 1497 1582 1591 1518 1361 1139
2970.0 933 770 655 578 539 502 477 455 452 446
3010.0 442 436 430 422 428 422 426 420 425 424
3050.0 418 418 414 420 423 417 423 414 412 418
3090.0 417 418 420 422 415 417 421 431 425 430
3130.0 433 431 429 427 428 433 435 427 417 428
3170.0 426 427 423 419 420 424 421 417 419 425
3210.0 418 419 419 424 419 420 415 414 418 414
3250.0 414 417 413 419 418 420 417 414 414 410
3290.0 402 417 411 413 417 408 405 405 402 408
3330.0 403 409 411 410 403 399 406 421 412 426
3370.0 415 423 428 420 430 417 424 423 427 426
3410.0 423 424 428 436 438 423 431 430 429 432
3450.0 425 430 431 421 432 429 430 440 426 431
3490.0 428 430 421 425 434 426 437 424 436 420
3530.0 429 434 425 428 418 417 429 421 438 419
3570.0 425 431 429 425 417 422 446 423 426 427
3610.0 432 430 433 433 437 453 435 430 438 457
3650.0 441 468 435 465 450 468 498 478 490 465
3690.0 507 497 489 493 473 479 480 455 456 445
3730.0 462 452 438 449 457 492 443 438 420 426
3770.0 420 432 414 412 416 424 415 428 429 452
3810.0 421 444 419 460 421 415 428 443 430 424
3850.0 427 492 447 412 436 446 400 427 420 447
3890.0 441 399 427 443 418 426 446 436 433 452
3930.0 444 438 448 416 427 441 433 428 449 436
##END=
