##TITLE=Acetic acid, octadecyl ester
##JCAMP-DX=4.24
##DATA TYPE=INFRARED SPECTRUM
##ORIGIN=Sadtler Research Labs Under US-EPA Contract
##OWNER=NIST Standard Reference Data Program
##CAS REGISTRY NO=822-23-1
##MOLFORM=C 20 H 40 O 2
##XUNITS=1/CM
##YUNITS=ABSORBANCE
##XFACTOR=1.0
##YFACTOR=0.000137967
##DELTAX=4.0
##FIRSTX=450.0
##LASTX=3966.0
##FIRSTY=0.000000
##MAXX=3966
##MINX=450
##MAXY=1.37967
##MINY=0
##NPOINTS=880
##XYDATA=(X++(Y..Y))
450.0 0 97 83 78 81 104 79 70 70 72
490.0 74 66 93 85 73 81 77 82 59 74
530.0 68 56 74 60 45 54 50 66 46 47
570.0 50 47 55 61 73 61 83 95 117 142
610.0 132 117 110 113 121 146 144 137 124 102
650.0 94 72 59 55 55 36 56 52 53 49
690.0 64 63 87 92 125 151 179 198 191 185
730.0 174 155 134 130 123 117 106 103 98 96
770.0 86 84 83 84 84 87 86 83 84 93
810.0 101 94 98 95 98 101 101 100 105 120
850.0 111 109 110 111 111 109 106 115 108 112
890.0 109 104 105 107 103 103 104 107 110 116
930.0 119 121 130 137 143 147 152 155 158 170
970.0 175 181 180 176 173 188 213 249 289 345
1010.0 415 495 585 675 758 839 903 949 961 943
1050.0 900 841 781 724 676 635 595 553 508 462
1090.0 408 354 311 270 235 205 184 167 153 140
1130.0 128 116 113 109 106 109 109 116 125 133
1170.0 147 164 187 213 257 310 388 497 658 880
1210.0 1189 1618 2218 3034 4032 4917 5283 4874 3995 3052
1250.0 2297 1768 1432 1206 1033 875 740 632 555 494
1290.0 447 414 390 370 349 325 295 268 243 229
1330.0 227 234 261 296 349 425 522 647 847 1074
1370.0 1127 962 761 662 632 604 530 427 328 261
1410.0 222 203 205 204 219 242 292 354 439 529
1450.0 634 732 844 904 876 761 593 436 318 249
1490.0 204 167 147 131 123 113 102 96 92 79
1530.0 76 70 67 66 58 55 54 56 51 48
1570.0 48 47 45 46 42 44 43 46 42 45
1610.0 45 42 45 41 47 43 48 49 50 53
1650.0 59 62 61 62 63 67 74 74 83 90
1690.0 98 108 131 152 179 208 256 311 378 456
1730.0 573 733 948 1234 1576 1943 2381 2923 3198 2770
1770.0 2084 1559 1160 876 651 491 373 293 230 184
1810.0 151 125 104 91 83 75 67 60 59 56
1850.0 53 51 49 49 49 49 45 46 43 43
1890.0 43 41 41 40 40 40 40 39 41 39
1930.0 38 38 39 38 38 36 36 37 39 39
1970.0 40 41 41 41 43 45 48 50 50 52
2010.0 53 56 57 57 59 61 61 62 60 62
2050.0 61 59 60 61 62 62 61 60 60 59
2090.0 62 60 61 60 59 59 58 59 58 58
2130.0 58 56 56 56 56 55 55 55 56 54
2170.0 56 53 55 54 55 54 53 53 54 54
2210.0 55 53 56 56 55 55 55 56 56 56
2250.0 56 56 55 57 58 60 60 59 57 53
2290.0 50 45 42 42 40 36 44 49 53 61
2330.0 54 60 61 63 48 56 49 55 44 42
2370.0 46 47 47 45 48 54 58 60 59 58
2410.0 59 56 56 54 56 59 61 62 60 62
2450.0 63 64 65 66 65 64 65 63 63 63
2490.0 64 63 65 65 66 65 68 69 69 71
2530.0 70 73 74 74 74 76 75 75 75 77
2570.0 76 78 80 83 86 85 89 90 89 91
2610.0 94 95 96 99 99 102 106 109 111 112
2650.0 116 119 119 125 129 132 139 142 146 146
2690.0 147 142 138 136 134 131 132 131 134 134
2730.0 138 141 146 149 150 154 153 157 159 164
2770.0 168 174 181 191 204 219 236 253 271 292
2810.0 313 339 372 414 464 522 595 701 864 1123
2850.0 1547 2223 3162 3951 3945 3351 2680 2198 1932 1800
2890.0 1739 1786 1966 2270 2691 3187 3776 4541 5733 7413
2930.0 9257 10000 9278 7725 5988 4558 3573 3025 2770 2644
2970.0 2436 2045 1594 1250 1009 822 678 567 486 425
3010.0 379 343 316 294 276 261 244 232 215 204
3050.0 194 183 177 170 163 159 150 144 138 131
3090.0 125 121 117 114 108 103 101 98 95 93
3130.0 93 89 86 84 82 82 81 79 76 75
3170.0 74 73 71 72 69 67 70 64 66 63
3210.0 60 62 58 59 54 56 57 54 52 53
3250.0 53 48 55 53 54 53 53 51 54 54
3290.0 52 51 52 48 49 52 50 49 50 52
3330.0 49 49 50 52 50 50 49 47 50 49
3370.0 51 49 49 49 47 53 48 52 51 51
3410.0 51 50 53 50 51 47 48 48 54 52
3450.0 50 46 47 48 47 46 53 54 51 55
3490.0 55 59 60 61 58 56 51 48 41 41
3530.0 36 41 41 40 40 36 37 41 36 38
3570.0 40 41 40 40 41 39 44 47 48 47
3610.0 45 49 49 50 52 52 57 45 52 48
3650.0 48 54 42 51 49 52 48 47 46 51
3690.0 49 56 54 49 53 48 43 40 52 54
3730.0 56 49 54 45 54 43 49 50 45 48
3770.0 48 48 49 42 46 47 46 46 47 42
3810.0 41 51 49 45 41 43 47 48 45 44
3850.0 53 53 47 49 39 47 45 43 48 50
3890.0 46 49 47 39 48 44 48 48 49 52
3930.0 46 45 43 52 49 50 49 49 41 46
##END=
