##TITLE=Dioctyl disulphide
##JCAMP-DX=4.24
##DATA TYPE=INFRARED SPECTRUM
##ORIGIN=Sadtler Research Labs Under US-EPA Contract
##OWNER=NIST Standard Reference Data Program
##CAS REGISTRY NO=822-27-5
##MOLFORM=C 16 H 34 S 2
##XUNITS=1/CM
##YUNITS=ABSORBANCE
##XFACTOR=1.0
##YFACTOR=0.000167133
##DELTAX=4.0
##FIRSTX=450.0
##LASTX=3966.0
##FIRSTY=0.032089
##MAXX=3966
##MINX=450
##MAXY=1.67133
##MINY=0
##NPOINTS=880
##XYDATA=(X++(Y..Y))
450.0 192 239 18 131 175 0 65 63 60 102
490.0 74 146 94 84 129 77 106 74 45 71
530.0 44 42 97 114 110 38 30 103 78 57
570.0 64 69 94 66 41 47 47 37 62 76
610.0 64 81 53 86 82 76 71 58 49 52
650.0 86 61 66 59 56 104 66 80 67 69
690.0 92 104 109 139 165 181 183 230 234 214
730.0 221 204 177 172 175 231 162 148 132 122
770.0 129 118 118 106 82 81 83 62 70 77
810.0 79 60 59 48 51 70 72 71 53 37
850.0 53 38 48 31 52 46 57 50 45 62
890.0 65 37 27 50 70 67 46 49 51 70
930.0 65 43 38 47 47 55 40 37 37 26
970.0 52 29 48 40 45 43 55 32 50 40
1010.0 67 60 76 71 71 86 65 74 57 49
1050.0 54 54 57 40 43 56 60 48 57 58
1090.0 66 54 61 56 74 66 60 60 49 50
1130.0 46 43 46 47 46 55 70 74 69 76
1170.0 80 75 81 87 96 94 100 116 137 146
1210.0 162 181 215 249 278 301 300 318 298 293
1250.0 295 321 365 388 405 417 408 390 390 390
1290.0 408 406 393 372 335 299 265 235 226 223
1330.0 234 253 291 331 366 388 371 353 334 312
1370.0 283 278 283 304 293 264 216 206 199 201
1410.0 230 276 311 333 332 377 434 516 587 659
1450.0 750 826 908 927 887 753 640 456 350 268
1490.0 206 174 142 130 115 81 111 80 76 80
1530.0 65 67 54 54 51 62 60 33 44 60
1570.0 55 55 50 59 49 57 56 64 46 41
1610.0 58 39 52 46 57 35 43 36 43 54
1650.0 31 25 18 52 36 43 25 32 39 42
1690.0 41 35 23 20 34 40 42 25 28 58
1730.0 32 37 26 34 41 33 40 37 32 37
1770.0 35 30 33 35 38 35 28 30 35 24
1810.0 30 31 32 24 31 21 30 26 24 24
1850.0 29 28 22 29 25 15 22 22 22 22
1890.0 21 25 24 22 22 19 27 21 24 19
1930.0 19 25 22 23 21 24 21 18 20 20
1970.0 22 20 20 20 21 23 20 22 22 23
2010.0 24 27 26 30 30 31 28 26 27 29
2050.0 28 25 22 25 23 21 19 21 19 22
2090.0 13 18 14 15 12 16 17 15 17 17
2130.0 13 13 14 15 15 14 13 16 13 13
2170.0 11 14 13 14 13 13 12 14 9 11
2210.0 10 12 10 10 11 11 10 12 11 13
2250.0 11 12 13 12 16 13 12 16 15 19
2290.0 22 21 25 27 29 31 30 28 30 33
2330.0 31 32 24 26 27 37 32 35 32 24
2370.0 22 28 30 27 25 21 21 20 18 19
2410.0 19 19 19 19 19 21 20 19 19 16
2450.0 17 17 17 19 20 19 20 19 19 20
2490.0 18 19 20 21 19 22 23 25 26 26
2530.0 27 32 31 34 33 35 35 36 36 36
2570.0 40 39 41 43 47 49 48 52 55 55
2610.0 60 60 63 64 68 70 73 77 77 79
2650.0 82 84 91 97 97 102 105 108 110 109
2690.0 108 103 99 98 93 92 95 99 101 99
2730.0 106 112 118 125 126 129 126 129 131 137
2770.0 141 146 156 170 186 203 223 244 265 291
2810.0 325 364 406 447 493 543 618 723 891 1149
2850.0 1544 2125 2850 3466 3654 3410 3022 2708 2540 2437
2890.0 2283 2212 2322 2622 3094 3642 4276 5057 6142 7685
2930.0 9101 10000 9499 8176 6770 5499 4720 4351 4331 4433
2970.0 4229 3515 2534 1775 1318 1024 828 691 587 507
3010.0 446 395 351 319 296 267 246 224 209 191
3050.0 178 166 157 148 139 133 129 120 117 113
3090.0 111 111 104 97 100 90 87 85 82 81
3130.0 80 73 77 73 73 71 70 70 67 67
3170.0 66 63 58 57 62 62 57 55 54 51
3210.0 47 44 44 35 40 39 40 38 38 33
3250.0 31 33 33 30 28 28 25 25 28 29
3290.0 29 25 27 27 27 31 27 27 26 22
3330.0 25 32 26 26 34 29 27 27 26 26
3370.0 28 27 28 31 30 25 27 22 29 25
3410.0 30 26 23 32 28 26 30 23 29 25
3450.0 20 25 23 29 25 25 22 19 22 26
3490.0 19 24 24 18 19 23 22 23 25 21
3530.0 23 20 20 22 23 26 27 27 26 31
3570.0 21 16 29 23 32 22 28 23 31 26
3610.0 32 31 15 34 21 26 28 31 29 32
3650.0 13 44 25 41 30 33 24 15 35 20
3690.0 40 15 38 25 33 35 28 32 34 23
3730.0 29 18 15 35 8 31 8 33 23 36
3770.0 19 22 27 12 36 37 35 33 25 23
3810.0 25 33 34 26 20 34 23 24 28 38
3850.0 38 20 9 18 41 41 27 32 40 27
3890.0 22 17 48 33 23 38 40 37 28 35
3930.0 17 37 32 37 42 28 29 29 36 32
##END=
