##TITLE=Bicyclo(2.2.1)heptane-2-carboxylic acid
##JCAMP-DX=4.24
##DATA TYPE=INFRARED SPECTRUM
##ORIGIN=Sadtler Research Labs Under US-EPA Contract
##OWNER=NIST Standard Reference Data Program
##CAS REGISTRY NO=824-62-4
##MOLFORM=C 8 H 12 O 2
##XUNITS=1/CM
##YUNITS=ABSORBANCE
##XFACTOR=1.0
##YFACTOR=0.000093912
##DELTAX=4.0
##FIRSTX=450.0
##LASTX=3966.0
##FIRSTY=0.004132
##MAXX=3966
##MINX=450
##MAXY=0.93912
##MINY=0
##NPOINTS=880
##XYDATA=(X++(Y..Y))
450.0 44 59 65 80 83 98 111 80 85 114
490.0 94 122 126 168 172 199 220 283 334 421
530.0 495 578 715 826 962 1121 1315 1532 1722 1816
570.0 1862 1728 1574 1362 1213 1135 1100 1079 1051 1076
610.0 1091 1182 1223 1275 1242 1118 931 736 566 438
650.0 352 348 371 409 474 538 492 521 568 683
690.0 903 1063 1227 1232 1159 949 689 471 336 236
730.0 188 146 142 140 151 161 181 223 255 278
770.0 287 304 259 207 176 152 156 164 178 184
810.0 175 154 145 147 164 173 179 172 145 113
850.0 64 46 43 42 62 74 99 114 111 96
890.0 81 67 57 60 71 94 115 154 189 217
930.0 248 284 303 322 335 342 336 326 315 288
970.0 285 286 304 319 326 363 413 496 572 637
1010.0 654 628 571 482 433 406 419 443 517 632
1050.0 780 992 1242 1475 1584 1629 1523 1429 1282 1225
1090.0 1333 1562 2011 2728 3766 4566 5337 5823 6255 6550
1130.0 6385 6400 6257 5670 4727 3677 2939 2419 2047 1826
1170.0 1699 1603 1502 1375 1227 1099 1017 952 888 815
1210.0 735 641 545 489 481 508 547 595 632 650
1250.0 649 623 585 552 517 475 440 399 381 378
1290.0 396 442 524 629 742 825 842 785 707 590
1330.0 478 431 432 471 542 630 749 887 1066 1231
1370.0 1347 1377 1316 1176 982 786 628 516 441 403
1410.0 368 360 338 320 297 276 268 277 362 462
1450.0 597 705 802 800 728 614 494 390 313 249
1490.0 198 155 120 99 87 74 80 66 60 60
1530.0 62 59 51 52 55 60 55 50 44 56
1570.0 56 57 52 59 62 58 62 57 57 51
1610.0 59 50 47 50 47 53 47 56 55 59
1650.0 58 58 66 79 88 90 104 114 138 131
1690.0 169 181 214 255 333 451 558 724 870 1026
1730.0 1113 1277 1457 1775 2347 3276 4770 6313 8247 9319
1770.0 10000 9233 7584 5677 3823 2547 1774 1355 1131 945
1810.0 817 671 560 433 329 240 175 154 116 114
1850.0 96 103 87 90 84 73 70 63 65 50
1890.0 54 46 48 42 46 48 41 45 40 47
1930.0 40 49 43 43 43 40 38 29 29 21
1970.0 20 15 20 12 13 15 11 14 12 17
2010.0 15 14 14 15 8 11 11 3 3 0
2050.0 2 3 10 12 19 29 30 36 29 34
2090.0 28 32 33 36 37 40 44 43 46 44
2130.0 45 39 38 33 33 35 32 37 34 39
2170.0 34 42 40 46 47 47 49 49 46 40
2210.0 45 39 40 41 47 50 49 54 58 60
2250.0 61 62 59 59 58 57 59 64 74 81
2290.0 95 104 126 139 149 165 151 138 136 122
2330.0 103 112 108 109 137 149 157 135 144 105
2370.0 119 118 126 128 111 78 64 61 63 68
2410.0 59 65 63 64 64 65 62 63 62 60
2450.0 61 57 60 53 54 59 58 62 60 61
2490.0 58 65 65 64 61 59 58 58 60 55
2530.0 58 58 58 56 55 57 59 63 63 69
2570.0 63 67 69 71 77 73 76 78 82 73
2610.0 80 76 80 73 77 73 70 73 73 68
2650.0 69 73 66 67 69 64 66 68 78 73
2690.0 80 82 89 86 89 85 93 94 96 99
2730.0 92 92 93 103 102 102 104 109 114 113
2770.0 116 119 136 137 139 146 144 137 141 133
2810.0 132 127 132 139 151 166 178 199 220 243
2850.0 276 306 359 490 737 1143 1678 2202 2647 2846
2890.0 2781 2479 2032 1650 1379 1237 1241 1371 1566 1779
2930.0 1958 2178 2484 2950 3694 4783 6087 7636 9067 9593
2970.0 9655 8796 7385 5681 3724 2405 1563 992 632 425
3010.0 326 264 231 206 189 175 171 162 163 163
3050.0 152 159 146 148 142 135 122 118 117 101
3090.0 104 93 93 86 90 91 83 83 81 83
3130.0 83 90 81 88 77 81 82 84 86 77
3170.0 66 70 76 73 69 73 72 72 70 66
3210.0 60 66 64 58 58 57 55 54 57 53
3250.0 45 47 48 48 53 48 47 46 44 54
3290.0 52 54 47 48 45 52 59 54 51 59
3330.0 56 51 56 55 65 50 48 43 49 62
3370.0 54 59 45 63 58 61 49 46 53 60
3410.0 60 54 58 49 53 53 54 48 45 40
3450.0 39 55 49 48 57 53 56 50 53 50
3490.0 62 57 71 68 85 95 101 107 106 103
3530.0 107 118 93 110 115 157 270 584 1316 2333
3570.0 3065 3435 3342 2812 1929 901 342 162 109 87
3610.0 80 90 91 71 87 94 76 98 71 78
3650.0 67 47 83 69 84 53 67 46 73 67
3690.0 66 59 70 57 68 73 63 72 76 93
3730.0 88 59 69 58 65 71 56 74 72 73
3770.0 61 52 49 63 42 48 51 56 53 23
3810.0 55 46 42 35 60 56 36 43 78 48
3850.0 50 47 27 58 40 59 38 65 68 48
3890.0 81 59 83 84 78 63 82 58 58 79
3930.0 48 64 34 49 63 69 58 57 47 74
##END=
