##TITLE=p-Fluorobenzamide
##JCAMP-DX=4.24
##DATA TYPE=INFRARED SPECTRUM
##ORIGIN=Sadtler Research Labs Under US-EPA Contract
##OWNER=NIST Standard Reference Data Program
##CAS REGISTRY NO=824-75-9
##MOLFORM=C 7 H 6 F N O
##XUNITS=1/CM
##YUNITS=ABSORBANCE
##XFACTOR=1.0
##YFACTOR=0.000080215
##DELTAX=4.0
##FIRSTX=450.0
##LASTX=3966.0
##FIRSTY=0.021016
##MAXX=3966
##MINX=450
##MAXY=0.80215
##MINY=0
##NPOINTS=880
##XYDATA=(X++(Y..Y))
450.0 262 184 175 120 220 354 438 508 542 537
490.0 400 363 279 256 197 213 196 216 171 162
530.0 154 104 78 23 6 35 62 173 368 719
570.0 1231 1545 1499 1351 965 371 130 25 14 10
610.0 28 22 40 36 62 92 110 103 101 119
650.0 119 146 168 218 246 298 358 423 488 535
690.0 566 450 392 311 244 173 131 114 110 126
730.0 146 201 271 420 578 815 968 1301 1417 1195
770.0 1035 865 655 490 376 320 307 320 384 465
810.0 534 617 643 699 850 1212 1544 1869 2039 2204
850.0 2309 1808 1299 1121 801 544 347 264 205 180
890.0 164 138 117 88 72 50 42 31 31 25
930.0 24 23 19 27 28 28 28 25 25 36
970.0 25 17 25 23 23 30 40 43 76 177
1010.0 266 256 261 216 130 75 66 62 73 81
1050.0 120 187 295 431 537 571 571 484 348 236
1090.0 167 135 116 112 105 119 130 126 121 109
1130.0 103 71 46 69 268 965 1732 1815 1887 1611
1170.0 790 236 105 55 37 18 25 36 72 135
1210.0 231 346 509 790 1406 2622 4239 5378 5670 5422
1250.0 3789 1871 1015 714 576 547 565 639 722 806
1290.0 847 823 767 712 666 676 768 921 1214 1734
1330.0 2678 4203 6063 7546 8218 7921 6295 4076 2353 1377
1370.0 889 631 504 453 428 453 519 601 672 664
1410.0 608 486 270 177 101 58 9 22 40 63
1450.0 77 119 130 175 192 180 139 154 208 221
1490.0 301 548 1032 1983 3071 3515 3365 2902 1705 603
1530.0 256 199 187 194 252 339 386 436 596 801
1570.0 1127 1634 2411 3299 3998 4591 4974 5162 5099 4874
1610.0 4254 3485 2583 1734 1099 769 577 484 459 425
1650.0 387 381 408 430 501 585 707 867 1011 1192
1690.0 1363 1617 2016 2792 3978 5818 8264 10000 9485 9975
1730.0 9275 6154 3816 2473 1573 1161 989 936 884 820
1770.0 656 498 391 271 194 116 82 69 59 70
1810.0 66 65 64 62 47 30 28 32 11 8
1850.0 31 45 47 52 53 42 68 68 71 65
1890.0 61 58 64 66 70 80 80 86 73 86
1930.0 80 75 67 47 38 33 29 21 24 12
1970.0 19 18 23 20 24 23 27 29 27 24
2010.0 18 14 13 18 26 32 41 40 41 46
2050.0 52 51 52 49 43 49 47 51 36 32
2090.0 19 15 13 10 9 9 9 9 7 6
2130.0 11 7 7 4 3 2 4 8 8 11
2170.0 13 13 16 21 19 18 13 15 15 16
2210.0 17 13 15 11 9 10 11 14 12 16
2250.0 14 15 19 21 20 24 22 19 19 14
2290.0 15 9 10 11 15 8 16 12 23 20
2330.0 20 26 24 36 18 54 15 26 1 0
2370.0 7 11 20 22 21 24 33 35 42 44
2410.0 42 38 33 35 34 35 39 39 37 37
2450.0 35 40 33 41 41 42 43 40 32 25
2490.0 14 5 4 7 4 9 5 5 8 7
2530.0 4 9 10 11 11 17 14 22 25 26
2570.0 37 41 43 38 32 25 20 14 11 10
2610.0 6 9 9 12 11 9 12 13 15 11
2650.0 12 9 8 9 8 5 10 1 6 9
2690.0 12 11 10 19 18 16 15 12 15 13
2730.0 16 12 13 13 13 13 16 12 10 8
2770.0 13 16 20 24 24 28 25 23 17 16
2810.0 15 10 10 8 11 13 10 5 7 12
2850.0 13 14 12 16 12 13 13 11 14 16
2890.0 12 14 15 13 16 16 22 23 26 28
2930.0 31 33 34 33 30 30 25 22 25 24
2970.0 22 20 18 16 19 17 17 17 21 20
3010.0 24 32 32 32 41 50 66 93 139 202
3050.0 254 264 267 244 190 155 170 199 210 204
3090.0 201 148 103 85 81 80 77 70 76 63
3130.0 54 47 36 32 29 27 28 29 30 23
3170.0 23 27 21 18 25 22 14 14 12 13
3210.0 8 10 10 5 3 3 6 2 10 6
3250.0 4 6 13 8 12 12 9 9 10 17
3290.0 21 21 37 37 36 40 32 31 23 18
3330.0 16 13 16 12 20 14 19 7 13 25
3370.0 33 38 46 56 62 79 102 126 168 221
3410.0 288 387 519 683 864 1042 1153 1145 1014 805
3450.0 573 350 199 141 111 96 79 79 66 72
3490.0 75 81 87 89 108 142 165 210 265 322
3530.0 406 496 597 690 794 877 881 804 673 491
3570.0 311 186 134 97 79 78 49 26 28 27
3610.0 31 12 15 9 6 17 5 16 8 20
3650.0 11 7 8 6 18 6 13 5 7 6
3690.0 9 18 18 14 12 21 11 7 2 8
3730.0 21 26 21 19 14 15 11 0 7 6
3770.0 6 6 3 4 19 11 0 3 10 15
3810.0 7 3 7 16 4 13 13 8 20 6
3850.0 4 19 22 8 4 20 7 0 0 11
3890.0 12 23 12 22 30 34 28 14 11 13
3930.0 20 17 17 2 9 12 22 0 16 18
##END=
