##TITLE=Benzene, cyclohexyl-
##JCAMP-DX=4.24
##DATA TYPE=INFRARED SPECTRUM
##ORIGIN=Sadtler Research Labs Under US-EPA Contract
##OWNER=NIST Standard Reference Data Program
##CAS REGISTRY NO=827-52-1
##MOLFORM=C 12 H 16
##XUNITS=1/CM
##YUNITS=ABSORBANCE
##XFACTOR=1.0
##YFACTOR=0.000177600
##DELTAX=4.0
##FIRSTX=450.0
##LASTX=3966.0
##FIRSTY=0.000000
##MAXX=3966
##MINX=450
##MAXY=1.776
##MINY=0
##NPOINTS=880
##XYDATA=(X++(Y..Y))
450.0 0 28 51 73 59 55 48 57 53 61
490.0 76 78 79 84 104 175 237 327 396 398
530.0 367 262 175 100 65 49 38 30 37 26
570.0 28 32 30 35 26 33 24 27 24 37
610.0 39 38 78 115 133 113 71 40 42 49
650.0 61 74 93 126 138 176 219 268 387 639
690.0 1061 1394 1648 1505 1223 805 534 382 332 330
730.0 371 440 520 644 759 879 915 893 732 526
770.0 349 237 165 127 114 92 79 62 53 53
810.0 48 49 57 72 76 86 69 54 50 50
850.0 57 73 120 147 161 154 124 132 153 165
890.0 158 134 101 80 63 60 54 53 53 49
930.0 46 43 43 38 39 39 40 40 41 39
970.0 44 49 61 87 127 182 215 245 245 216
1010.0 191 172 183 244 298 287 238 155 96 79
1050.0 81 95 116 146 169 184 179 155 122 93
1090.0 69 59 55 57 56 53 56 54 58 66
1130.0 75 73 70 58 51 50 50 51 47 50
1170.0 53 56 62 69 71 73 71 66 61 48
1210.0 42 39 42 47 59 70 73 69 58 60
1250.0 63 84 111 145 167 167 151 117 94 84
1290.0 79 76 79 77 76 78 78 83 86 91
1330.0 87 85 86 102 151 203 216 185 141 116
1370.0 116 109 104 83 71 64 61 62 55 65
1410.0 62 71 72 95 100 129 187 286 489 745
1450.0 973 1038 928 701 501 363 290 228 261 364
1490.0 503 599 604 532 437 316 222 134 87 81
1530.0 69 79 69 70 55 54 48 48 51 50
1570.0 63 76 101 131 158 211 288 450 536 550
1610.0 431 259 127 94 76 66 59 52 49 49
1650.0 50 53 52 52 53 47 50 48 45 45
1690.0 38 38 41 43 44 44 47 48 53 51
1730.0 56 55 58 56 56 52 51 49 49 48
1770.0 47 51 55 65 87 123 141 135 109 73
1810.0 60 56 51 47 45 44 46 47 54 57
1850.0 59 65 72 78 81 79 75 75 76 71
1890.0 61 53 50 46 43 39 41 45 55 66
1930.0 81 97 105 108 104 108 105 93 73 50
1970.0 36 32 31 31 30 28 28 29 26 27
2010.0 25 27 27 27 27 29 27 28 27 27
2050.0 28 27 27 29 28 26 29 27 29 28
2090.0 28 29 28 30 28 28 28 29 29 30
2130.0 32 31 31 31 30 32 32 33 31 31
2170.0 31 32 31 35 37 40 39 41 41 40
2210.0 40 37 38 39 41 41 41 41 40 38
2250.0 36 35 32 33 31 31 29 30 30 28
2290.0 26 24 23 24 27 29 35 32 30 28
2330.0 31 35 35 40 39 36 31 33 38 43
2370.0 47 44 43 41 39 39 39 39 38 37
2410.0 37 35 33 35 36 38 37 35 32 30
2450.0 29 28 27 28 31 33 38 43 45 45
2490.0 46 41 39 37 34 34 33 37 36 39
2530.0 40 38 37 34 31 33 37 40 44 47
2570.0 50 54 56 59 62 64 63 64 64 65
2610.0 63 65 65 69 72 72 74 73 74 76
2650.0 82 93 110 123 129 127 118 114 107 99
2690.0 89 83 80 77 74 69 65 59 57 51
2730.0 49 45 47 50 47 51 54 56 60 65
2770.0 73 80 90 98 105 115 129 140 143 144
2810.0 143 147 153 160 171 189 219 270 365 560
2850.0 943 1637 2663 3500 3702 3236 2389 1680 1209 902
2890.0 736 694 791 1014 1335 1695 2112 2730 3772 5455
2930.0 7575 9361 10000 9115 7082 4564 2370 1186 701 456
2970.0 319 228 169 138 118 114 114 133 166 214
3010.0 254 307 386 540 801 1092 1281 1283 1129 884
3050.0 698 591 572 696 980 1246 1279 1150 872 663
3090.0 601 559 499 421 345 281 232 190 150 111
3130.0 79 67 58 55 56 63 69 74 75 73
3170.0 67 56 44 36 34 31 29 30 31 33
3210.0 32 32 33 33 35 33 33 33 33 33
3250.0 33 36 35 36 41 41 36 33 37 31
3290.0 29 34 32 32 34 31 30 30 31 34
3330.0 33 36 37 41 38 40 39 38 36 37
3370.0 39 36 36 35 35 33 34 39 35 37
3410.0 38 37 39 45 46 48 51 48 44 41
3450.0 37 32 32 31 30 29 29 29 27 29
3490.0 30 32 29 25 30 27 23 25 27 30
3530.0 26 28 27 28 28 31 27 30 31 30
3570.0 28 27 27 27 28 26 26 26 26 30
3610.0 29 27 32 31 35 28 39 36 39 37
3650.0 36 49 41 41 33 32 29 33 36 36
3690.0 43 41 43 41 43 39 38 41 39 43
3730.0 35 31 31 25 36 33 36 37 36 39
3770.0 41 34 32 29 28 26 24 27 24 24
3810.0 30 34 31 31 32 33 31 32 30 29
3850.0 29 23 37 33 36 29 33 26 26 29
3890.0 25 33 30 32 25 32 38 36 38 39
3930.0 39 39 40 36 40 35 34 35 37 35
##END=
