##TITLE=2',4'-Dimethoxyacetophenone
##JCAMP-DX=4.24
##DATA TYPE=INFRARED SPECTRUM
##ORIGIN=Sadtler Research Labs Under US-EPA Contract
##OWNER=NIST Standard Reference Data Program
##CAS REGISTRY NO=829-20-9
##MOLFORM=C 10 H 12 O 3
##XUNITS=1/CM
##YUNITS=ABSORBANCE
##XFACTOR=1.0
##YFACTOR=0.000089713
##DELTAX=4.0
##FIRSTX=450.0
##LASTX=3966.0
##FIRSTY=0.058044
##MAXX=3966
##MINX=450
##MAXY=0.89713
##MINY=0
##NPOINTS=880
##XYDATA=(X++(Y..Y))
450.0 647 353 254 362 98 142 164 0 307 263
490.0 144 188 160 322 275 381 421 409 625 626
530.0 487 582 426 478 558 588 584 747 894 1085
570.0 915 958 757 565 618 448 431 382 403 436
610.0 344 342 305 373 266 195 240 246 309 275
650.0 261 271 178 218 243 143 146 94 128 125
690.0 78 113 108 79 60 37 115 138 175 191
730.0 129 256 158 92 50 134 31 92 97 59
770.0 104 95 87 100 202 300 449 539 629 601
810.0 565 614 647 762 980 1132 1197 1267 1130 957
850.0 742 592 439 310 265 229 206 187 196 133
890.0 119 159 179 203 215 284 360 463 556 581
930.0 603 640 611 573 616 694 867 1075 1229 1238
970.0 1109 867 671 550 518 504 481 508 537 618
1010.0 730 937 1223 1625 2161 2733 3204 3413 3243 2736
1050.0 2035 1453 1102 1022 1130 1214 1224 1152 977 812
1090.0 693 675 692 764 871 1092 1497 2056 2531 2902
1130.0 3200 3345 3277 3060 2813 2891 3657 4597 5030 4795
1170.0 3833 2781 2115 1809 1712 1795 2127 2778 3778 4858
1210.0 5389 5180 4438 3664 3548 3927 4435 4835 5033 5291
1250.0 5900 7046 8531 9720 10000 8852 6854 4840 3692 3316
1290.0 3274 3373 3445 3308 3024 2655 2320 2062 1765 1437
1330.0 1104 895 842 864 977 1281 1852 2406 2567 2239
1370.0 1599 1015 822 789 816 967 1154 1446 1759 2057
1410.0 2293 2370 2386 2158 1943 1707 1637 1768 1847 1886
1450.0 1860 1879 2232 2785 3091 3183 2971 2602 2269 2304
1490.0 2655 2940 3036 2703 2159 1395 916 688 601 540
1530.0 519 512 559 649 724 811 1019 1343 1768 2201
1570.0 2879 3535 3950 4628 4788 5457 6695 7287 9232 9267
1610.0 8686 7854 5428 3803 2444 1660 1319 1084 964 911
1650.0 900 877 871 846 965 1114 1308 1799 2555 3933
1690.0 5381 5968 6285 5172 3866 2732 2104 1576 1211 993
1730.0 830 788 598 501 463 378 336 286 259 227
1770.0 217 207 157 156 137 126 146 112 123 99
1810.0 76 91 69 75 89 89 84 75 94 104
1850.0 84 87 74 77 97 107 108 104 109 130
1890.0 130 133 124 111 114 100 109 105 110 108
1930.0 98 114 106 114 115 96 106 100 95 106
1970.0 95 92 86 80 82 88 92 80 71 67
2010.0 53 64 65 64 70 63 70 82 80 87
2050.0 86 93 98 104 111 106 112 106 92 88
2090.0 80 75 69 62 68 59 60 60 55 59
2130.0 52 53 50 49 56 50 53 57 54 61
2170.0 60 63 69 73 79 81 81 76 75 74
2210.0 68 64 59 49 45 36 37 35 28 32
2250.0 24 27 25 20 25 21 25 28 33 41
2290.0 45 54 65 67 76 77 77 90 94 105
2330.0 114 102 109 104 100 86 88 61 104 122
2370.0 118 109 109 88 73 58 45 47 45 49
2410.0 52 54 62 63 72 65 58 61 51 50
2450.0 48 45 52 56 56 56 55 59 57 57
2490.0 59 57 59 57 60 67 57 62 60 61
2530.0 61 55 53 51 51 52 52 62 67 74
2570.0 79 82 87 88 89 90 93 96 91 86
2610.0 81 68 67 62 60 57 45 53 50 53
2650.0 58 59 60 52 54 50 51 48 53 53
2690.0 52 52 55 60 59 58 53 58 58 63
2730.0 61 57 64 65 63 63 65 71 76 80
2770.0 87 91 96 103 111 120 125 143 153 163
2810.0 188 213 249 299 372 483 639 866 1123 1304
2850.0 1336 1216 992 793 676 623 583 571 574 585
2890.0 620 666 722 781 839 920 1014 1098 1156 1183
2930.0 1238 1360 1559 1879 2181 2361 2389 2253 2059 1885
2970.0 1654 1381 1148 979 890 891 962 1144 1464 1852
3010.0 2077 1980 1591 1083 702 525 427 380 346 315
3050.0 303 288 271 264 255 266 278 310 358 387
3090.0 411 406 378 329 262 218 189 167 157 140
3130.0 138 127 121 122 111 113 106 86 79 73
3170.0 75 76 62 70 61 61 63 54 54 48
3210.0 44 41 48 47 35 40 38 35 41 31
3250.0 29 27 37 34 36 39 42 32 28 27
3290.0 33 35 22 31 32 40 25 36 37 34
3330.0 29 29 36 42 47 59 61 80 86 96
3370.0 106 103 85 79 65 52 55 51 52 49
3410.0 45 43 29 39 33 38 45 30 35 20
3450.0 25 32 35 37 30 20 33 32 21 31
3490.0 24 25 37 43 27 33 29 25 36 31
3530.0 29 38 24 35 44 35 30 29 28 35
3570.0 37 48 35 35 35 39 50 51 46 37
3610.0 43 55 55 34 54 47 62 59 57 46
3650.0 50 44 68 40 57 49 78 77 50 72
3690.0 48 60 61 58 69 64 61 67 66 60
3730.0 71 67 71 64 77 53 87 53 81 74
3770.0 76 73 71 62 70 62 61 65 69 67
3810.0 86 75 85 77 80 40 50 69 74 56
3850.0 64 85 83 61 67 92 63 67 85 111
3890.0 93 88 74 82 92 59 74 90 74 72
3930.0 104 63 63 87 102 67 111 120 86 44
##END=
