##TITLE=Propanedioic acid, phenyl-, diethyl ester
##JCAMP-DX=4.24
##DATA TYPE=INFRARED SPECTRUM
##ORIGIN=Sadtler Research Labs Under US-EPA Contract
##OWNER=NIST Standard Reference Data Program
##CAS REGISTRY NO=83-13-6
##MOLFORM=C 13 H 16 O 4
##XUNITS=1/CM
##YUNITS=ABSORBANCE
##XFACTOR=1.0
##YFACTOR=0.000051639
##DELTAX=4.0
##FIRSTX=450.0
##LASTX=3966.0
##FIRSTY=0.000000
##MAXX=3966
##MINX=450
##MAXY=0.51639
##MINY=0
##NPOINTS=880
##XYDATA=(X++(Y..Y))
450.0 0 938 1433 901 1356 1506 952 1364 1055 1152
490.0 1398 1537 1183 1086 1209 1202 1116 1308 1242 1125
530.0 1062 1039 1092 1171 1306 1336 859 1076 1119 1392
570.0 1289 1245 1404 1385 1458 1518 1496 1452 1407 1390
610.0 1325 1271 1167 1256 1338 1329 1314 1217 1260 1244
650.0 1194 1271 1352 1255 1325 1239 1349 1527 1584 1729
690.0 1981 2344 2510 2370 2466 2334 2424 2371 2220 2251
730.0 2030 1416 1597 2082 1509 1442 1513 1363 1225 1235
770.0 1246 1191 1425 1312 1201 1171 1254 1368 1361 1282
810.0 1211 1252 1265 1228 1181 1275 1302 1253 1382 1355
850.0 1330 1332 1314 1431 1514 1432 1335 1348 1353 1281
890.0 1256 1269 1252 1245 1220 1226 1183 1182 1231 1252
930.0 1233 1337 1314 1352 1341 1327 1323 1349 1308 1338
970.0 1377 1311 1320 1287 1284 1296 1338 1316 1378 1506
1010.0 1608 1788 2101 2550 3201 3806 4331 4669 4695 4308
1050.0 3736 3026 2468 2132 1963 1807 1855 1825 1850 1875
1090.0 2130 2387 2618 2773 2814 2860 2937 3237 3621 4266
1130.0 5124 5952 6735 7003 7075 6829 6494 6121 5777 5530
1170.0 5154 4727 4441 4260 4295 4481 4525 4718 4861 5269
1210.0 5654 5812 5738 5216 4798 4488 4397 4282 4260 4255
1250.0 4408 4579 4760 4727 4568 4340 4110 3885 3757 3745
1290.0 3919 4187 4416 4533 4470 4283 3938 3563 3180 2806
1330.0 2508 2279 2118 2047 1988 1870 1720 1590 1693 2062
1370.0 2440 2446 2103 1768 1608 1587 1548 1541 1494 1451
1410.0 1416 1349 1345 1302 1321 1323 1312 1373 1442 1517
1450.0 1662 1779 1843 1775 1767 1827 1763 1690 1562 1466
1490.0 1432 1547 1739 1737 1514 1222 1155 1101 1089 1098
1530.0 1092 1085 1085 1056 1075 1089 1063 1074 1062 1095
1570.0 1076 1067 1106 1108 1147 1152 1165 1202 1211 1252
1610.0 1226 1188 1122 1092 1096 1064 1070 1056 1065 1083
1650.0 1053 1083 1072 1113 1107 1104 1124 1141 1158 1164
1690.0 1196 1226 1241 1282 1371 1461 1558 1646 1790 2058
1730.0 2334 2826 3573 4620 6402 8506 10000 9807 8168 6710
1770.0 6258 6013 5144 3739 2690 2188 1896 1715 1591 1444
1810.0 1371 1302 1239 1209 1146 1129 1106 1085 1087 1062
1850.0 1084 1049 1046 1065 1060 1080 1074 1070 1068 1061
1890.0 1071 1058 1040 1047 1023 1030 1027 1021 1025 1011
1930.0 1023 1029 1044 1068 1060 1044 1038 1027 1037 1022
1970.0 1016 992 991 993 988 990 979 980 984 978
2010.0 984 980 980 981 977 981 972 970 973 971
2050.0 977 966 966 974 973 967 971 967 973 958
2090.0 960 963 952 962 962 961 959 955 957 948
2130.0 949 944 948 946 945 940 941 939 949 937
2170.0 938 941 932 938 934 934 935 934 932 925
2210.0 928 928 931 934 933 924 929 937 936 931
2250.0 925 933 929 928 933 935 928 935 942 939
2290.0 938 950 948 958 964 975 978 972 965 945
2330.0 950 961 945 931 971 956 984 954 988 988
2370.0 963 959 949 946 936 918 908 903 911 901
2410.0 903 917 914 911 910 908 906 902 908 901
2450.0 900 896 893 896 892 897 897 893 880 885
2490.0 884 886 887 883 887 884 881 872 881 874
2530.0 873 878 877 876 876 878 873 874 872 879
2570.0 866 875 864 870 878 865 867 866 871 878
2610.0 868 870 874 879 871 870 868 868 873 870
2650.0 868 871 873 875 873 871 870 870 870 874
2690.0 867 877 883 873 872 874 878 884 886 889
2730.0 895 896 897 897 889 890 896 895 893 900
2770.0 909 917 925 913 916 914 915 914 920 920
2810.0 926 929 926 938 951 952 955 956 958 956
2850.0 976 992 998 1014 1029 1054 1092 1148 1223 1290
2890.0 1295 1274 1277 1308 1387 1441 1484 1481 1455 1424
2930.0 1449 1532 1695 1914 2055 2025 1881 1736 1725 1821
2970.0 1961 2104 2370 2855 3390 3486 3078 2577 2240 2038
3010.0 1845 1670 1515 1394 1358 1406 1548 1698 1709 1573
3050.0 1400 1280 1244 1288 1386 1579 1739 1703 1491 1264
3090.0 1205 1230 1234 1182 1120 1059 1034 1021 1006 973
3130.0 946 944 930 931 925 933 930 923 919 935
3170.0 928 926 927 914 925 910 902 915 912 911
3210.0 910 906 909 900 906 902 904 911 893 897
3250.0 898 884 897 892 901 904 898 896 895 891
3290.0 894 899 895 904 899 911 899 905 902 897
3330.0 905 900 906 900 906 899 903 897 900 913
3370.0 914 908 917 912 911 917 925 915 891 908
3410.0 907 912 919 919 910 928 919 909 898 913
3450.0 906 920 913 922 917 949 929 936 948 959
3490.0 968 979 957 953 932 959 954 951 934 925
3530.0 947 932 925 917 929 914 892 900 897 931
3570.0 909 911 894 933 924 911 905 899 910 911
3610.0 911 922 916 911 895 865 924 932 925 912
3650.0 916 895 940 920 933 917 888 916 897 930
3690.0 912 924 931 912 928 906 895 911 884 913
3730.0 936 888 923 874 901 861 908 893 931 874
3770.0 896 901 906 889 922 898 914 907 915 870
3810.0 911 881 922 881 892 913 903 902 868 877
3850.0 898 899 906 917 911 909 895 942 947 903
3890.0 953 902 907 913 889 896 929 912 939 898
3930.0 916 932 900 920 934 918 894 903 967 907
##END=
