##TITLE=1H-Indole, 3-methyl-
##JCAMP-DX=4.24
##DATA TYPE=INFRARED SPECTRUM
##ORIGIN=Sadtler Research Labs Under US-EPA Contract
##OWNER=NIST Standard Reference Data Program
##CAS REGISTRY NO=83-34-1
##MOLFORM=C 9 H 9 N
##XUNITS=1/CM
##YUNITS=ABSORBANCE
##XFACTOR=1.0
##YFACTOR=0.000065863
##DELTAX=4.0
##FIRSTX=450.0
##LASTX=3966.0
##FIRSTY=0.000000
##MAXX=3966
##MINX=450
##MAXY=0.65863
##MINY=0
##NPOINTS=880
##XYDATA=(X++(Y..Y))
450.0 0 524 851 747 774 680 474 432 365 281
490.0 519 719 410 513 445 392 479 435 549 457
530.0 502 420 443 372 378 475 542 616 632 809
570.0 998 776 617 715 686 534 465 505 496 466
610.0 458 397 383 354 363 330 330 353 321 336
650.0 326 377 358 440 511 671 759 771 932 924
690.0 1050 970 978 878 953 1093 1551 2561 3681 4821
730.0 5462 10000 9238 6565 5908 5377 4048 3301 2735 2898
770.0 3087 3350 3571 3881 3620 3191 2927 2620 2403 2059
810.0 1925 1737 1553 1340 1171 987 854 789 671 608
850.0 557 532 488 462 468 495 562 616 684 755
890.0 825 842 833 801 765 727 676 653 622 547
930.0 493 479 439 440 416 410 416 405 416 434
970.0 477 537 576 583 581 565 578 719 1077 1279
1010.0 1388 1363 1377 1238 894 770 778 808 911 1022
1050.0 1253 1505 1818 1960 2014 2089 2043 1952 1845 1835
1090.0 1702 1542 1469 1321 1076 855 717 675 695 706
1130.0 715 700 677 647 646 654 654 684 710 666
1170.0 591 561 533 506 471 451 452 472 544 685
1210.0 951 1319 1640 1771 1810 1836 1729 1544 1348 1216
1250.0 1257 1211 959 829 755 665 573 578 653 783
1290.0 849 830 943 989 939 1014 1249 1595 1972 2305
1330.0 2561 2739 2742 2573 2245 1909 1580 1228 944 689
1370.0 603 574 636 697 780 910 1125 1370 1544 1707
1410.0 1743 1669 1486 1198 988 892 1019 1279 1869 2704
1450.0 3376 3481 3484 3556 2974 1925 1320 979 869 747
1490.0 739 679 691 652 577 586 587 610 607 690
1530.0 731 810 900 1069 1254 1424 1585 1677 1675 1653
1570.0 1474 1326 1131 969 802 686 650 586 635 652
1610.0 750 790 853 788 795 691 617 533 551 570
1650.0 608 572 603 553 515 456 424 388 402 344
1690.0 356 337 347 349 383 369 365 368 360 365
1730.0 380 412 434 492 528 554 582 595 596 577
1770.0 543 489 482 464 485 461 467 442 419 365
1810.0 338 326 327 344 353 386 384 412 393 410
1850.0 392 384 398 440 478 512 515 499 479 428
1890.0 385 373 399 444 492 523 511 492 454 386
1930.0 331 310 301 300 309 305 305 303 313 306
1970.0 305 297 294 290 283 285 285 289 285 287
2010.0 290 287 286 287 284 286 277 283 284 281
2050.0 281 286 285 288 287 289 285 286 286 290
2090.0 297 287 290 295 299 296 296 287 291 291
2130.0 285 287 285 281 280 281 284 295 289 290
2170.0 285 295 290 291 298 303 308 305 307 304
2210.0 308 306 305 298 297 294 294 294 291 296
2250.0 299 300 304 305 305 311 319 325 336 346
2290.0 366 377 395 408 417 422 410 394 388 379
2330.0 370 383 353 397 408 443 403 404 433 402
2370.0 422 424 423 427 383 349 320 311 303 298
2410.0 288 285 285 283 277 280 288 295 304 314
2450.0 331 343 363 382 394 404 407 412 404 398
2490.0 394 390 392 395 385 372 360 341 336 335
2530.0 324 329 333 336 339 343 338 344 343 336
2570.0 338 328 320 320 313 307 310 305 310 315
2610.0 319 319 326 329 334 341 339 353 354 354
2650.0 358 358 350 355 353 355 353 359 354 352
2690.0 350 348 346 341 343 345 336 330 330 333
2730.0 330 333 350 383 420 430 418 413 410 364
2770.0 339 330 345 359 375 385 395 405 414 429
2810.0 440 463 468 486 494 508 508 529 563 594
2850.0 653 749 895 1099 1347 1471 1542 1575 1538 1461
2890.0 1415 1448 1493 1583 1638 1672 1682 1782 1933 2231
2930.0 2524 2663 2742 2657 2745 2383 1903 1802 1740 1751
2970.0 1770 1711 1598 1389 1211 994 818 742 754 804
3010.0 900 1039 1172 1319 1487 1660 1801 1940 2065 2188
3050.0 2350 2616 3067 3445 3568 3612 3509 3215 2531 2065
3090.0 1865 1677 1412 1143 922 763 638 553 494 454
3130.0 429 420 407 403 407 405 394 384 383 372
3170.0 378 369 377 380 385 384 386 380 378 380
3210.0 375 368 362 350 348 339 344 334 329 337
3250.0 350 346 348 337 330 324 324 315 307 298
3290.0 305 305 297 298 291 291 294 277 283 284
3330.0 287 280 297 283 290 310 300 307 300 307
3370.0 300 306 298 311 308 304 315 313 334 325
3410.0 326 327 344 344 347 353 354 376 372 398
3450.0 418 436 456 498 548 626 730 872 1066 1379
3490.0 1684 2076 2503 2950 3305 3588 3862 3899 3394 2928
3530.0 2610 1882 1208 796 595 497 425 414 394 435
3570.0 438 410 423 405 428 420 427 397 380 370
3610.0 387 362 364 365 325 379 356 330 335 319
3650.0 388 356 340 343 301 367 317 397 323 359
3690.0 346 362 348 360 360 366 358 337 336 341
3730.0 336 358 350 326 376 316 385 313 328 328
3770.0 320 323 329 355 335 326 331 339 324 354
3810.0 314 344 327 344 339 328 341 355 365 367
3850.0 353 373 387 375 376 385 344 359 380 340
3890.0 340 348 354 357 378 355 330 357 362 357
3930.0 365 379 399 349 359 406 353 360 343 348
##END=
