##TITLE=Acenaphthene
##JCAMP-DX=4.24
##DATA TYPE=INFRARED SPECTRUM
##ORIGIN=Sadtler Research Labs Under US-EPA Contract
##OWNER=NIST Standard Reference Data Program
##CAS REGISTRY NO=83-32-9
##MOLFORM=C 12 H 10
##XUNITS=1/CM
##YUNITS=ABSORBANCE
##XFACTOR=1.0
##YFACTOR=0.000034320
##DELTAX=4.0
##FIRSTX=450.0
##LASTX=3966.0
##FIRSTY=0.038027
##MAXX=3966
##MINX=450
##MAXY=0.3432
##MINY=0
##NPOINTS=880
##XYDATA=(X++(Y..Y))
450.0 1108 709 751 214 398 292 598 644 791 773
490.0 620 157 0 694 617 789 608 290 364 512
530.0 471 708 512 772 460 554 680 429 317 341
570.0 316 111 400 514 549 203 396 198 498 437
610.0 418 543 627 555 289 545 554 383 509 519
650.0 606 493 400 411 373 587 505 303 172 409
690.0 120 338 249 236 365 386 348 413 434 308
730.0 356 489 792 642 1234 1820 2709 3902 4808 6200
770.0 7086 8050 8684 10000 9737 8362 6696 4719 3169 2111
810.0 1313 1112 861 1211 1569 1431 2951 2625 1768 1236
850.0 1053 530 374 251 184 305 207 279 296 268
890.0 261 368 394 395 317 283 241 200 270 248
930.0 185 190 205 223 242 314 304 331 435 453
970.0 463 394 439 382 410 479 482 640 757 874
1010.0 901 850 852 698 566 488 357 326 255 246
1050.0 248 209 274 259 240 291 319 357 469 495
1090.0 535 503 458 405 343 239 308 278 289 230
1130.0 238 234 277 289 273 278 291 298 339 450
1170.0 481 497 497 408 289 240 258 244 266 325
1210.0 330 310 310 272 240 228 216 238 304 363
1250.0 386 413 443 444 416 384 356 318 293 269
1290.0 210 203 205 217 218 221 250 248 251 245
1330.0 244 253 325 430 534 686 962 1448 1948 2108
1370.0 2052 1918 1365 765 382 296 232 234 279 321
1410.0 492 613 817 859 965 994 895 786 737 720
1450.0 723 604 661 587 610 486 509 593 600 672
1490.0 777 899 881 826 765 553 550 349 347 371
1530.0 359 345 230 203 190 229 168 139 129 274
1570.0 284 337 430 615 907 1339 1885 2552 3264 3640
1610.0 3864 3557 2437 1489 982 695 601 426 423 374
1650.0 245 308 240 387 280 297 263 307 274 245
1690.0 291 337 337 315 404 370 379 259 266 349
1730.0 295 437 393 502 530 557 684 840 960 986
1770.0 876 633 462 304 247 226 209 193 227 162
1810.0 167 196 227 283 321 305 371 335 368 328
1850.0 369 366 356 337 255 235 172 170 160 172
1890.0 201 258 341 472 640 776 881 840 768 584
1930.0 388 245 169 147 120 102 102 96 101 105
1970.0 106 93 89 91 91 93 103 96 95 98
2010.0 102 106 115 107 107 100 94 94 94 100
2050.0 92 95 83 81 87 81 76 65 68 75
2090.0 63 64 66 63 67 65 56 64 50 69
2130.0 70 74 79 92 85 99 94 87 81 80
2170.0 65 70 71 74 81 73 72 83 82 86
2210.0 95 108 100 99 101 82 97 103 94 97
2250.0 96 81 87 90 93 102 106 110 117 140
2290.0 145 148 139 158 157 148 150 119 97 88
2330.0 63 66 25 68 53 138 72 100 43 61
2370.0 37 51 85 102 92 61 61 71 66 73
2410.0 89 96 105 108 103 94 92 81 58 70
2450.0 66 58 53 50 52 43 58 51 53 56
2490.0 58 80 73 80 90 81 53 58 56 59
2530.0 50 53 48 36 47 28 29 39 42 55
2570.0 60 63 45 45 47 38 39 33 35 40
2610.0 47 54 61 57 66 70 76 67 70 78
2650.0 67 64 68 65 64 66 52 53 49 62
2690.0 54 60 52 44 56 58 51 62 52 82
2730.0 71 78 86 94 88 78 82 84 78 87
2770.0 92 94 98 88 120 120 136 162 169 214
2810.0 229 250 301 301 340 388 457 649 909 1310
2850.0 1600 1744 1780 1590 1291 1018 863 844 852 1008
2890.0 1234 1455 1581 1531 1511 1433 1492 1973 2908 4449
2930.0 6035 7598 8771 8295 8666 8454 5743 3480 2649 1602
2970.0 859 564 382 347 294 301 314 320 421 512
3010.0 672 917 1220 1731 2401 3339 4553 5934 7258 8078
3050.0 8472 8598 8472 7971 7172 6502 5517 4002 2818 1935
3090.0 1274 982 864 800 760 660 548 418 278 181
3130.0 135 112 104 120 100 105 154 161 167 162
3170.0 133 129 110 90 83 86 113 129 146 136
3210.0 118 119 98 112 78 84 99 64 63 74
3250.0 62 55 56 60 57 59 65 60 73 66
3290.0 38 44 61 50 48 58 60 39 53 51
3330.0 31 73 44 59 41 50 62 45 66 71
3370.0 72 45 55 33 34 60 52 19 71 53
3410.0 37 51 57 59 66 51 63 65 48 82
3450.0 85 84 76 79 76 99 83 80 112 121
3490.0 93 105 98 142 121 119 111 109 107 115
3530.0 110 95 106 118 133 147 115 161 114 172
3570.0 153 126 129 138 149 131 106 119 130 134
3610.0 157 155 144 112 143 67 106 92 170 135
3650.0 148 102 112 123 104 173 58 142 99 109
3690.0 78 119 177 104 142 175 111 145 115 219
3730.0 109 98 142 36 120 30 136 68 111 43
3770.0 73 133 68 65 119 117 129 60 46 24
3810.0 88 137 130 63 116 147 143 136 241 189
3850.0 234 37 254 122 116 131 92 134 194 119
3890.0 112 63 106 106 115 112 118 126 171 113
3930.0 157 122 123 155 93 169 173 131 157 125
##END=
