##TITLE=Phenol, 4-phenoxy-
##JCAMP-DX=4.24
##DATA TYPE=INFRARED SPECTRUM
##ORIGIN=Sadtler Research Labs Under US-EPA Contract
##OWNER=NIST Standard Reference Data Program
##CAS REGISTRY NO=831-82-3
##MOLFORM=C 12 H 10 O 2
##XUNITS=1/CM
##YUNITS=ABSORBANCE
##XFACTOR=1.0
##YFACTOR=0.000097314
##DELTAX=4.0
##FIRSTX=450.0
##LASTX=3966.0
##FIRSTY=0.034352
##MAXX=3966
##MINX=450
##MAXY=0.97314
##MINY=0
##NPOINTS=880
##XYDATA=(X++(Y..Y))
450.0 353 321 321 277 243 265 301 265 266 324
490.0 446 558 584 545 590 469 417 317 205 285
530.0 199 144 85 22 168 152 51 78 4 105
570.0 101 9 83 98 147 158 34 142 146 121
610.0 105 31 108 103 74 55 36 85 188 136
650.0 143 119 163 190 148 176 271 461 595 691
690.0 778 768 675 511 396 288 221 262 228 329
730.0 459 507 650 732 655 795 749 813 825 752
770.0 787 759 726 674 563 565 560 534 664 760
810.0 881 964 853 873 928 1081 1290 1310 1273 1040
850.0 772 597 471 561 868 1093 1052 752 416 303
890.0 236 203 175 181 192 169 140 96 137 127
930.0 111 79 57 98 86 56 68 76 104 95
970.0 71 97 93 106 114 66 98 114 130 190
1010.0 185 245 301 306 295 190 111 104 66 75
1050.0 112 140 185 186 234 280 306 322 333 432
1090.0 524 533 468 367 342 329 287 273 292 307
1130.0 320 332 350 412 558 794 1156 1696 2426 3526
1170.0 4450 4683 4411 3520 2882 2356 1971 1866 1809 1861
1210.0 2047 2391 3182 4427 6350 9198 9761 10000 7077 4121
1250.0 2497 1773 1499 1364 1237 1141 1016 941 882 800
1290.0 751 699 643 636 606 646 761 888 929 833
1330.0 703 605 528 422 307 221 186 160 131 116
1370.0 117 122 117 119 100 106 119 110 122 119
1410.0 188 249 311 437 572 758 857 756 641 478
1450.0 416 417 347 415 481 608 884 1505 2945 5440
1490.0 7217 7184 5875 5744 6575 5896 4228 2296 1441 1073
1530.0 773 564 442 306 310 273 253 239 244 310
1570.0 360 488 646 906 1198 1471 1634 1575 1308 983
1610.0 703 519 386 321 266 218 214 164 155 153
1650.0 130 110 165 161 175 146 124 110 71 47
1690.0 90 82 71 36 72 97 83 70 72 89
1730.0 103 61 72 62 56 55 50 45 59 68
1770.0 85 74 82 75 64 57 33 39 28 44
1810.0 39 39 54 59 66 62 73 88 96 90
1850.0 106 109 114 124 120 119 104 99 99 74
1890.0 65 46 49 58 48 57 67 73 94 93
1930.0 89 98 90 100 82 72 82 72 76 67
1970.0 67 89 87 78 81 79 90 91 75 79
2010.0 76 83 78 67 76 82 88 81 81 89
2050.0 97 94 86 86 92 91 82 61 56 59
2090.0 45 40 28 31 44 25 29 19 21 30
2130.0 9 14 17 18 29 14 9 18 14 19
2170.0 10 7 23 17 18 17 8 24 20 14
2210.0 16 17 19 24 16 22 27 28 32 28
2250.0 28 33 36 33 30 28 27 32 25 30
2290.0 32 42 58 51 64 71 73 85 84 78
2330.0 116 93 101 75 42 78 55 52 57 22
2370.0 84 76 71 82 75 86 83 70 81 76
2410.0 97 106 98 122 132 135 130 109 103 99
2450.0 87 81 70 70 74 58 53 51 62 65
2490.0 53 47 43 50 39 34 29 34 45 31
2530.0 28 32 34 39 28 19 31 28 38 33
2570.0 17 44 37 33 31 20 39 32 21 28
2610.0 22 36 33 15 27 27 27 30 4 15
2650.0 23 21 22 10 19 25 21 20 20 23
2690.0 28 21 16 19 24 28 22 16 21 33
2730.0 27 21 21 17 32 25 24 30 31 46
2770.0 41 37 44 33 28 25 13 28 19 24
2810.0 32 13 31 30 22 33 13 28 32 23
2850.0 23 27 28 48 30 34 34 28 43 23
2890.0 28 33 33 42 32 25 40 40 33 27
2930.0 27 34 40 30 30 30 40 35 32 19
2970.0 38 41 31 31 22 56 60 59 81 108
3010.0 170 241 296 383 449 489 538 572 668 714
3050.0 665 570 455 439 473 499 574 623 638 590
3090.0 463 378 345 314 283 204 157 132 105 90
3130.0 53 45 51 54 43 22 29 42 36 19
3170.0 14 28 34 28 23 20 38 40 19 22
3210.0 16 31 32 5 27 15 35 37 15 27
3250.0 25 22 33 6 24 37 27 36 24 29
3290.0 48 21 42 18 28 41 28 31 33 27
3330.0 48 37 37 41 28 44 34 25 35 36
3370.0 51 44 42 47 53 58 41 42 37 58
3410.0 51 37 41 54 57 64 39 44 57 47
3450.0 49 29 37 60 38 53 42 49 69 44
3490.0 39 43 35 70 38 31 59 50 66 40
3530.0 24 58 51 50 28 19 47 52 35 34
3570.0 24 62 53 35 45 32 60 55 34 46
3610.0 50 66 64 66 96 121 195 279 460 741
3650.0 1098 1529 1536 1252 763 366 212 98 79 74
3690.0 35 39 40 40 60 34 21 50 36 46
3730.0 36 4 27 22 13 17 4 35 31 25
3770.0 24 15 25 25 18 32 24 28 33 31
3810.0 41 42 37 25 31 27 27 27 31 45
3850.0 45 37 55 57 51 46 41 52 45 35
3890.0 49 44 69 66 51 67 58 62 48 33
3930.0 44 47 47 46 35 50 0 4 4 4
##END=
