##TITLE=Benzene, [(phenylmethyl)thio]-
##JCAMP-DX=4.24
##DATA TYPE=INFRARED SPECTRUM
##ORIGIN=Sadtler Research Labs Under US-EPA Contract
##OWNER=NIST Standard Reference Data Program
##CAS REGISTRY NO=831-91-4
##MOLFORM=C 13 H 12 S
##XUNITS=1/CM
##YUNITS=ABSORBANCE
##XFACTOR=1.0
##YFACTOR=0.000041513
##DELTAX=4.0
##FIRSTX=450.0
##LASTX=3966.0
##FIRSTY=0.012537
##MAXX=3966
##MINX=450
##MAXY=0.41513
##MINY=0
##NPOINTS=880
##XYDATA=(X++(Y..Y))
450.0 302 301 594 686 988 949 1112 1362 1624 1645
490.0 1316 940 608 376 191 172 115 77 72 69
530.0 139 33 116 99 122 233 285 407 577 630
570.0 513 331 162 136 80 90 138 49 24 21
610.0 32 25 84 61 100 57 167 160 184 301
650.0 385 581 778 1233 1444 2291 2817 3452 4613 6378
690.0 8959 9724 10000 8771 7890 6610 5492 4628 4146 4235
730.0 4692 5627 6632 7229 6387 4963 3636 2801 2237 1696
770.0 1239 876 631 481 358 292 236 159 96 62
810.0 78 121 131 77 90 78 136 129 144 156
850.0 175 226 265 327 332 334 320 269 232 212
890.0 195 192 232 300 423 534 616 545 382 254
930.0 173 155 129 122 106 83 98 101 94 86
970.0 78 67 58 69 65 56 127 247 318 320
1010.0 327 415 967 1991 2562 2337 1358 461 186 129
1050.0 214 343 558 779 932 950 881 843 970 1200
1090.0 1248 1029 627 372 286 268 252 236 208 169
1130.0 145 94 94 63 76 90 105 149 190 231
1170.0 277 337 424 499 569 639 701 714 628 501
1210.0 410 397 522 794 1252 1715 1967 1875 1496 1037
1250.0 657 421 292 172 66 86 141 190 218 258
1290.0 303 332 373 398 403 393 389 385 342 300
1330.0 276 263 271 238 181 165 154 175 193 191
1370.0 229 259 281 246 261 234 246 268 281 334
1410.0 424 565 778 979 1191 1442 1725 2000 2155 2221
1450.0 2201 2155 2010 1731 1668 1886 2779 3871 4245 3885
1490.0 3272 3119 2909 2234 1263 579 434 322 317 276
1530.0 292 289 259 324 291 330 369 521 603 826
1570.0 1115 1588 2190 2841 3012 2765 2234 1879 1663 1457
1610.0 1138 758 534 363 316 233 240 211 209 177
1650.0 245 193 212 191 185 164 209 129 196 156
1690.0 161 156 235 259 345 425 567 669 641 631
1730.0 663 658 444 354 319 301 260 245 218 222
1770.0 274 303 346 395 495 570 627 572 491 363
1810.0 304 266 231 222 193 193 159 169 172 207
1850.0 205 225 265 323 368 417 427 424 411 379
1890.0 350 288 229 179 153 152 165 201 258 304
1930.0 378 465 536 584 599 591 571 498 368 222
1970.0 122 79 67 55 49 46 42 34 33 34
2010.0 43 49 47 40 29 25 15 14 11 7
2050.0 0 3 8 12 17 14 9 14 10 9
2090.0 6 8 7 14 7 6 7 1 0 4
2130.0 14 11 6 13 5 15 9 15 15 15
2170.0 20 18 15 19 22 13 16 16 18 16
2210.0 15 29 26 25 31 28 36 35 46 49
2250.0 46 52 49 47 48 59 55 65 79 79
2290.0 95 101 117 129 160 197 222 202 175 146
2330.0 97 62 64 90 49 171 48 87 15 0
2370.0 14 56 84 101 86 60 50 46 54 52
2410.0 55 57 56 60 56 51 42 40 32 36
2450.0 34 42 47 41 40 35 43 39 35 41
2490.0 41 35 43 43 49 43 45 50 49 50
2530.0 55 59 51 60 57 60 58 52 53 58
2570.0 69 65 69 76 84 87 91 97 102 99
2610.0 111 102 98 103 88 94 94 90 100 100
2650.0 101 110 120 122 126 115 114 105 103 92
2690.0 84 83 79 83 82 85 96 120 124 123
2730.0 114 128 127 103 91 71 60 55 60 72
2770.0 66 75 92 111 124 143 146 162 176 195
2810.0 196 203 232 246 256 274 282 270 263 254
2850.0 254 247 239 248 240 239 240 230 225 221
2890.0 232 262 296 350 432 566 767 1050 1353 1584
2930.0 1674 1589 1365 1122 930 829 812 823 821 742
2970.0 614 510 435 397 399 432 499 609 763 967
3010.0 1213 1489 1845 2348 2985 3704 4242 4315 3883 3208
3050.0 2745 2889 3617 5088 7069 8429 8499 7390 6084 5241
3090.0 4443 3556 2657 1939 1479 1168 911 682 480 360
3130.0 290 254 228 226 227 226 206 167 145 130
3170.0 125 102 96 74 66 55 49 41 42 44
3210.0 35 28 32 47 24 30 32 17 24 22
3250.0 16 26 26 19 34 38 25 26 31 25
3290.0 21 29 36 33 29 20 25 21 26 32
3330.0 24 34 36 29 30 36 28 40 40 31
3370.0 38 38 36 38 35 39 31 33 46 49
3410.0 48 41 45 41 38 40 63 47 51 56
3450.0 57 58 54 51 39 48 49 49 50 39
3490.0 57 50 57 67 56 45 52 59 54 56
3530.0 57 56 54 73 46 52 69 53 66 33
3570.0 40 48 59 59 51 55 57 63 59 62
3610.0 41 59 51 45 64 64 67 107 94 93
3650.0 58 80 112 64 101 36 74 34 86 65
3690.0 65 88 101 76 58 51 63 48 46 73
3730.0 22 21 42 63 8 64 21 58 75 74
3770.0 79 82 89 64 93 66 65 33 66 13
3810.0 76 28 68 33 26 60 46 37 50 57
3850.0 43 38 3 74 90 79 75 92 36 53
3890.0 92 60 83 29 64 79 52 59 84 76
3930.0 53 57 78 91 53 61 70 61 47 61
##END=
