##TITLE=1-Propanone, 1-(2,4-dimethoxyphenyl)-
##JCAMP-DX=4.24
##DATA TYPE=INFRARED SPECTRUM
##ORIGIN=Sadtler Research Labs Under US-EPA Contract
##OWNER=NIST Standard Reference Data Program
##CAS REGISTRY NO=831-00-5
##MOLFORM=C 11 H 14 O 3
##XUNITS=1/CM
##YUNITS=ABSORBANCE
##XFACTOR=1.0
##YFACTOR=0.000090247
##DELTAX=4.0
##FIRSTX=450.0
##LASTX=3966.0
##FIRSTY=0.010469
##MAXX=3966
##MINX=450
##MAXY=0.90247
##MINY=0
##NPOINTS=880
##XYDATA=(X++(Y..Y))
450.0 116 83 4 83 32 57 42 55 48 33
490.0 38 42 63 31 111 123 180 206 274 301
530.0 325 341 307 293 300 298 331 363 401 376
570.0 385 334 349 336 336 324 316 282 239 198
610.0 191 169 186 192 185 198 211 198 184 180
650.0 175 149 146 110 120 84 58 45 48 26
690.0 23 12 28 28 26 21 32 43 44 53
730.0 78 82 62 72 77 59 65 60 67 75
770.0 86 118 158 215 308 402 469 482 479 450
810.0 429 450 496 598 751 916 1038 1111 1024 837
850.0 648 464 332 239 186 136 106 89 89 84
890.0 80 103 111 140 170 204 250 316 384 488
930.0 650 908 1301 1766 2194 2392 2227 1738 1129 654
970.0 437 355 318 325 336 382 432 528 671 896
1010.0 1207 1531 1762 1915 2094 2383 2717 2935 2896 2581
1050.0 2081 1570 1154 878 741 724 770 864 958 1050
1090.0 1086 1096 1078 1105 1258 1584 2052 2531 2959 3282
1130.0 3386 3215 2815 2408 2341 2775 3682 4696 5158 4783
1170.0 3755 2763 2207 1978 1950 2128 2594 3483 4818 6412
1210.0 7603 7780 6788 5183 3757 2920 2614 2712 3135 3808
1250.0 4554 5107 5273 5061 4688 4373 4156 4005 3892 3844
1290.0 3858 3890 3851 3670 3368 3024 2702 2421 2093 1758
1330.0 1495 1372 1375 1452 1494 1443 1277 1065 863 725
1370.0 662 662 702 714 737 772 895 1140 1446 1781
1410.0 2062 2201 2152 1915 1645 1459 1456 1669 1892 1936
1450.0 1904 1925 2364 2996 3433 3439 3115 2605 2217 2240
1490.0 2484 2772 2836 2555 1985 1358 898 682 561 499
1530.0 465 468 515 591 629 726 922 1209 1574 2058
1570.0 2703 3319 3815 4122 4311 4873 5942 7677 9150 10000
1610.0 9299 7389 5161 3330 2208 1506 1156 936 792 725
1650.0 749 753 768 829 935 1080 1351 1777 2554 3673
1690.0 4758 5290 5244 4345 3299 2549 2005 1598 1177 909
1730.0 696 588 458 389 331 278 232 190 174 132
1770.0 132 122 97 78 60 63 67 58 44 43
1810.0 39 38 23 29 25 40 23 25 35 37
1850.0 35 33 43 40 56 67 59 61 64 65
1890.0 62 65 56 54 48 54 50 51 60 52
1930.0 51 48 54 53 54 47 42 43 40 38
1970.0 29 27 24 24 19 22 18 18 15 21
2010.0 23 22 27 27 29 31 37 35 41 42
2050.0 48 52 56 61 69 75 74 73 67 60
2090.0 56 43 38 32 25 21 21 22 25 23
2130.0 27 25 20 19 20 22 19 22 22 24
2170.0 25 29 29 31 36 39 46 49 54 53
2210.0 47 41 34 20 16 14 11 9 4 7
2250.0 4 3 3 2 0 0 4 4 12 15
2290.0 22 29 36 37 41 45 45 43 50 54
2330.0 47 51 44 59 50 50 48 42 50 49
2370.0 54 55 58 48 36 29 23 21 22 27
2410.0 26 30 29 28 30 30 31 31 32 34
2450.0 36 33 33 29 32 27 28 29 28 28
2490.0 29 29 27 29 25 28 27 28 29 29
2530.0 30 25 24 24 24 24 28 27 32 37
2570.0 40 50 56 62 64 69 68 70 60 55
2610.0 52 46 40 37 38 33 32 23 26 25
2650.0 25 26 23 27 27 26 26 28 25 24
2690.0 28 33 37 38 40 40 44 41 44 42
2730.0 48 47 55 58 59 64 60 64 65 70
2770.0 72 84 87 96 107 115 128 144 160 183
2810.0 209 236 276 329 402 515 685 932 1214 1417
2850.0 1427 1267 1034 858 777 752 773 824 923 1048
2890.0 1143 1185 1184 1178 1200 1272 1379 1491 1570 1605
2930.0 1653 1791 2118 2688 3271 3507 3355 2941 2599 2411
2970.0 2228 2072 2016 1970 1907 1796 1654 1642 1801 2075
3010.0 2201 1983 1500 981 669 518 436 387 349 324
3050.0 298 276 258 244 242 252 273 303 348 385
3090.0 404 397 359 305 247 199 174 162 148 135
3130.0 128 116 109 103 97 93 87 78 73 66
3170.0 62 55 53 44 49 40 38 33 27 27
3210.0 26 23 23 17 11 11 14 12 13 13
3250.0 14 14 15 14 13 13 11 17 12 12
3290.0 15 11 10 10 19 19 22 18 20 19
3330.0 25 25 28 39 38 41 51 59 61 75
3370.0 73 65 63 51 54 42 39 37 41 37
3410.0 40 33 29 36 26 26 25 26 23 26
3450.0 23 25 18 22 24 25 25 23 18 22
3490.0 28 28 21 16 17 17 17 23 16 14
3530.0 20 27 17 25 7 15 30 10 21 9
3570.0 0 23 20 20 4 1 19 24 21 16
3610.0 5 12 17 25 10 7 12 21 19 19
3650.0 31 24 17 18 15 21 28 24 23 16
3690.0 29 19 0 10 15 18 20 11 19 7
3730.0 17 22 10 24 3 40 42 33 30 16
3770.0 30 22 26 26 19 15 26 23 32 28
3810.0 26 15 30 24 29 20 32 26 45 18
3850.0 13 23 28 19 26 18 19 20 18 15
3890.0 27 36 14 15 31 31 16 0 6 13
3930.0 12 11 10 10 9 0 16 11 8 6
##END=
