##TITLE=2,4,6-Trimethoxyacetophenone
##JCAMP-DX=4.24
##DATA TYPE=INFRARED SPECTRUM
##ORIGIN=Sadtler Research Labs Under US-EPA Contract
##OWNER=NIST Standard Reference Data Program
##CAS REGISTRY NO=832-58-6
##MOLFORM=C 11 H 14 O 4
##XUNITS=1/CM
##YUNITS=ABSORBANCE
##XFACTOR=1.0
##YFACTOR=0.000073535
##DELTAX=4.0
##FIRSTX=450.0
##LASTX=3966.0
##FIRSTY=0.008751
##MAXX=3966
##MINX=450
##MAXY=0.73535
##MINY=0
##NPOINTS=880
##XYDATA=(X++(Y..Y))
450.0 119 142 26 0 66 117 201 281 213 118
490.0 98 186 239 206 246 204 164 171 319 377
530.0 449 473 488 555 671 797 887 885 840 680
570.0 534 494 429 328 301 183 138 178 214 214
610.0 226 214 198 216 293 328 384 335 287 260
650.0 225 235 265 216 213 192 186 187 221 251
690.0 238 212 153 168 175 193 218 138 123 106
730.0 127 190 204 203 243 255 237 308 306 255
770.0 234 202 189 259 322 374 404 500 512 559
810.0 683 901 1016 1015 968 921 806 703 628 483
850.0 333 315 275 231 238 256 171 158 116 191
890.0 169 227 192 213 177 219 244 285 295 342
930.0 394 490 602 714 822 913 946 1024 1125 1122
970.0 1039 890 783 707 674 653 687 776 837 905
1010.0 937 1056 1212 1228 1333 1381 1567 1894 2114 2079
1050.0 1802 1480 1157 999 1035 1159 1254 1327 1521 1623
1090.0 1771 2218 2624 3284 3916 4641 5634 6487 7358 7949
1130.0 7552 7591 7612 7245 8727 9138 10000 7896 5633 3878
1170.0 2628 2092 1855 1865 1991 2338 3106 4214 5309 6309
1210.0 6802 6415 6402 5749 5542 5220 5175 5355 4956 4155
1250.0 3127 2268 1709 1384 1087 910 792 766 766 717
1290.0 651 579 506 477 451 489 545 653 835 1099
1330.0 1383 1601 1679 1686 1856 2151 2381 2222 1706 1179
1370.0 877 745 742 828 988 1224 1596 2180 2982 3824
1410.0 4322 4281 3721 2921 2334 1996 1936 1967 2014 1961
1450.0 1980 2375 3018 3677 3851 3523 2965 2376 1890 1587
1490.0 1339 1154 945 809 667 625 633 626 600 636
1530.0 670 678 739 758 900 1037 1200 1407 1834 2432
1570.0 3243 4301 5506 6732 7693 8118 8460 8849 9345 9399
1610.0 8947 7540 5704 4109 2865 2088 1590 1234 1086 925
1650.0 828 703 723 711 725 746 810 854 866 825
1690.0 909 1029 1226 1649 2362 3366 4346 4999 4897 4036
1730.0 2942 1939 1296 926 759 653 575 491 399 343
1770.0 276 245 263 247 236 220 181 180 166 166
1810.0 152 125 111 97 84 81 89 79 70 44
1850.0 63 64 70 77 56 42 58 58 70 77
1890.0 64 65 63 67 73 88 88 67 74 76
1930.0 82 97 103 104 104 106 118 119 119 107
1970.0 92 78 64 58 67 58 59 47 45 49
2010.0 58 68 64 64 63 63 63 72 76 80
2050.0 73 73 75 87 94 114 109 108 108 109
2090.0 109 112 105 99 87 80 85 86 94 94
2130.0 93 86 93 107 106 112 107 99 99 99
2170.0 99 98 92 84 71 70 70 68 62 50
2210.0 39 36 35 49 47 49 48 48 62 75
2250.0 89 93 88 80 81 73 74 74 67 54
2290.0 40 33 40 47 51 44 30 23 22 40
2330.0 40 46 25 18 24 44 59 64 63 37
2370.0 34 33 50 56 45 30 23 22 28 36
2410.0 42 34 33 21 23 27 35 27 23 8
2450.0 7 13 19 27 19 19 19 18 28 36
2490.0 32 20 13 11 12 17 31 18 24 30
2530.0 32 43 54 49 45 38 29 29 28 29
2570.0 21 15 8 3 10 17 19 25 13 13
2610.0 20 34 33 26 19 6 0 8 13 22
2650.0 18 8 10 15 17 30 31 25 20 13
2690.0 27 34 34 31 25 22 23 31 43 46
2730.0 39 39 34 42 57 62 65 58 64 68
2770.0 83 97 93 100 94 101 122 139 159 175
2810.0 194 218 266 333 421 548 759 1096 1456 1691
2850.0 1683 1453 1167 970 874 842 851 881 877 875
2890.0 864 871 885 924 995 1073 1172 1261 1330 1381
2930.0 1459 1642 1999 2514 2963 3093 2900 2583 2328 2091
2970.0 1781 1473 1212 1058 978 996 1100 1343 1767 2269
3010.0 2484 2248 1648 1040 680 511 418 371 325 285
3050.0 263 243 236 238 231 214 207 207 209 230
3090.0 225 228 218 211 203 190 182 162 130 109
3130.0 99 92 97 94 93 78 56 56 64 71
3170.0 70 58 59 29 56 54 58 58 41 29
3210.0 30 30 43 36 38 17 15 22 27 27
3250.0 29 23 16 3 23 37 31 32 11 20
3290.0 24 34 34 36 25 22 22 24 37 38
3330.0 39 32 12 27 29 41 44 28 31 21
3370.0 30 44 53 47 46 26 43 61 69 91
3410.0 78 89 88 80 99 93 80 53 47 39
3450.0 42 57 56 50 44 34 43 36 42 53
3490.0 47 20 15 38 44 49 42 35 27 22
3530.0 38 45 47 34 14 30 27 53 50 44
3570.0 12 24 32 49 54 26 42 21 28 36
3610.0 36 52 42 23 18 0 41 54 59 50
3650.0 8 29 29 58 70 53 43 25 49 69
3690.0 53 77 74 62 63 62 66 91 92 75
3730.0 74 55 56 82 73 78 61 70 84 98
3770.0 106 113 107 100 99 107 119 110 97 95
3810.0 96 98 98 105 118 106 98 80 97 109
3850.0 108 98 103 91 83 105 112 125 120 109
3890.0 100 111 115 123 129 119 117 118 124 138
3930.0 140 131 117 107 118 142 33 42 43 44
##END=
