##TITLE=Phenanthrene, 3-methyl-
##JCAMP-DX=4.24
##DATA TYPE=INFRARED SPECTRUM
##ORIGIN=Sadtler Research Labs Under US-EPA Contract
##OWNER=NIST Standard Reference Data Program
##CAS REGISTRY NO=832-71-3
##MOLFORM=C 15 H 12
##XUNITS=1/CM
##YUNITS=ABSORBANCE
##XFACTOR=1.0
##YFACTOR=0.000047101
##DELTAX=4.0
##FIRSTX=450.0
##LASTX=3966.0
##FIRSTY=0.003815
##MAXX=3966
##MINX=450
##MAXY=0.47101
##MINY=0
##NPOINTS=880
##XYDATA=(X++(Y..Y))
450.0 81 0 356 413 375 51 416 181 59 90
490.0 549 692 853 1365 895 859 532 480 371 219
530.0 105 328 593 996 780 1013 930 297 309 183
570.0 196 30 281 208 439 662 740 616 291 263
610.0 178 93 564 1105 1246 1242 636 278 295 165
650.0 170 133 168 103 185 393 165 234 315 322
690.0 363 382 598 441 616 371 3 921 857 1542
730.0 2822 4160 6344 6790 4450 2742 1389 565 397 252
770.0 349 325 366 567 845 950 785 834 602 618
810.0 786 1075 2287 4208 6072 10000 8563 5811 3337 1627
850.0 754 784 941 1064 1033 1168 1302 1218 1052 862
890.0 639 445 281 245 228 242 251 246 308 185
930.0 224 338 435 446 524 495 433 375 303 309
970.0 271 280 249 278 372 365 420 412 347 279
1010.0 288 292 286 317 377 542 864 1065 1074 828
1050.0 464 307 274 226 269 212 150 227 217 291
1090.0 283 349 358 365 337 187 185 265 189 196
1130.0 190 271 333 451 641 717 649 602 464 397
1170.0 311 298 367 484 668 708 674 555 413 321
1210.0 285 318 337 344 350 405 548 618 680 636
1250.0 528 379 315 229 213 246 262 291 347 357
1290.0 367 350 377 316 257 193 190 227 211 294
1330.0 313 304 305 340 355 367 327 343 333 340
1370.0 362 387 444 438 426 443 383 430 467 531
1410.0 506 503 552 630 679 753 720 819 957 1310
1450.0 1851 2275 2095 1709 1121 827 679 532 530 522
1490.0 570 626 888 1384 1942 2260 2033 1629 1221 1090
1530.0 890 734 692 533 489 413 389 439 442 423
1570.0 415 417 412 352 381 426 685 907 1257 1402
1610.0 1463 1585 1507 1473 1243 1019 754 610 482 417
1650.0 441 464 506 411 435 356 343 329 349 381
1690.0 374 363 347 327 250 247 211 305 350 394
1730.0 454 416 502 472 473 464 394 324 269 335
1770.0 378 435 409 373 338 294 295 315 333 361
1810.0 356 349 329 343 361 351 275 221 148 124
1850.0 103 110 120 123 141 136 185 217 298 385
1890.0 453 500 508 534 582 580 537 456 350 308
1930.0 281 333 398 384 326 209 120 104 106 67
1970.0 55 86 68 56 71 65 68 87 80 61
2010.0 92 86 83 94 102 80 87 61 75 78
2050.0 91 79 92 96 87 95 97 102 117 109
2090.0 108 97 107 102 79 65 86 76 62 74
2130.0 63 91 104 76 98 106 89 99 104 95
2170.0 98 83 95 108 108 112 89 88 73 75
2210.0 59 62 51 56 58 74 67 62 56 83
2250.0 87 94 85 90 72 98 114 113 127 187
2290.0 225 255 320 328 388 440 364 334 326 317
2330.0 318 313 322 233 444 318 446 327 368 291
2370.0 316 308 292 275 213 119 91 99 98 78
2410.0 74 73 92 101 86 75 90 92 78 75
2450.0 77 74 96 65 65 80 90 68 75 58
2490.0 61 59 55 45 48 34 31 14 21 35
2530.0 22 25 5 10 32 33 44 60 58 95
2570.0 89 98 103 87 64 85 83 82 97 78
2610.0 60 63 70 70 89 75 79 66 75 79
2650.0 74 86 94 104 92 79 78 99 64 76
2690.0 75 64 63 83 80 78 106 95 102 102
2730.0 105 131 164 188 187 164 141 102 91 68
2770.0 93 95 92 90 96 119 118 120 111 137
2810.0 131 141 159 178 174 188 201 230 262 327
2850.0 388 466 604 741 952 1142 1249 1259 1191 1067
2890.0 998 968 975 1034 1111 1191 1355 1537 1834 2281
2930.0 2697 2913 2709 2193 1636 1290 1198 1181 1133 1031
2970.0 973 949 944 906 890 843 859 938 1091 1416
3010.0 1869 2439 2910 3286 3377 3384 3420 3454 3713 4202
3050.0 5034 5979 6529 6490 5976 5278 4829 4462 3945 3345
3090.0 2590 1866 1271 874 682 580 527 487 412 399
3130.0 363 334 281 245 181 166 127 106 96 101
3170.0 94 88 88 79 109 98 94 92 98 99
3210.0 111 90 112 159 166 126 143 149 156 132
3250.0 117 103 124 102 126 121 91 108 88 114
3290.0 111 119 104 122 122 121 107 117 119 121
3330.0 123 122 136 99 129 109 116 110 98 132
3370.0 101 108 83 90 139 113 105 135 119 125
3410.0 85 74 77 102 90 68 105 107 81 70
3450.0 47 86 74 60 59 63 66 65 78 62
3490.0 58 50 63 45 73 75 44 50 49 20
3530.0 47 52 53 39 45 49 91 53 78 98
3570.0 71 64 83 91 50 65 66 51 36 49
3610.0 20 46 46 26 66 61 40 96 61 48
3650.0 109 77 125 31 85 1 122 50 56 103
3690.0 55 157 72 132 105 75 91 79 111 71
3730.0 122 138 86 93 78 110 147 111 107 60
3770.0 87 61 105 63 73 66 95 154 151 79
3810.0 168 52 117 18 149 81 18 73 48 118
3850.0 27 79 58 112 37 3 42 47 89 144
3890.0 77 39 15 143 73 119 16 4 43 95
3930.0 140 87 156 255 114 112 243 99 81 98
##END=
