##TITLE=o-Terphenyl
##JCAMP-DX=4.24
##DATA TYPE=INFRARED SPECTRUM
##ORIGIN=Sadtler Research Labs Under US-EPA Contract
##OWNER=NIST Standard Reference Data Program
##CAS REGISTRY NO=84-15-1
##MOLFORM=C 18 H 14
##XUNITS=1/CM
##YUNITS=ABSORBANCE
##XFACTOR=1.0
##YFACTOR=0.000059283
##DELTAX=4.0
##FIRSTX=450.0
##LASTX=3966.0
##FIRSTY=0.010197
##MAXX=3966
##MINX=450
##MAXY=0.59283
##MINY=0
##NPOINTS=880
##XYDATA=(X++(Y..Y))
450.0 172 274 204 395 246 405 303 410 283 304
490.0 409 428 487 593 806 885 994 1017 819 579
530.0 403 367 309 389 513 893 1410 1777 1533 933
570.0 435 229 158 137 166 187 234 210 240 318
610.0 513 686 824 677 406 267 128 130 116 171
650.0 227 304 387 531 698 880 880 771 844 1133
690.0 2924 6437 10000 9465 6296 2974 1486 962 838 928
730.0 1213 1924 3493 5764 8137 8597 6124 4488 3214 2919
770.0 2817 2374 1578 755 395 269 235 181 143 97
810.0 92 89 122 159 184 195 179 192 188 175
850.0 162 154 181 245 301 318 274 201 146 97
890.0 104 109 165 324 560 690 571 349 182 150
930.0 134 130 149 177 206 166 133 97 103 111
970.0 118 143 172 166 217 294 411 541 958 1632
1010.0 1924 1539 741 210 142 139 165 136 100 89
1050.0 158 280 409 551 675 758 655 418 189 60
1090.0 7 1 11 38 71 90 100 87 61 32
1130.0 27 26 30 41 41 47 66 81 90 82
1170.0 94 159 219 215 160 84 68 59 70 66
1210.0 73 76 74 79 82 108 125 130 122 108
1250.0 89 90 91 92 98 128 159 162 168 167
1290.0 179 181 182 155 143 126 105 109 140 186
1330.0 185 152 101 79 82 88 90 93 99 103
1370.0 138 149 180 162 153 152 171 172 174 200
1410.0 218 280 347 553 792 1144 1347 1354 1236 1063
1450.0 1032 860 865 1149 1940 2810 3026 2658 1685 1072
1490.0 980 1000 921 635 432 263 260 229 188 194
1530.0 187 242 236 209 131 126 108 94 135 178
1570.0 293 370 475 588 698 933 1125 1343 1109 851
1610.0 568 436 358 278 211 171 161 151 162 144
1650.0 150 139 164 160 152 147 174 183 204 198
1690.0 209 190 160 125 135 148 151 152 144 141
1730.0 145 165 222 265 283 242 197 140 99 97
1770.0 103 119 146 156 208 278 385 435 418 372
1810.0 351 338 302 220 154 122 127 165 174 170
1850.0 143 131 141 199 264 324 344 334 355 376
1890.0 369 285 196 134 144 193 284 339 329 285
1930.0 287 371 490 563 567 539 486 371 237 124
1970.0 69 54 56 56 60 54 49 39 37 33
2010.0 34 36 27 33 32 33 31 40 36 38
2050.0 35 35 35 25 28 25 23 24 25 21
2090.0 30 24 19 20 15 19 9 11 17 16
2130.0 19 17 23 19 23 25 21 23 27 25
2170.0 27 28 30 31 32 27 23 21 21 24
2210.0 26 26 35 37 36 36 37 30 40 41
2250.0 43 42 36 40 34 40 45 50 53 54
2290.0 56 48 49 57 72 94 119 118 116 100
2330.0 95 105 92 114 58 77 69 59 58 50
2370.0 33 23 28 29 29 30 33 35 35 34
2410.0 34 31 28 29 29 28 24 24 25 21
2450.0 20 17 23 23 18 19 15 16 16 13
2490.0 19 19 15 18 21 18 18 19 17 17
2530.0 18 25 20 23 18 17 16 16 23 21
2570.0 32 29 30 36 41 43 44 47 45 50
2610.0 51 49 43 41 41 29 25 24 17 14
2650.0 11 15 11 17 17 10 11 14 12 16
2690.0 10 11 12 8 10 6 9 10 5 5
2730.0 7 0 8 4 9 15 15 16 17 21
2770.0 26 18 18 27 31 31 21 26 31 28
2810.0 27 34 37 41 44 51 52 56 62 70
2850.0 77 85 106 126 137 145 163 165 158 149
2890.0 134 119 108 99 100 104 111 126 145 175
2930.0 208 217 195 176 146 120 103 95 110 117
2970.0 120 138 151 161 167 185 205 248 322 451
3010.0 666 1025 1602 2353 3060 3401 3336 2958 2517 2232
3050.0 2319 2890 4039 5691 7119 7426 6453 4980 4004 3458
3090.0 2792 2104 1535 1204 1008 859 719 585 482 396
3130.0 344 299 281 248 216 197 164 126 96 76
3170.0 66 49 41 40 36 33 27 28 30 19
3210.0 27 14 14 15 16 17 14 9 11 8
3250.0 2 14 9 9 14 17 20 19 19 13
3290.0 20 25 25 13 18 24 29 17 16 26
3330.0 25 18 12 15 9 19 21 18 17 12
3370.0 8 19 25 24 21 13 16 20 30 24
3410.0 17 14 19 18 27 24 14 29 23 12
3450.0 16 8 19 4 4 12 13 13 19 21
3490.0 12 11 9 12 9 9 6 7 20 11
3530.0 10 16 18 7 23 4 24 21 11 21
3570.0 21 21 27 16 34 11 38 29 33 25
3610.0 46 32 32 18 19 47 50 45 63 64
3650.0 96 64 48 66 46 78 50 101 53 83
3690.0 66 64 64 56 58 72 58 38 28 33
3730.0 59 65 37 36 52 14 43 25 34 30
3770.0 34 33 40 37 37 41 29 32 27 63
3810.0 23 53 45 48 41 60 56 64 39 32
3850.0 37 52 3 5 29 52 14 14 35 33
3890.0 12 24 30 49 24 26 15 41 35 28
3930.0 33 29 53 23 17 42 36 27 26 24
##END=
