##TITLE=9,10-Anthracenedione, 2-methyl-
##JCAMP-DX=4.24
##DATA TYPE=INFRARED SPECTRUM
##ORIGIN=Sadtler Research Labs Under US-EPA Contract
##OWNER=NIST Standard Reference Data Program
##CAS REGISTRY NO=84-54-8
##MOLFORM=C 15 H 10 O 2
##XUNITS=1/CM
##YUNITS=ABSORBANCE
##XFACTOR=1.0
##YFACTOR=0.000060043
##DELTAX=4.0
##FIRSTX=450.0
##LASTX=3966.0
##FIRSTY=0.015611
##MAXX=3966
##MINX=450
##MAXY=0.60043
##MINY=0
##NPOINTS=880
##XYDATA=(X++(Y..Y))
450.0 260 294 29 245 0 159 151 195 134 140
490.0 197 65 135 128 215 185 280 307 264 203
530.0 161 207 131 181 151 153 132 177 149 139
570.0 215 235 178 291 209 131 162 114 119 183
610.0 139 205 160 188 172 226 360 504 526 368
650.0 275 282 292 183 226 178 171 144 198 199
690.0 220 359 624 1235 1984 3203 2926 2002 1149 516
730.0 253 214 190 177 223 186 177 165 169 147
770.0 162 197 232 286 300 262 190 180 182 222
810.0 236 294 286 277 331 434 648 834 1010 937
850.0 642 440 268 207 176 182 158 181 167 172
890.0 201 226 264 286 351 400 528 784 1350 2023
930.0 2294 1833 1018 512 352 361 442 650 958 1154
970.0 1073 779 498 369 342 315 312 287 291 267
1010.0 253 217 165 144 140 145 137 152 156 175
1050.0 180 173 167 144 147 129 136 131 138 139
1090.0 147 164 179 195 193 207 198 201 186 192
1130.0 203 260 381 456 520 593 690 706 596 426
1170.0 339 309 290 249 196 191 195 259 345 420
1210.0 457 478 467 428 371 350 402 463 598 781
1250.0 1048 1303 1530 1661 1727 1851 2186 2696 3654 5238
1290.0 7142 8490 8266 7103 6233 7256 9329 10000 7537 4015
1330.0 1796 1124 791 557 416 340 300 290 292 304
1370.0 339 365 391 416 417 401 370 339 351 357
1410.0 362 387 345 343 305 277 210 194 178 179
1450.0 158 158 150 175 212 251 276 310 328 275
1490.0 229 232 215 211 177 174 188 186 131 173
1530.0 145 157 134 135 157 194 256 236 361 406
1570.0 487 487 600 789 1072 1592 1983 2578 2510 2531
1610.0 2097 1589 1005 649 480 371 344 302 361 351
1650.0 414 359 427 504 680 1007 1736 3128 5624 6914
1690.0 7829 5767 3665 1525 805 657 489 478 418 513
1730.0 403 397 342 323 236 184 206 159 171 138
1770.0 140 83 123 114 124 118 114 121 92 135
1810.0 116 131 112 120 100 85 91 84 82 60
1850.0 96 96 115 115 118 97 114 129 124 130
1890.0 109 105 83 83 70 68 63 61 63 63
1930.0 88 91 115 116 143 152 151 155 142 128
1970.0 121 131 123 130 111 86 62 61 69 61
2010.0 71 66 70 60 70 65 65 65 61 69
2050.0 63 69 65 61 51 60 53 52 52 48
2090.0 57 56 68 60 67 60 59 54 54 62
2130.0 54 60 57 59 55 62 57 57 59 58
2170.0 61 51 56 53 52 48 51 53 47 53
2210.0 51 55 54 54 50 55 55 60 66 62
2250.0 65 61 63 52 59 51 54 54 56 57
2290.0 58 61 55 67 66 66 61 62 65 49
2330.0 59 62 56 46 65 65 62 59 61 64
2370.0 54 57 48 54 54 59 53 53 54 56
2410.0 55 53 51 42 48 43 45 39 39 43
2450.0 40 47 43 51 44 52 48 45 49 48
2490.0 46 42 42 33 35 36 38 34 37 38
2530.0 30 34 32 36 23 27 23 22 23 27
2570.0 26 30 35 33 41 41 53 51 53 56
2610.0 59 53 54 51 57 59 49 53 50 50
2650.0 48 52 51 42 48 49 55 53 59 54
2690.0 56 58 50 53 52 52 42 45 42 38
2730.0 35 36 41 47 56 49 46 40 39 36
2770.0 39 44 40 45 43 50 43 45 46 47
2810.0 45 49 52 51 51 57 64 61 70 77
2850.0 84 99 118 148 176 198 217 226 226 221
2890.0 214 213 214 211 217 219 234 247 283 341
2930.0 413 466 477 436 353 270 219 191 168 158
2970.0 155 140 132 140 149 159 184 193 211 225
3010.0 245 243 240 253 281 346 428 473 429 352
3050.0 292 283 321 394 520 717 988 1157 1050 705
3090.0 355 168 119 96 86 81 72 75 61 61
3130.0 51 56 56 68 72 79 78 73 73 55
3170.0 53 47 49 42 42 40 27 31 31 29
3210.0 26 31 30 33 34 34 47 34 42 35
3250.0 38 39 35 37 46 55 51 52 47 44
3290.0 40 46 38 44 46 41 39 42 50 38
3330.0 46 52 81 101 129 166 164 159 122 114
3370.0 66 29 29 24 28 46 34 35 48 31
3410.0 40 38 30 32 34 37 30 42 41 33
3450.0 24 40 33 39 32 24 34 32 40 43
3490.0 36 41 40 43 45 36 26 34 32 28
3530.0 32 51 38 39 39 36 35 30 39 32
3570.0 33 42 38 23 41 39 36 32 32 43
3610.0 27 36 27 42 31 53 33 27 45 39
3650.0 47 21 35 47 33 39 42 42 40 39
3690.0 38 33 32 46 34 38 36 30 50 29
3730.0 52 53 50 43 56 29 49 21 41 45
3770.0 43 52 38 36 30 20 43 46 42 51
3810.0 50 46 43 30 39 30 24 39 38 35
3850.0 40 74 21 44 47 54 43 50 47 51
3890.0 40 45 33 49 46 50 51 27 54 43
3930.0 46 22 40 57 39 26 35 34 61 33
##END=
