##TITLE=1,2-Benzenedicarboxylic acid, dicyclohexyl ester
##JCAMP-DX=4.24
##DATA TYPE=INFRARED SPECTRUM
##ORIGIN=Sadtler Research Labs Under US-EPA Contract
##OWNER=NIST Standard Reference Data Program
##CAS REGISTRY NO=84-61-7
##MOLFORM=C 20 H 26 O 4
##XUNITS=1/CM
##YUNITS=ABSORBANCE
##XFACTOR=1.0
##YFACTOR=0.000096338
##DELTAX=4.0
##FIRSTX=450.0
##LASTX=3966.0
##FIRSTY=0.018882
##MAXX=3966
##MINX=450
##MAXY=0.96338
##MINY=0
##NPOINTS=880
##XYDATA=(X++(Y..Y))
450.0 196 207 240 227 215 178 205 218 192 158
490.0 97 25 64 122 160 133 207 135 200 225
530.0 202 224 167 182 225 254 187 190 133 190
570.0 41 190 205 285 315 417 418 403 334 255
610.0 189 222 248 280 237 282 282 357 373 498
650.0 711 639 446 302 353 469 375 390 422 622
690.0 753 960 1155 1221 1333 1344 1024 941 899 1026
730.0 1308 1748 2267 2401 2201 1775 1431 1229 1061 977
770.0 908 946 889 884 797 638 555 496 554 642
810.0 702 662 642 804 904 1011 1181 1122 883 634
850.0 551 602 683 661 654 561 570 644 838 1111
890.0 1375 1324 1240 1440 1611 1836 2119 2322 2212 1933
930.0 1779 1795 1878 1669 1216 876 804 698 591 561
970.0 509 550 573 599 694 788 1039 1316 1877 2391
1010.0 2708 2610 2271 1857 1699 2032 2509 2908 2647 2014
1050.0 1778 2073 2839 4343 5938 6490 4981 3206 2094 1728
1090.0 1655 1778 1962 2365 3139 4434 6094 7177 7345 6790
1130.0 5963 5233 4581 3484 2376 1841 1825 1777 1558 1272
1170.0 1012 848 839 818 862 899 1014 986 999 1034
1210.0 1190 1269 1471 1706 2110 2716 3701 4848 5532 6298
1250.0 7339 8619 9724 10000 9828 9574 9365 9350 9367 9326
1290.0 8564 7094 5352 4132 3380 3110 3099 3051 2826 2457
1330.0 2146 1934 1853 1572 1444 1430 1242 1208 1020 1039
1370.0 1034 908 730 654 614 508 457 448 477 489
1410.0 477 489 539 562 619 736 924 1017 1483 2115
1450.0 2695 2635 1829 1328 1096 932 664 685 737 794
1490.0 654 549 396 400 316 289 347 292 219 250
1530.0 263 254 244 135 237 279 268 195 245 395
1570.0 506 790 895 831 655 625 722 831 723 509
1610.0 391 356 257 305 300 300 285 258 323 307
1650.0 302 216 373 426 478 495 630 707 865 910
1690.0 1155 1355 1591 2025 2693 3581 4550 5562 6553 7180
1730.0 7592 8055 8564 8068 6708 4816 3243 2226 1594 1226
1770.0 1017 846 810 743 758 770 782 833 878 880
1810.0 800 707 614 509 404 311 289 279 258 215
1850.0 234 237 278 314 302 260 270 253 197 181
1890.0 158 164 158 141 142 137 125 115 120 151
1930.0 149 183 195 188 157 167 152 172 168 157
1970.0 150 145 144 129 117 111 101 81 84 85
2010.0 70 86 71 76 70 79 70 74 79 71
2050.0 70 72 64 63 68 70 85 79 84 85
2090.0 86 90 86 90 96 98 99 93 95 100
2130.0 90 96 89 95 95 94 96 90 90 109
2170.0 93 97 111 96 90 89 99 89 86 75
2210.0 74 84 76 72 77 69 86 80 85 79
2250.0 80 72 64 63 69 70 80 78 105 111
2290.0 127 141 157 177 158 183 135 110 90 61
2330.0 17 19 19 19 27 106 51 19 19 19
2370.0 31 44 100 153 136 109 92 76 66 74
2410.0 69 55 58 60 43 45 46 30 33 24
2450.0 27 29 30 29 19 28 35 48 43 41
2490.0 47 54 39 41 40 44 55 55 57 64
2530.0 53 57 51 50 56 64 66 70 66 86
2570.0 81 91 82 102 95 99 101 91 98 96
2610.0 95 86 88 97 83 91 106 123 127 139
2650.0 171 185 207 213 201 197 166 156 145 145
2690.0 144 156 167 144 130 132 136 127 122 121
2730.0 120 105 121 118 127 115 135 146 141 155
2770.0 170 190 200 230 225 261 275 292 291 308
2810.0 321 346 369 398 457 530 627 785 1062 1480
2850.0 2099 2817 3487 3863 3800 3308 2629 2084 1720 1592
2890.0 1606 1721 1918 2197 2545 2941 3398 4027 4707 5514
2930.0 6390 7332 8344 9307 9322 8014 6035 4474 3317 2369
2970.0 1763 1316 1019 792 668 582 476 439 402 344
3010.0 307 309 311 301 317 324 332 314 309 312
3050.0 310 341 333 395 458 499 548 558 461 345
3090.0 265 212 208 186 165 170 140 124 137 85
3130.0 124 118 100 116 118 142 127 126 146 106
3170.0 136 118 74 98 94 94 100 104 84 79
3210.0 77 101 72 97 69 75 105 90 64 92
3250.0 105 59 95 86 62 87 77 74 74 60
3290.0 76 77 74 88 70 88 78 69 64 74
3330.0 74 81 61 100 84 74 106 84 100 59
3370.0 93 108 101 71 120 113 150 93 87 101
3410.0 117 119 141 127 161 135 147 183 137 156
3450.0 117 127 135 128 105 131 98 126 96 94
3490.0 93 104 88 95 75 101 68 68 67 76
3530.0 84 87 89 89 109 78 63 98 103 115
3570.0 84 73 87 73 92 74 97 85 79 68
3610.0 72 42 89 41 71 44 66 66 120 86
3650.0 73 82 109 95 119 82 47 34 94 100
3690.0 79 82 116 100 113 102 116 132 134 110
3730.0 107 110 131 121 70 96 108 124 141 157
3770.0 145 145 169 155 192 194 174 139 114 129
3810.0 170 147 131 125 149 165 139 117 127 151
3850.0 172 196 202 164 168 153 170 186 201 202
3890.0 196 175 164 170 180 188 203 219 226 216
3930.0 216 204 200 232 234 243 0 18 19 19
##END=
