##TITLE=Diethyl Phthalate
##JCAMP-DX=4.24
##DATA TYPE=INFRARED SPECTRUM
##ORIGIN=Sadtler Research Labs Under US-EPA Contract
##OWNER=NIST Standard Reference Data Program
##CAS REGISTRY NO=84-66-2
##MOLFORM=C 12 H 14 O 4
##XUNITS=1/CM
##YUNITS=ABSORBANCE
##XFACTOR=1.0
##YFACTOR=0.000089841
##DELTAX=4.0
##FIRSTX=450.0
##LASTX=3966.0
##FIRSTY=0.004851
##MAXX=3966
##MINX=450
##MAXY=0.89841
##MINY=0
##NPOINTS=880
##XYDATA=(X++(Y..Y))
450.0 54 60 61 59 51 50 60 61 61 17
490.0 52 48 48 33 50 48 25 21 10 32
530.0 68 82 87 83 86 112 117 123 120 80
570.0 49 47 51 69 125 13 34 37 25 29
610.0 28 41 39 47 32 41 46 60 83 141
650.0 170 168 114 61 48 91 87 112 154 236
690.0 335 428 453 444 425 422 454 502 581 679
730.0 793 1005 1204 1292 1195 996 788 634 534 472
770.0 440 435 424 415 376 318 265 214 181 150
810.0 135 124 116 116 139 162 189 224 275 303
850.0 323 335 341 347 323 291 236 191 156 128
890.0 112 94 77 70 63 63 67 62 57 62
930.0 64 63 73 80 91 108 119 121 109 104
970.0 95 104 143 138 154 181 221 272 353 448
1010.0 548 611 616 573 532 589 814 1160 1368 1400
1050.0 1259 1256 1626 2315 3165 3750 3697 3040 2183 1621
1090.0 1412 1441 1609 1940 2493 3370 4469 5471 5904 5626
1130.0 5031 4286 3493 2654 1915 1396 1096 956 924 920
1170.0 927 923 990 859 706 505 439 412 423 451
1210.0 513 581 689 817 1022 1317 1719 2257 2948 3733
1250.0 4555 5393 6338 7484 8795 9640 10000 9796 8859 7758
1290.0 6350 4929 3701 2767 2127 1646 1278 982 777 632
1330.0 528 453 380 352 352 360 414 531 784 1085
1370.0 1184 1040 729 501 430 416 417 393 385 364
1410.0 326 316 269 274 275 305 320 371 438 489
1450.0 512 508 470 486 537 571 559 538 519 451
1490.0 376 320 245 194 155 111 122 109 98 115
1530.0 107 111 104 90 90 116 118 108 146 181
1570.0 231 297 359 350 325 271 272 286 304 283
1610.0 230 183 146 144 125 141 120 118 125 125
1650.0 100 123 129 149 157 169 170 209 206 249
1690.0 290 355 387 465 546 664 793 991 1344 1888
1730.0 2701 3913 5620 7537 9095 9292 7690 5665 3873 2553
1770.0 1653 1083 747 530 408 328 272 246 222 217
1810.0 202 189 185 168 160 149 145 144 123 106
1850.0 105 109 99 89 82 72 76 79 68 67
1890.0 56 59 60 64 67 72 64 63 64 85
1930.0 97 106 108 86 72 65 68 77 86 87
1970.0 84 69 64 57 53 47 42 48 42 36
2010.0 38 29 28 29 25 25 26 24 23 20
2050.0 20 20 27 23 23 26 25 32 30 37
2090.0 35 42 42 42 45 47 47 47 47 47
2130.0 54 48 47 47 42 41 35 32 31 27
2170.0 29 31 26 27 20 14 15 15 15 15
2210.0 15 14 14 14 14 14 21 20 25 20
2250.0 26 24 20 27 22 26 19 26 24 25
2290.0 29 33 28 32 32 36 41 41 48 51
2330.0 40 42 35 28 28 30 39 34 29 25
2370.0 21 21 27 29 29 25 26 32 32 32
2410.0 26 27 20 21 18 15 18 16 10 12
2450.0 11 10 5 4 4 11 11 10 8 8
2490.0 3 7 5 5 4 0 0 0 0 0
2530.0 0 0 0 1 1 5 0 0 6 0
2570.0 6 12 12 12 10 14 5 9 13 13
2610.0 13 17 12 18 18 13 7 14 13 10
2650.0 14 14 13 10 8 3 2 2 4 4
2690.0 4 4 3 3 3 3 10 4 15 25
2730.0 20 26 27 27 27 28 31 31 32 38
2770.0 38 43 43 43 43 44 38 38 38 49
2810.0 44 49 56 59 67 71 71 78 78 89
2850.0 95 100 119 131 149 175 214 257 313 344
2890.0 350 345 346 363 393 433 456 447 435 439
2930.0 482 575 724 884 954 920 817 728 726 790
2970.0 893 1032 1248 1539 1739 1727 1508 1219 1003 840
3010.0 685 556 441 365 313 276 254 243 215 193
3050.0 175 180 192 227 285 386 504 574 552 427
3090.0 270 176 130 112 106 94 78 67 58 45
3130.0 47 50 43 45 48 51 52 53 53 43
3170.0 42 37 35 36 33 27 23 26 23 21
3210.0 32 27 28 21 27 22 22 22 22 25
3250.0 23 21 23 22 22 13 17 18 18 18
3290.0 24 24 23 21 22 18 18 18 14 19
3330.0 31 20 13 22 17 20 27 20 17 20
3370.0 20 21 21 20 21 20 26 26 24 21
3410.0 21 29 21 22 17 28 27 28 23 26
3450.0 33 48 53 59 63 73 73 77 72 61
3490.0 56 45 39 34 29 24 24 18 18 19
3530.0 15 13 15 15 18 13 15 13 13 13
3570.0 13 18 17 14 14 13 16 8 15 16
3610.0 9 14 10 13 13 13 15 17 17 0
3650.0 13 11 7 12 6 13 13 11 11 9
3690.0 12 7 15 12 14 13 5 8 9 12
3730.0 6 9 12 6 11 5 9 3 4 11
3770.0 11 6 8 8 9 8 8 7 10 7
3810.0 7 10 6 1 8 11 11 13 11 18
3850.0 18 16 15 14 18 14 14 11 21 15
3890.0 21 23 21 21 16 18 20 18 18 19
3930.0 19 23 26 25 31 28 24 15 12 16
##END=
