##TITLE=1,2-Benzenedicarboxylic acid, bis(2-methylpropyl) ester
##JCAMP-DX=4.24
##DATA TYPE=INFRARED SPECTRUM
##ORIGIN=Sadtler Research Labs Under US-EPA Contract
##OWNER=NIST Standard Reference Data Program
##CAS REGISTRY NO=84-69-5
##MOLFORM=C 16 H 22 O 4
##XUNITS=1/CM
##YUNITS=ABSORBANCE
##XFACTOR=1.0
##YFACTOR=0.000190909
##DELTAX=4.0
##FIRSTX=450.0
##LASTX=3966.0
##FIRSTY=0.000000
##MAXX=3966
##MINX=450
##MAXY=1.90909
##MINY=0
##NPOINTS=880
##XYDATA=(X++(Y..Y))
450.0 0 58 43 51 84 73 102 76 82 84
490.0 100 82 92 101 99 91 88 101 90 117
530.0 104 117 106 105 121 114 122 125 148 148
570.0 171 177 190 159 144 125 119 124 112 110
610.0 94 104 94 88 91 90 89 96 123 173
650.0 235 223 182 114 116 124 127 138 166 226
690.0 336 474 566 539 493 442 447 455 496 541
730.0 634 783 936 1084 1071 956 780 638 526 467
770.0 428 422 430 431 418 385 361 338 325 291
810.0 266 250 247 243 240 231 224 218 205 203
850.0 197 200 199 209 208 212 205 208 198 184
890.0 179 176 186 204 236 262 296 329 368 402
930.0 415 418 418 453 491 505 501 512 551 623
970.0 741 959 1245 1416 1265 898 567 392 319 291
1010.0 284 300 328 370 450 601 871 1191 1317 1181
1050.0 1038 1179 1704 2743 4040 4772 3978 2556 1499 1046
1090.0 922 966 1151 1508 2141 3101 4421 5474 5829 5299
1130.0 4669 4094 3348 2487 1725 1252 980 856 796 740
1170.0 664 605 573 553 528 502 490 494 515 550
1210.0 601 669 765 896 1088 1386 1810 2428 3175 4066
1250.0 4950 5844 6906 7447 8438 8105 8248 7258 7292 6745
1290.0 5944 4885 3880 3252 2721 2187 1557 1126 882 763
1330.0 697 666 657 677 674 617 548 520 557 688
1370.0 947 1291 1499 1337 990 730 635 597 511 421
1410.0 343 311 279 278 266 282 302 345 426 509
1450.0 597 629 714 815 938 1012 993 886 714 592
1490.0 497 414 341 285 255 231 216 211 194 196
1530.0 178 173 163 155 153 150 163 155 184 197
1570.0 258 314 389 421 353 301 287 327 332 311
1610.0 245 202 186 181 183 169 178 164 173 163
1650.0 182 173 193 193 201 214 212 245 239 281
1690.0 305 374 419 528 607 682 806 982 1305 1675
1730.0 2491 3382 5406 6816 10000 7377 6549 4424 2933 1975
1770.0 1412 1026 774 648 516 454 378 353 294 279
1810.0 252 232 214 203 206 193 195 175 157 137
1850.0 137 137 137 140 129 122 107 109 101 101
1890.0 100 101 100 99 104 99 102 99 105 113
1930.0 132 142 140 121 102 96 95 108 116 118
1970.0 101 90 79 75 76 73 74 71 73 69
2010.0 72 69 70 68 68 72 70 73 73 80
2050.0 79 82 81 81 81 81 84 81 86 86
2090.0 87 87 89 86 82 81 77 78 73 75
2130.0 72 72 72 71 69 66 67 64 66 66
2170.0 67 66 67 68 67 67 67 69 66 67
2210.0 65 66 64 65 65 64 66 66 67 63
2250.0 65 64 65 62 59 60 58 60 60 62
2290.0 62 62 59 59 58 56 56 56 60 62
2330.0 66 61 59 55 56 60 49 56 55 59
2370.0 59 65 65 68 67 65 67 66 66 64
2410.0 62 60 60 57 56 56 54 54 52 52
2450.0 50 51 48 48 47 48 48 49 50 51
2490.0 53 52 53 54 55 57 57 59 58 60
2530.0 60 60 59 61 62 61 65 64 65 65
2570.0 64 62 64 66 66 64 65 65 64 65
2610.0 64 64 61 62 64 66 66 67 67 65
2650.0 66 64 65 66 66 66 67 68 65 65
2690.0 63 65 63 65 68 70 74 79 85 93
2730.0 104 115 121 118 115 112 110 109 107 105
2770.0 104 105 105 108 114 117 116 116 119 124
2810.0 130 137 147 161 171 182 193 203 216 229
2850.0 246 267 298 342 404 502 668 941 1273 1471
2890.0 1461 1358 1277 1202 1137 1116 1126 1155 1190 1239
2930.0 1313 1464 1686 1913 2083 2201 2316 2521 2917 3425
2970.0 3880 4010 3643 2906 2080 1375 896 631 480 389
3010.0 326 283 254 234 228 228 232 228 217 203
3050.0 192 198 220 255 312 405 531 628 601 455
3090.0 292 202 176 166 162 149 135 125 116 111
3130.0 110 109 109 111 112 116 118 115 112 110
3170.0 106 108 106 102 98 97 96 91 85 82
3210.0 79 75 74 70 68 67 64 63 61 59
3250.0 59 58 57 59 57 59 59 58 59 59
3290.0 60 60 58 57 60 58 58 59 62 60
3330.0 61 62 64 66 66 69 67 67 66 65
3370.0 66 63 67 64 61 65 64 67 65 63
3410.0 62 63 57 60 63 65 65 68 66 69
3450.0 72 78 85 96 106 107 101 104 98 88
3490.0 82 76 69 66 57 56 58 54 57 53
3530.0 54 56 54 56 54 54 54 50 59 47
3570.0 53 54 51 52 47 52 53 52 54 51
3610.0 53 49 56 52 51 59 51 54 52 55
3650.0 57 52 61 51 56 50 60 60 60 58
3690.0 58 63 57 62 62 57 61 59 57 61
3730.0 59 58 60 62 54 65 61 66 63 61
3770.0 62 62 58 64 59 56 71 61 64 53
3810.0 61 58 64 62 64 68 63 61 67 68
3850.0 63 68 68 64 68 65 66 62 63 61
3890.0 67 67 70 66 67 70 66 66 63 64
3930.0 65 66 67 70 71 70 72 67 69 66
##END=
