##TITLE=Dibutyl phthalate
##JCAMP-DX=4.24
##DATA TYPE=INFRARED SPECTRUM
##ORIGIN=Sadtler Research Labs Under US-EPA Contract
##OWNER=NIST Standard Reference Data Program
##CAS REGISTRY NO=84-74-2
##MOLFORM=C 16 H 22 O 4
##XUNITS=1/CM
##YUNITS=ABSORBANCE
##XFACTOR=1.0
##YFACTOR=0.000102451
##DELTAX=4.0
##FIRSTX=450.0
##LASTX=3966.0
##FIRSTY=0.031862
##MAXX=3966
##MINX=450
##MAXY=1.02451
##MINY=0
##NPOINTS=880
##XYDATA=(X++(Y..Y))
450.0 311 146 37 116 140 4 93 25 89 36
490.0 166 64 58 67 93 86 68 70 40 65
530.0 52 95 53 48 63 61 98 83 100 99
570.0 133 90 91 25 36 52 30 52 20 37
610.0 33 38 35 29 27 33 43 43 75 122
650.0 191 174 128 73 67 81 92 109 138 202
690.0 303 429 504 509 480 434 457 477 555 652
730.0 811 988 1129 1220 1160 1024 832 678 555 483
770.0 446 427 422 435 412 367 332 292 265 248
810.0 223 217 219 231 262 269 290 305 307 300
850.0 265 249 209 208 194 185 182 174 169 147
890.0 154 146 162 164 164 153 149 164 181 218
930.0 274 375 469 542 572 581 588 586 579 527
970.0 450 361 311 283 289 305 308 294 282 283
1010.0 290 306 310 333 383 520 793 1087 1195 1075
1050.0 1036 1254 1704 2391 3299 4144 4189 3374 2232 1501
1090.0 1207 1148 1261 1565 2157 3079 4350 5466 6003 5729
1130.0 5168 4591 3839 2965 2136 1570 1209 990 845 721
1170.0 590 497 445 422 410 417 429 454 485 521
1210.0 570 641 741 884 1091 1395 1811 2405 3123 3984
1250.0 4875 5786 6809 7728 8941 9385 9774 9279 9239 8479
1290.0 7194 5593 4085 3001 2243 1782 1435 1203 1063 983
1330.0 879 754 646 590 557 516 488 459 425 397
1370.0 405 432 510 632 737 731 608 454 357 300
1410.0 252 256 219 248 237 289 321 413 504 588
1450.0 656 679 729 762 809 809 739 649 573 498
1490.0 424 355 278 228 200 168 157 164 133 154
1530.0 128 142 121 120 111 115 124 114 146 165
1570.0 223 292 359 386 311 262 244 299 303 289
1610.0 216 177 148 149 140 136 136 129 138 127
1650.0 138 137 144 161 171 180 188 221 213 264
1690.0 288 353 399 505 596 685 830 1023 1394 1798
1730.0 2670 3716 5921 7810 10000 8612 7042 4725 3057 2018
1770.0 1420 1023 760 626 480 421 331 315 251 243
1810.0 220 199 186 170 169 154 160 140 128 96
1850.0 101 98 94 97 88 76 65 68 59 58
1890.0 58 61 61 63 70 69 71 64 72 76
1930.0 94 104 106 88 71 69 64 77 84 85
1970.0 69 56 41 35 33 27 30 27 32 27
2010.0 31 31 30 30 28 33 30 31 29 34
2050.0 34 37 39 41 42 43 47 44 48 47
2090.0 48 47 47 44 42 42 36 36 33 34
2130.0 29 29 27 25 22 20 20 17 17 15
2170.0 20 15 15 21 18 21 19 22 19 21
2210.0 19 20 18 20 21 20 23 21 23 17
2250.0 20 18 19 17 18 18 16 18 17 20
2290.0 22 22 23 26 27 28 30 33 45 39
2330.0 45 39 27 37 32 33 33 34 28 31
2370.0 27 27 28 29 32 27 29 28 28 23
2410.0 22 19 19 18 16 15 13 10 9 9
2450.0 7 6 3 3 1 1 3 1 3 2
2490.0 2 3 7 5 2 7 9 9 9 11
2530.0 10 10 8 10 9 9 12 12 14 14
2570.0 17 13 16 15 15 15 13 15 14 14
2610.0 16 15 16 12 13 11 10 12 13 13
2650.0 15 14 18 17 22 25 26 27 22 25
2690.0 25 29 27 27 31 30 30 31 37 37
2730.0 41 41 47 55 61 65 70 70 64 60
2770.0 61 64 61 62 64 69 73 77 85 93
2810.0 101 113 127 138 154 168 190 214 255 305
2850.0 377 457 527 584 658 791 981 1179 1351 1426
2890.0 1368 1232 1147 1144 1187 1274 1400 1529 1606 1661
2930.0 1762 1949 2213 2472 2622 2621 2617 2800 3227 3736
2970.0 4031 3811 3089 2258 1642 1251 974 769 612 502
3010.0 417 355 313 287 279 271 271 259 240 213
3050.0 195 190 207 233 285 386 524 621 591 428
3090.0 251 159 126 113 106 96 78 64 59 47
3130.0 47 45 43 41 48 52 48 47 42 39
3170.0 32 33 29 30 29 25 20 17 14 17
3210.0 15 13 13 10 10 5 7 4 4 7
3250.0 0 3 2 2 4 1 0 4 1 1
3290.0 2 1 5 4 1 5 5 8 7 10
3330.0 4 5 7 12 7 7 5 2 7 3
3370.0 5 4 3 1 4 3 6 11 7 2
3410.0 8 6 4 8 13 11 13 12 9 14
3450.0 21 26 35 42 62 58 46 53 45 33
3490.0 27 25 20 15 1 5 6 8 7 6
3530.0 8 6 6 11 14 6 6 9 0 13
3570.0 7 6 7 10 16 13 14 7 11 14
3610.0 14 10 19 15 8 16 20 3 15 8
3650.0 27 18 4 17 0 26 13 26 6 21
3690.0 19 19 20 16 14 14 13 12 23 17
3730.0 19 16 24 8 38 14 31 18 16 14
3770.0 21 15 10 10 7 11 10 20 8 24
3810.0 5 23 7 25 11 11 12 18 12 19
3850.0 19 34 25 21 11 17 11 9 16 24
3890.0 17 21 8 30 6 13 13 27 18 17
3930.0 22 17 14 9 26 29 31 17 22 28
##END=
