##TITLE=Phenanthrene
##JCAMP-DX=4.24
##DATA TYPE=INFRARED SPECTRUM
##ORIGIN=Sadtler Research Labs Under US-EPA Contract
##OWNER=NIST Standard Reference Data Program
##CAS REGISTRY NO=85-01-8
##MOLFORM=C 14 H 10
##XUNITS=1/CM
##YUNITS=ABSORBANCE
##XFACTOR=1.0
##YFACTOR=0.000080112
##DELTAX=4.0
##FIRSTX=450.0
##LASTX=3966.0
##FIRSTY=0.039816
##MAXX=3966
##MINX=450
##MAXY=0.80112
##MINY=0
##NPOINTS=880
##XYDATA=(X++(Y..Y))
450.0 497 441 413 438 582 334 413 368 461 494
490.0 714 809 611 467 272 192 119 128 108 155
530.0 128 127 152 133 128 108 116 108 77 52
570.0 101 145 29 74 107 122 80 79 75 121
610.0 404 696 681 757 401 148 122 45 47 13
650.0 54 36 95 38 5 26 31 22 40 93
690.0 66 172 152 311 476 643 1009 2233 4036 5833
730.0 8522 10000 5498 4462 2087 811 293 150 136 82
770.0 117 55 82 47 217 578 1409 2670 3864 6130
810.0 5899 3901 2640 1422 531 281 189 218 284 416
850.0 645 818 1226 1309 1041 904 829 574 412 178
890.0 93 37 37 31 42 60 49 77 96 134
930.0 144 223 279 323 422 325 231 187 165 159
970.0 162 125 100 65 79 117 278 407 434 389
1010.0 193 60 38 48 107 342 673 700 655 430
1050.0 134 63 46 45 47 46 43 55 64 120
1090.0 125 111 100 64 38 25 23 26 32 41
1130.0 56 106 165 184 184 143 112 144 145 154
1170.0 131 98 79 95 123 156 196 221 206 175
1210.0 159 141 161 193 278 358 519 718 620 638
1250.0 517 268 171 108 91 81 90 103 130 163
1290.0 223 261 235 241 189 106 79 71 71 66
1330.0 58 65 68 67 61 70 74 70 75 47
1370.0 47 31 47 40 75 93 101 98 83 98
1410.0 94 143 181 229 238 274 372 438 582 679
1450.0 1123 1334 1346 1196 716 338 271 185 247 223
1490.0 333 573 766 813 755 403 290 316 340 299
1530.0 317 289 243 180 123 84 67 58 40 43
1570.0 62 56 84 98 151 203 247 280 274 294
1610.0 308 302 256 216 164 100 94 87 99 122
1650.0 125 130 247 292 397 388 320 240 205 229
1690.0 250 309 281 252 177 138 133 170 179 192
1730.0 193 185 221 295 363 396 390 354 323 281
1770.0 251 214 177 179 157 162 195 240 280 304
1810.0 324 330 315 293 291 258 238 192 141 80
1850.0 48 40 37 39 48 72 98 160 214 239
1890.0 251 241 254 305 360 402 416 388 333 292
1930.0 280 370 476 504 431 296 128 46 32 25
1970.0 20 15 21 13 18 13 17 13 17 20
2010.0 22 26 21 23 15 18 14 13 18 19
2050.0 22 22 26 24 26 27 32 35 29 21
2090.0 22 18 20 23 20 21 24 27 32 31
2130.0 28 22 17 12 14 7 13 13 12 14
2170.0 7 17 14 14 9 11 17 17 14 12
2210.0 12 13 13 16 16 21 32 37 31 27
2250.0 29 27 23 23 19 21 29 34 45 55
2290.0 56 59 75 86 103 104 94 85 81 78
2330.0 66 63 51 38 24 41 63 49 35 31
2370.0 28 17 23 31 35 32 28 27 32 23
2410.0 20 20 19 31 27 31 35 43 42 42
2450.0 35 32 31 27 28 26 25 24 25 19
2490.0 20 13 16 22 19 24 24 28 25 28
2530.0 17 21 15 21 18 19 21 20 20 20
2570.0 19 22 29 31 32 32 36 38 38 39
2610.0 43 44 47 45 47 40 33 33 28 28
2650.0 28 29 28 31 32 29 25 25 20 15
2690.0 14 17 18 17 14 17 14 8 12 9
2730.0 8 13 9 12 11 6 3 5 12 9
2770.0 3 13 5 5 12 16 20 16 17 18
2810.0 22 28 24 33 39 33 41 47 52 47
2850.0 51 54 58 60 68 72 72 67 64 65
2890.0 60 61 71 84 86 91 112 125 147 170
2930.0 197 222 231 229 221 212 202 196 195 185
2970.0 179 175 166 169 169 187 222 290 392 536
3010.0 719 956 1270 1604 1880 2048 2151 2241 2409 2737
3050.0 3263 3976 4727 5382 5782 5565 4956 4111 3328 2795
3090.0 2305 1910 1606 1352 1138 914 707 528 399 310
3130.0 238 181 156 124 100 88 73 70 63 68
3170.0 59 61 59 62 57 54 49 46 45 49
3210.0 45 46 44 46 48 40 37 35 31 28
3250.0 26 22 20 14 17 12 12 18 15 18
3290.0 22 20 14 17 14 18 14 19 23 12
3330.0 11 15 22 18 12 18 29 14 18 16
3370.0 17 11 6 18 19 29 22 21 26 19
3410.0 20 16 27 23 25 27 29 26 28 17
3450.0 29 16 16 25 35 29 17 26 23 13
3490.0 21 17 15 18 8 19 25 18 13 5
3530.0 6 11 20 11 13 17 14 21 34 19
3570.0 5 21 23 18 34 21 19 16 26 29
3610.0 19 25 22 2 32 12 21 32 38 40
3650.0 11 5 9 26 31 49 43 34 35 35
3690.0 38 26 54 63 57 63 47 32 66 42
3730.0 40 55 35 26 48 56 20 61 65 45
3770.0 54 58 61 52 27 45 27 49 26 49
3810.0 26 40 42 18 29 27 57 56 36 18
3850.0 56 44 0 53 58 48 49 61 60 78
3890.0 63 79 60 85 81 56 54 57 36 57
3930.0 57 38 72 65 47 47 67 31 28 32
##END=
