##TITLE=Benzo[f]quinoline
##JCAMP-DX=4.24
##DATA TYPE=INFRARED SPECTRUM
##ORIGIN=Sadtler Research Labs Under US-EPA Contract
##OWNER=NIST Standard Reference Data Program
##CAS REGISTRY NO=85-02-9
##MOLFORM=C 13 H 9 N
##XUNITS=1/CM
##YUNITS=ABSORBANCE
##XFACTOR=1.0
##YFACTOR=0.000046820
##DELTAX=4.0
##FIRSTX=450.0
##LASTX=3966.0
##FIRSTY=0.000000
##MAXX=3966
##MINX=450
##MAXY=0.4682
##MINY=0
##NPOINTS=880
##XYDATA=(X++(Y..Y))
450.0 0 69 133 119 107 115 193 276 411 567
490.0 967 1284 1129 776 817 589 528 303 266 239
530.0 359 505 499 392 421 367 380 295 126 71
570.0 56 60 74 113 249 311 256 160 166 160
610.0 363 615 612 537 262 112 78 106 100 113
650.0 105 88 77 87 81 148 163 101 123 91
690.0 186 201 356 500 580 546 497 505 464 654
730.0 1222 2702 4257 6715 10000 6883 4806 3104 1549 1023
770.0 909 642 476 363 361 598 1074 1881 2674 3999
810.0 4593 3190 2422 2232 2567 3538 5219 4998 3008 2357
850.0 1514 1000 883 1204 1240 814 645 486 330 190
890.0 73 50 60 88 88 84 61 72 94 149
930.0 189 232 296 338 332 238 203 170 178 197
970.0 242 236 233 283 356 627 824 783 662 367
1010.0 198 196 191 220 316 504 662 624 572 544
1050.0 570 558 447 258 147 151 173 283 471 825
1090.0 890 785 620 326 172 104 62 66 77 156
1130.0 209 240 226 167 118 116 131 141 148 126
1170.0 134 209 387 577 693 692 499 289 225 261
1210.0 379 487 563 596 611 676 629 494 373 244
1250.0 170 185 214 291 500 585 576 569 466 547
1290.0 764 922 940 831 634 490 329 160 68 60
1330.0 68 99 131 153 156 138 126 129 199 285
1370.0 488 870 1636 2446 2607 2418 1687 927 549 353
1410.0 431 658 787 797 728 567 527 609 862 1351
1450.0 1840 1822 1401 876 418 258 312 495 1106 2400
1490.0 3623 3735 2891 1494 425 218 142 156 202 184
1530.0 175 153 212 264 332 353 396 437 590 771
1570.0 1065 1214 1413 1515 1463 1436 1217 1046 996 1007
1610.0 942 862 684 463 327 207 146 94 53 55
1650.0 28 57 21 41 75 141 238 366 404 436
1690.0 315 231 182 167 150 135 133 115 89 86
1730.0 111 153 200 224 226 195 142 102 90 118
1770.0 199 291 319 310 245 225 256 344 372 348
1810.0 258 172 137 151 217 249 254 189 127 81
1850.0 61 56 64 77 108 153 207 248 270 257
1890.0 227 214 250 348 451 499 480 407 339 339
1930.0 408 545 674 701 613 434 230 104 54 40
1970.0 35 26 25 23 16 19 21 22 25 29
2010.0 34 32 31 32 36 37 46 48 51 51
2050.0 54 56 52 51 50 54 55 61 56 58
2090.0 63 66 63 61 54 44 38 40 47 50
2130.0 49 49 47 43 40 36 34 36 37 32
2170.0 33 33 40 49 49 53 56 54 55 45
2210.0 37 37 34 40 44 49 62 57 59 62
2250.0 54 61 62 71 83 98 120 131 140 146
2290.0 151 153 172 186 193 208 200 188 191 187
2330.0 163 159 148 184 181 191 198 165 191 158
2370.0 152 150 159 160 124 86 66 59 56 56
2410.0 53 54 66 69 76 81 90 87 99 95
2450.0 95 88 87 83 68 69 69 68 75 77
2490.0 81 77 76 72 74 76 73 79 75 71
2530.0 75 81 69 74 75 74 77 76 80 86
2570.0 80 87 88 89 84 77 72 77 83 87
2610.0 88 85 87 85 81 85 86 87 78 84
2650.0 84 86 84 88 82 88 88 87 87 84
2690.0 83 81 73 69 72 76 72 71 70 73
2730.0 66 68 72 73 71 61 64 71 70 70
2770.0 71 77 78 79 82 88 86 86 89 92
2810.0 85 85 92 91 90 93 92 94 92 83
2850.0 75 45 35 52 85 105 111 113 120 126
2890.0 132 131 127 129 131 135 134 128 132 154
2930.0 184 203 198 184 176 180 188 196 217 251
2970.0 283 303 322 351 388 470 592 755 944 1157
3010.0 1382 1546 1652 1717 1814 2038 2431 2836 3070 3104
3050.0 2994 3016 3505 4433 5363 5953 5832 4959 4073 3277
3090.0 2524 2049 1700 1417 1142 871 612 453 373 303
3130.0 246 207 187 173 159 150 142 137 140 144
3170.0 145 152 146 139 138 121 115 109 99 97
3210.0 94 85 74 81 81 77 63 72 60 73
3250.0 59 57 63 60 68 61 67 58 66 57
3290.0 57 65 66 59 62 58 52 54 53 55
3330.0 57 58 58 51 54 54 57 67 71 62
3370.0 55 50 61 47 58 58 61 49 60 59
3410.0 58 58 52 56 54 66 53 48 60 50
3450.0 52 46 66 68 66 53 70 60 64 60
3490.0 55 67 58 55 55 60 62 58 60 63
3530.0 58 61 34 61 69 55 56 61 58 78
3570.0 59 65 61 63 70 64 83 68 67 66
3610.0 74 65 79 70 78 84 64 74 66 71
3650.0 83 69 70 75 58 74 61 93 73 96
3690.0 95 97 80 79 77 79 72 79 72 51
3730.0 90 82 72 89 103 89 95 83 90 85
3770.0 93 85 86 108 86 72 78 78 94 93
3810.0 69 68 89 89 65 79 77 75 59 84
3850.0 76 109 83 83 90 82 79 71 101 111
3890.0 115 121 131 128 125 128 154 135 107 142
3930.0 128 106 102 99 98 106 106 91 70 71
##END=
