##TITLE=2,4'-Dichlorobenzophenone
##JCAMP-DX=4.24
##DATA TYPE=INFRARED SPECTRUM
##ORIGIN=Sadtler Research Labs Under US-EPA Contract
##OWNER=NIST Standard Reference Data Program
##CAS REGISTRY NO=85-29-0
##MOLFORM=C 13 H 8 Cl 2 O
##XUNITS=1/CM
##YUNITS=ABSORBANCE
##XFACTOR=1.0
##YFACTOR=0.000040366
##DELTAX=4.0
##FIRSTX=450.0
##LASTX=3966.0
##FIRSTY=0.007669
##MAXX=3966
##MINX=450
##MAXY=0.40366
##MINY=0
##NPOINTS=880
##XYDATA=(X++(Y..Y))
450.0 190 576 1132 1370 1294 1472 941 1112 966 896
490.0 539 306 277 246 246 269 438 550 1075 1361
530.0 1333 717 291 280 188 177 100 150 124 236
570.0 200 353 521 398 256 271 240 0 141 105
610.0 148 205 158 214 207 274 289 366 717 1400
650.0 1677 1159 491 387 434 535 632 686 714 658
690.0 633 607 654 748 846 905 801 674 587 617
730.0 795 1303 2421 4625 6601 6840 5153 3487 2353 1647
770.0 1151 773 545 444 382 370 330 345 334 390
810.0 384 370 450 501 555 673 1136 1969 2618 2477
850.0 1636 867 567 544 464 386 331 374 370 373
890.0 367 363 362 423 557 790 1365 2682 5459 8316
930.0 8380 5265 2487 1729 1814 1649 1188 883 755 587
970.0 422 321 261 247 249 236 248 250 338 458
1010.0 1194 2226 2362 1513 740 908 1002 949 846 934
1050.0 1327 1890 2390 2356 1853 1341 1134 1226 1864 3696
1090.0 6195 7278 5584 3069 1751 1281 932 764 707 757
1130.0 767 698 661 692 920 1180 1378 1368 1307 1047
1170.0 812 939 1028 753 416 321 315 349 359 399
1210.0 475 614 849 1240 1665 1828 1916 2323 3476 5054
1250.0 5496 4247 2957 2767 3275 3948 4768 5927 7693 8842
1290.0 8046 5830 4110 3487 3349 3146 2496 1552 887 608
1330.0 460 394 340 355 394 499 534 481 380 288
1370.0 272 278 336 400 578 859 1256 1675 1775 1452
1410.0 1043 869 830 1070 1379 1988 2191 2123 1675 1347
1450.0 1022 871 879 1036 1344 1497 1482 1496 1764 2064
1490.0 1850 1220 669 376 341 272 205 280 169 280
1530.0 191 284 270 384 431 525 756 773 1193 1483
1570.0 2331 2827 3368 4460 5184 6279 5743 5164 3425 2424
1610.0 1577 1101 793 686 561 488 451 437 458 488
1650.0 646 635 811 938 1244 1491 2012 2760 4131 6417
1690.0 9474 10000 9463 5792 3369 2210 1394 1063 608 690
1730.0 432 484 374 419 334 267 278 187 229 186
1770.0 289 221 291 281 319 333 323 327 285 344
1810.0 301 278 198 213 164 164 174 175 171 127
1850.0 147 119 123 112 126 110 113 138 124 153
1890.0 155 197 193 229 240 268 291 323 328 246
1930.0 219 162 166 145 183 191 191 152 107 84
1970.0 59 66 54 56 58 56 53 49 64 49
2010.0 64 51 59 45 56 67 62 52 40 52
2050.0 34 42 33 43 29 40 47 42 54 42
2090.0 42 32 44 27 28 28 34 31 27 36
2130.0 27 35 27 33 29 34 31 27 31 28
2170.0 33 27 35 21 29 24 31 28 38 44
2210.0 36 43 33 35 33 28 26 34 27 24
2250.0 35 27 36 36 44 42 54 73 78 83
2290.0 91 100 81 98 97 114 115 126 143 142
2330.0 127 110 104 84 89 94 137 108 112 73
2370.0 41 68 41 59 51 60 53 65 65 55
2410.0 58 55 59 48 51 54 48 45 42 38
2450.0 29 36 29 30 24 29 22 15 20 14
2490.0 21 15 33 31 40 36 49 42 45 58
2530.0 59 64 73 82 83 84 83 83 76 68
2570.0 68 58 74 67 60 55 54 54 44 36
2610.0 42 47 31 42 43 44 40 53 50 54
2650.0 55 48 51 42 41 30 32 27 33 31
2690.0 34 30 24 29 29 34 24 41 40 40
2730.0 46 48 55 52 52 41 46 39 35 22
2770.0 23 34 25 26 21 25 19 25 23 24
2810.0 24 19 35 33 47 42 49 46 48 42
2850.0 48 46 46 43 46 58 53 43 38 29
2890.0 35 33 46 21 29 31 27 19 24 19
2930.0 22 17 21 32 25 26 23 22 18 27
2970.0 33 34 51 62 69 74 79 79 76 90
3010.0 100 126 147 169 177 192 194 216 219 219
3050.0 236 290 426 657 915 1081 1206 1299 1236 1021
3090.0 844 703 515 340 218 149 130 123 106 114
3130.0 120 128 131 113 91 76 59 35 27 25
3170.0 21 26 28 15 26 30 14 33 22 20
3210.0 26 27 32 21 29 41 41 34 45 32
3250.0 29 31 38 32 25 41 40 44 25 43
3290.0 35 41 40 39 40 44 45 42 56 52
3330.0 36 53 68 67 68 97 107 121 113 154
3370.0 129 89 68 60 56 69 51 63 75 29
3410.0 36 26 31 24 14 49 45 36 36 34
3450.0 33 34 30 15 42 41 42 43 41 24
3490.0 39 47 42 23 23 33 32 23 35 53
3530.0 39 32 23 33 53 46 41 44 28 50
3570.0 25 25 25 22 49 32 49 23 60 35
3610.0 41 25 46 49 34 52 38 23 50 43
3650.0 59 21 62 74 56 112 32 76 28 83
3690.0 53 23 42 80 72 91 79 60 99 42
3730.0 95 102 97 59 116 31 74 65 41 55
3770.0 48 75 43 89 45 54 31 77 34 52
3810.0 34 68 74 94 54 64 82 108 72 55
3850.0 73 152 19 58 54 47 48 54 68 79
3890.0 11 59 72 64 17 29 32 78 64 40
3930.0 63 33 48 87 34 39 93 94 59 62
##END=
