##TITLE=1-Naphthalenesulfonic acid
##JCAMP-DX=4.24
##DATA TYPE=INFRARED SPECTRUM
##ORIGIN=Sadtler Research Labs Under US-EPA Contract
##OWNER=NIST Standard Reference Data Program
##CAS REGISTRY NO=85-47-2
##MOLFORM=C 10 H 8 O 3 S
##XUNITS=1/CM
##YUNITS=ABSORBANCE
##XFACTOR=1.0
##YFACTOR=0.000095313
##DELTAX=4.0
##FIRSTX=450.0
##LASTX=3966.0
##FIRSTY=0.104653
##MAXX=3966
##MINX=450
##MAXY=0.95313
##MINY=0
##NPOINTS=880
##XYDATA=(X++(Y..Y))
450.0 1098 955 1265 1552 1780 1878 1567 983 743 607
490.0 667 570 535 766 450 301 177 330 95 362
530.0 340 533 448 171 219 211 45 269 223 342
570.0 467 455 281 254 217 91 196 396 444 590
610.0 728 612 413 391 417 325 311 356 328 312
650.0 276 156 117 42 162 575 510 483 279 278
690.0 424 213 287 349 311 322 285 237 123 103
730.0 243 271 715 806 1071 1117 1459 1739 2390 3523
770.0 4128 4865 7538 10000 4922 4126 3521 2220 1637 1424
810.0 1603 1744 1608 1234 1141 689 620 595 610 533
850.0 574 427 438 274 332 203 253 262 390 450
890.0 375 371 284 262 292 291 331 401 523 466
930.0 420 462 468 496 507 508 631 615 450 346
970.0 258 184 184 222 322 329 438 640 865 1192
1010.0 1339 1681 2035 2345 2484 2065 1689 1008 503 214
1050.0 301 646 714 795 958 995 859 1019 1133 1446
1090.0 1412 1505 1284 831 768 333 484 661 696 600
1130.0 776 738 656 513 375 336 251 257 350 397
1170.0 361 290 369 329 289 220 227 284 410 394
1210.0 330 316 237 223 281 260 308 312 326 317
1250.0 370 485 802 1138 1328 1252 1044 648 435 273
1290.0 285 185 221 173 203 194 347 313 226 159
1330.0 182 216 672 624 329 316 342 331 617 359
1370.0 443 634 604 593 636 625 622 797 468 422
1410.0 358 356 740 461 405 338 322 673 241 296
1450.0 345 428 969 231 359 209 644 457 415 482
1490.0 991 537 850 865 1290 1868 1122 1243 1122 834
1530.0 602 762 599 898 848 590 491 763 547 256
1570.0 338 193 366 247 338 382 376 336 315 331
1610.0 282 205 374 299 349 248 282 469 210 424
1650.0 489 892 417 462 382 616 462 391 520 611
1690.0 432 314 611 832 535 415 596 863 534 470
1730.0 557 799 437 456 496 673 476 538 561 413
1770.0 694 545 363 415 433 390 613 498 681 370
1810.0 406 321 336 257 498 447 408 372 387 559
1850.0 341 158 149 223 211 427 165 170 204 217
1890.0 347 331 352 315 285 341 273 358 364 313
1930.0 324 417 441 527 411 292 198 135 103 143
1970.0 158 121 115 114 104 147 180 86 92 104
2010.0 119 113 185 99 76 76 72 89 147 117
2050.0 108 91 73 76 128 77 103 131 110 104
2090.0 120 80 80 66 77 95 119 99 97 91
2130.0 76 60 72 73 87 102 102 85 92 73
2170.0 63 67 88 87 98 102 97 78 72 65
2210.0 70 80 90 99 105 102 76 63 63 80
2250.0 99 116 126 123 114 90 98 116 140 168
2290.0 197 223 223 216 198 211 176 174 225 226
2330.0 257 193 166 163 169 163 194 253 264 280
2370.0 253 183 166 161 121 99 101 107 95 100
2410.0 96 96 91 103 117 121 121 120 93 70
2450.0 52 63 55 88 94 102 93 79 56 46
2490.0 42 78 75 104 96 108 90 75 69 66
2530.0 70 82 109 110 91 81 68 59 75 70
2570.0 92 103 108 104 91 80 61 70 92 100
2610.0 101 103 92 82 54 75 76 78 93 115
2650.0 100 97 83 65 59 70 96 119 128 105
2690.0 105 76 78 81 83 94 135 126 136 96
2730.0 86 86 72 100 114 137 141 120 109 90
2770.0 73 85 113 139 140 145 135 121 105 93
2810.0 99 118 147 164 168 152 153 139 140 158
2850.0 161 183 189 179 160 134 138 134 125 164
2890.0 193 188 187 178 185 161 162 208 225 272
2930.0 295 282 284 287 303 347 417 486 579 709
2970.0 730 687 578 443 364 377 391 444 463 489
3010.0 523 603 632 711 820 976 1108 1279 1566 2128
3050.0 2906 3681 4006 4120 4708 4436 3675 3127 2558 1839
3090.0 1379 1196 1118 985 770 562 375 206 164 152
3130.0 167 197 178 204 173 161 151 141 126 164
3170.0 175 210 190 194 160 145 133 130 165 172
3210.0 194 195 189 139 114 134 143 170 183 207
3250.0 158 136 125 97 114 88 143 174 169 173
3290.0 131 103 79 56 80 137 138 133 90 100
3330.0 99 68 108 96 131 130 150 155 104 91
3370.0 63 60 90 123 146 156 140 83 80 55
3410.0 56 97 146 195 155 104 44 102 70 129
3450.0 136 123 169 234 152 95 71 81 207 171
3490.0 202 175 162 282 261 195 104 130 184 480
3530.0 341 183 228 97 373 250 247 185 289 541
3570.0 688 224 162 205 295 625 327 366 285 237
3610.0 455 402 367 335 232 609 350 234 219 270
3650.0 564 325 304 194 203 390 401 462 224 200
3690.0 314 242 232 366 303 410 497 341 427 537
3730.0 410 631 721 509 692 546 459 312 281 292
3770.0 319 256 254 300 265 185 187 292 343 300
3810.0 312 312 387 447 258 252 339 459 482 422
3850.0 461 626 450 390 393 420 415 429 557 569
3890.0 470 438 407 471 425 326 332 470 447 402
3930.0 340 328 263 328 429 508 0 36 38 38
##END=
