##TITLE=Phthalic anhydride
##JCAMP-DX=4.24
##DATA TYPE=INFRARED SPECTRUM
##ORIGIN=Sadtler Research Labs Under US-EPA Contract
##OWNER=NIST Standard Reference Data Program
##CAS REGISTRY NO=85-44-9
##MOLFORM=C 8 H 4 O 3
##XUNITS=1/CM
##YUNITS=ABSORBANCE
##XFACTOR=1.0
##YFACTOR=0.000215683
##DELTAX=4.0
##FIRSTX=450.0
##LASTX=3966.0
##FIRSTY=0.006255
##MAXX=3966
##MINX=450
##MAXY=2.15683
##MINY=0
##NPOINTS=880
##XYDATA=(X++(Y..Y))
450.0 29 31 65 106 118 79 103 85 110 109
490.0 106 112 99 116 124 150 171 205 224 258
530.0 266 308 308 272 240 201 137 91 59 38
570.0 32 38 39 76 58 21 35 29 24 8
610.0 17 7 30 39 61 71 61 72 41 45
650.0 12 30 5 44 50 92 138 91 172 123
690.0 270 410 826 892 1434 2338 1552 952 1097 558
730.0 282 57 75 28 21 24 17 30 14 73
770.0 73 126 143 223 226 155 121 82 69 39
810.0 42 22 42 43 64 79 87 105 97 123
850.0 122 159 173 226 278 349 471 664 924 1281
890.0 1738 2345 2923 3502 3923 4194 3759 3251 2466 1414
930.0 649 290 155 130 126 140 140 147 154 128
970.0 122 104 92 70 67 59 69 101 127 125
1010.0 122 116 82 46 32 31 33 30 43 45
1050.0 65 75 98 103 121 139 155 180 224 311
1090.0 433 605 773 840 820 727 570 374 231 149
1130.0 106 82 79 75 81 102 152 174 181 189
1170.0 176 132 98 93 80 83 96 106 120 137
1210.0 177 214 272 346 467 681 1032 1473 1867 2302
1250.0 2824 3056 3036 2653 2361 1572 886 491 259 177
1290.0 142 112 102 93 113 154 231 328 388 431
1330.0 449 445 474 454 409 391 354 308 248 186
1370.0 162 157 128 87 91 72 81 99 81 90
1410.0 116 109 178 140 138 114 140 132 123 124
1450.0 156 179 275 266 284 276 304 275 140 124
1490.0 124 71 94 87 132 159 112 116 139 81
1530.0 82 63 92 123 109 62 82 129 93 68
1570.0 79 89 84 102 78 105 94 107 87 92
1610.0 87 68 94 51 76 26 62 67 40 51
1650.0 83 97 39 44 46 62 83 54 93 100
1690.0 75 52 123 111 113 69 104 153 107 93
1730.0 115 194 134 165 187 261 277 379 554 705
1770.0 1045 1361 1791 2188 3123 4329 5255 6846 6955 10000
1810.0 7070 6799 5583 3925 2478 1414 923 661 617 737
1850.0 896 1251 1733 2141 2362 2338 2151 1700 1175 930
1890.0 762 580 427 307 224 158 133 113 120 106
1930.0 101 100 88 105 91 86 76 80 72 78
1970.0 81 90 105 112 129 138 141 132 133 127
2010.0 116 110 96 76 52 47 32 32 32 28
2050.0 27 28 28 25 33 27 29 26 27 26
2090.0 22 21 16 18 12 17 18 20 23 26
2130.0 28 32 39 39 46 50 55 53 53 51
2170.0 44 40 32 28 18 17 13 13 11 12
2210.0 14 12 16 13 17 15 18 18 22 21
2250.0 22 21 19 22 17 18 16 15 13 14
2290.0 16 14 15 15 19 14 18 17 19 22
2330.0 22 21 16 18 17 17 9 11 7 9
2370.0 13 12 18 17 19 13 12 9 9 8
2410.0 8 9 8 9 9 12 10 13 10 10
2450.0 9 8 9 2 3 0 2 2 3 3
2490.0 2 6 6 7 4 9 7 9 10 11
2530.0 9 10 10 8 10 7 8 7 5 7
2570.0 6 5 5 7 6 9 8 10 8 8
2610.0 7 8 10 8 9 10 12 12 10 9
2650.0 8 7 6 8 5 9 7 10 8 10
2690.0 13 12 13 13 12 9 6 4 4 0
2730.0 3 3 0 3 0 3 2 4 4 6
2770.0 7 8 9 10 10 6 6 4 3 0
2810.0 2 2 0 1 0 1 1 2 1 2
2850.0 1 3 6 4 7 6 8 6 9 11
2890.0 8 9 9 7 5 8 9 11 12 14
2930.0 17 17 19 16 16 13 14 14 14 13
2970.0 12 12 11 11 8 8 5 6 5 6
3010.0 6 6 9 9 13 15 22 27 34 41
3050.0 52 62 78 88 93 99 103 108 122 141
3090.0 152 147 127 100 66 36 23 13 6 3
3130.0 3 3 0 2 0 3 1 5 1 0
3170.0 1 4 1 1 2 1 4 5 4 7
3210.0 8 10 12 13 10 12 7 6 7 5
3250.0 3 5 3 2 5 3 4 4 5 4
3290.0 4 5 4 3 2 8 8 7 7 6
3330.0 5 6 11 5 6 3 7 7 8 6
3370.0 8 9 9 6 6 9 10 11 9 13
3410.0 8 10 14 10 12 12 14 12 11 9
3450.0 13 8 9 10 7 8 6 9 8 8
3490.0 6 9 6 11 13 5 9 5 12 11
3530.0 2 5 8 14 11 7 9 10 4 5
3570.0 17 11 18 23 28 31 39 36 42 37
3610.0 37 37 36 47 32 42 57 65 78 78
3650.0 105 104 96 88 67 64 48 47 34 27
3690.0 21 19 16 13 12 10 8 10 5 15
3730.0 7 4 6 4 7 7 12 5 12 11
3770.0 11 16 7 5 14 11 5 2 9 13
3810.0 5 2 5 18 15 7 23 7 15 10
3850.0 11 16 14 11 9 20 14 12 14 22
3890.0 11 11 1 16 19 15 13 13 13 9
3930.0 8 9 12 3 1 7 5 2 9 8
##END=
