##TITLE=Benzyl butyl phthalate
##JCAMP-DX=4.24
##DATA TYPE=INFRARED SPECTRUM
##ORIGIN=Sadtler Research Labs Under US-EPA Contract
##OWNER=NIST Standard Reference Data Program
##CAS REGISTRY NO=85-68-7
##MOLFORM=C 19 H 20 O 4
##XUNITS=1/CM
##YUNITS=ABSORBANCE
##XFACTOR=1.0
##YFACTOR=0.000057254
##DELTAX=4.0
##FIRSTX=450.0
##LASTX=3966.0
##FIRSTY=0.000000
##MAXX=3966
##MINX=450
##MAXY=0.57254
##MINY=0
##NPOINTS=880
##XYDATA=(X++(Y..Y))
450.0 0 208 228 320 430 354 440 277 414 328
490.0 403 376 331 330 391 323 293 393 315 365
530.0 320 435 385 367 411 406 431 474 541 490
570.0 461 445 396 359 251 531 398 311 429 406
610.0 379 372 334 333 326 320 327 321 350 358
650.0 440 428 388 355 386 468 497 586 691 826
690.0 1080 1329 1450 1333 1227 1080 1045 1056 1146 1229
730.0 1400 1624 1856 2091 2078 1883 1514 1184 943 820
770.0 733 703 665 670 678 639 579 557 532 492
810.0 473 468 476 450 459 459 471 485 473 489
850.0 447 423 412 415 426 432 445 460 477 473
890.0 481 473 488 509 565 588 561 512 496 493
930.0 521 586 651 731 778 830 866 888 884 836
970.0 767 688 624 582 567 567 562 563 580 591
1010.0 584 595 619 694 901 1105 1277 1506 1580 1395
1050.0 1341 1647 2243 3153 4043 4388 3800 2786 1895 1455
1090.0 1293 1322 1522 1913 2646 3763 5249 6429 6728 6123
1130.0 5325 4584 3691 2706 1886 1395 1116 967 892 821
1170.0 718 661 645 648 646 638 662 714 797 889
1210.0 981 1033 1076 1177 1368 1696 2159 2847 3680 4597
1250.0 5419 6180 7161 8225 9452 9862 10000 9565 9303 8354
1290.0 6848 5186 3743 2764 2110 1700 1418 1226 1103 1033
1330.0 952 870 784 742 709 685 665 653 658 695
1370.0 807 910 936 849 783 706 617 522 467 432
1410.0 402 407 373 420 416 463 488 571 681 789
1450.0 901 920 945 920 902 832 754 670 645 630
1490.0 631 663 683 652 531 401 365 358 341 350
1530.0 333 332 331 326 305 309 330 325 358 373
1570.0 437 496 576 602 529 494 488 535 546 535
1610.0 468 409 391 356 364 337 359 337 339 336
1650.0 356 340 367 358 373 394 387 419 413 457
1690.0 478 536 590 687 783 861 1004 1190 1527 1899
1730.0 2637 3576 5476 7409 9201 8661 7276 5188 3508 2425
1770.0 1761 1343 1030 893 735 670 604 583 527 503
1810.0 470 429 413 387 392 366 373 360 335 328
1850.0 317 329 323 335 326 324 307 311 307 293
1890.0 289 278 283 274 281 281 278 284 284 295
1930.0 313 334 344 334 312 315 313 322 321 309
1970.0 286 261 252 244 245 232 238 237 239 233
2010.0 233 231 231 234 231 230 228 227 226 231
2050.0 230 228 235 232 235 231 241 234 237 234
2090.0 238 235 233 230 232 231 228 227 225 227
2130.0 221 225 224 221 219 215 216 215 218 214
2170.0 217 215 220 222 221 225 221 219 216 219
2210.0 215 217 217 217 219 218 222 222 220 219
2250.0 223 221 218 213 213 216 214 212 215 219
2290.0 218 221 224 219 227 220 230 225 230 222
2330.0 208 209 222 198 203 220 198 207 197 218
2370.0 207 213 224 222 224 219 220 214 219 211
2410.0 211 211 208 204 206 204 205 206 201 203
2450.0 199 194 193 192 196 193 193 195 197 197
2490.0 196 194 194 196 198 201 202 204 204 207
2530.0 202 206 209 203 205 205 211 210 207 214
2570.0 212 216 209 214 214 212 211 210 218 219
2610.0 216 218 217 219 215 213 217 214 215 209
2650.0 216 211 210 213 212 207 209 206 211 206
2690.0 206 209 209 208 210 216 218 213 219 221
2730.0 220 224 226 225 230 235 234 233 226 224
2770.0 228 231 226 231 232 240 251 250 253 254
2810.0 265 274 286 289 298 311 321 326 351 370
2850.0 407 448 479 507 556 621 725 830 922 968
2890.0 955 903 867 859 867 893 942 994 1026 1061
2930.0 1126 1226 1373 1525 1634 1672 1718 1838 2051 2268
2970.0 2365 2218 1828 1408 1104 918 773 668 588 538
3010.0 502 493 489 515 567 648 752 826 833 771
3050.0 680 631 632 686 817 1030 1245 1282 1113 871
3090.0 659 555 508 463 429 396 373 337 310 286
3130.0 270 254 251 252 246 257 260 255 251 243
3170.0 240 243 246 241 228 228 227 225 225 224
3210.0 227 223 224 222 221 223 222 221 220 217
3250.0 221 222 219 217 218 220 217 211 216 218
3290.0 217 218 218 218 216 214 216 224 215 221
3330.0 217 217 221 222 223 221 222 211 218 219
3370.0 221 217 220 216 217 217 217 226 216 221
3410.0 206 220 209 211 220 223 217 224 224 224
3450.0 219 228 236 238 249 243 241 250 234 229
3490.0 223 218 223 215 192 207 214 203 211 201
3530.0 205 201 213 216 198 203 216 207 222 196
3570.0 201 215 209 218 203 211 212 201 220 208
3610.0 199 198 211 203 196 208 196 212 198 209
3650.0 225 207 218 196 220 197 225 211 216 214
3690.0 219 214 204 208 198 209 224 212 197 199
3730.0 193 214 193 222 205 251 209 205 224 213
3770.0 216 221 213 203 209 199 209 203 203 208
3810.0 236 194 217 225 217 221 204 196 221 220
3850.0 218 239 212 204 204 199 220 217 192 199
3890.0 201 210 211 197 200 228 222 205 217 202
3930.0 233 211 221 232 214 202 219 229 217 229
##END=
