##TITLE=Phthalic acid, butyl ester, ester with butyl glycolate
##JCAMP-DX=4.24
##DATA TYPE=INFRARED SPECTRUM
##ORIGIN=Sadtler Research Labs Under US-EPA Contract
##OWNER=NIST Standard Reference Data Program
##CAS REGISTRY NO=85-70-1
##MOLFORM=C 18 H 24 O 6
##XUNITS=1/CM
##YUNITS=ABSORBANCE
##XFACTOR=1.0
##YFACTOR=0.000058176
##DELTAX=4.0
##FIRSTX=450.0
##LASTX=3966.0
##FIRSTY=0.016813
##MAXX=3966
##MINX=450
##MAXY=0.58176
##MINY=0
##NPOINTS=880
##XYDATA=(X++(Y..Y))
450.0 289 116 189 164 114 78 160 80 198 139
490.0 135 191 167 163 124 133 100 117 81 81
530.0 57 93 116 74 123 120 176 172 194 197
570.0 234 193 184 183 109 190 166 23 74 124
610.0 104 129 133 143 124 139 120 127 140 180
650.0 241 232 188 127 131 154 144 171 184 250
690.0 296 366 457 498 543 549 563 574 629 704
730.0 830 996 1188 1319 1303 1182 956 796 674 599
770.0 543 518 507 522 459 434 384 347 303 294
810.0 311 314 334 320 329 333 344 370 360 349
850.0 330 318 285 262 246 230 213 209 191 195
890.0 205 193 213 210 231 234 235 244 268 293
930.0 347 443 535 634 697 737 789 828 818 768
970.0 683 606 548 529 539 563 599 646 700 777
1010.0 834 899 958 1018 1060 1108 1220 1400 1549 1495
1050.0 1388 1437 1699 2134 2739 3606 4513 4976 4408 3284
1090.0 2350 1866 1760 1961 2517 3508 5052 6749 8001 8177
1130.0 7592 6591 5202 3739 2559 1868 1470 1283 1230 1212
1170.0 1199 1318 1580 2045 2788 3779 4717 4917 4233 3201
1210.0 2470 2093 1966 1995 2166 2505 2961 3567 4162 4706
1250.0 5106 5528 6125 6844 7758 8297 8617 8473 8604 8436
1290.0 7816 6642 5277 4104 3137 2454 1922 1555 1296 1137
1330.0 1004 874 776 727 689 697 751 872 1011 1165
1370.0 1307 1299 1127 1014 1026 1096 1116 1019 807 615
1410.0 497 467 485 567 651 724 703 691 706 756
1450.0 786 786 832 833 861 849 810 707 601 541
1490.0 490 404 334 275 261 244 202 222 205 199
1530.0 172 172 170 197 159 140 158 179 190 186
1570.0 256 317 391 434 336 293 267 334 334 321
1610.0 239 195 190 168 187 153 181 169 169 152
1650.0 202 191 178 188 191 217 229 251 255 319
1690.0 315 376 446 538 636 697 874 1058 1373 1644
1730.0 2340 3142 4736 6364 8226 8975 9823 10000 8797 6659
1770.0 4826 3974 3487 3072 2212 1632 1152 975 741 645
1810.0 547 466 393 341 326 275 277 240 235 184
1850.0 178 158 147 154 143 142 102 112 92 96
1890.0 84 93 86 84 88 82 94 77 98 83
1930.0 103 118 129 116 92 84 64 81 85 101
1970.0 80 69 54 40 43 43 45 31 44 34
2010.0 38 37 46 38 40 46 37 39 39 48
2050.0 43 48 48 50 55 52 61 60 67 65
2090.0 71 67 67 72 69 68 63 68 58 61
2130.0 56 54 53 49 49 42 48 37 37 33
2170.0 33 28 26 26 24 24 26 29 21 23
2210.0 20 20 23 21 21 20 22 22 28 16
2250.0 28 20 19 19 23 25 23 33 34 33
2290.0 33 33 33 36 37 33 35 27 34 23
2330.0 33 31 34 25 32 24 13 26 10 24
2370.0 26 29 33 35 26 22 26 20 26 21
2410.0 22 14 18 15 10 11 13 12 7 8
2450.0 7 9 7 2 7 6 3 0 2 4
2490.0 6 3 9 10 11 9 10 12 10 11
2530.0 9 7 5 12 8 9 7 11 14 15
2570.0 14 12 12 15 14 16 17 17 17 18
2610.0 18 21 17 22 18 19 20 17 20 17
2650.0 22 21 20 21 28 28 27 35 32 31
2690.0 32 41 32 37 38 36 37 38 43 48
2730.0 54 57 61 63 70 73 70 69 67 67
2770.0 69 73 76 76 80 85 89 91 97 106
2810.0 111 120 133 146 160 173 195 226 258 310
2850.0 370 454 521 580 646 775 958 1150 1318 1389
2890.0 1339 1210 1133 1127 1168 1253 1372 1505 1585 1641
2930.0 1752 1950 2215 2489 2677 2722 2772 2995 3434 3902
2970.0 4144 3912 3206 2377 1778 1383 1098 878 704 570
3010.0 471 400 336 307 286 273 275 259 236 218
3050.0 200 194 208 234 277 356 476 583 579 439
3090.0 259 164 136 124 119 104 95 77 69 62
3130.0 62 64 58 56 61 62 65 62 61 54
3170.0 48 44 48 49 41 40 31 34 35 39
3210.0 35 25 23 17 25 19 23 24 13 19
3250.0 14 22 15 14 23 19 18 12 10 8
3290.0 18 11 10 14 23 19 15 17 22 22
3330.0 20 25 18 19 21 22 19 23 20 21
3370.0 20 13 12 10 13 14 14 22 16 3
3410.0 12 15 18 21 17 23 18 23 23 11
3450.0 18 17 38 38 41 48 37 42 60 46
3490.0 43 44 49 45 23 23 23 14 20 12
3530.0 22 15 23 23 16 4 3 6 15 6
3570.0 26 22 19 23 16 24 20 11 12 18
3610.0 8 15 0 10 22 19 23 8 32 22
3650.0 21 28 18 27 15 34 28 36 23 21
3690.0 37 20 20 22 18 33 35 22 35 12
3730.0 28 21 28 24 35 39 44 29 31 35
3770.0 23 18 19 19 21 23 21 34 25 33
3810.0 22 31 15 34 27 23 37 22 27 25
3850.0 24 39 42 26 29 33 33 19 24 11
3890.0 12 27 14 22 21 42 31 25 34 24
3930.0 37 23 26 11 32 34 32 11 28 27
##END=
