##TITLE=Benzoic acid, 2-(methylamino)-, methyl ester
##JCAMP-DX=4.24
##DATA TYPE=INFRARED SPECTRUM
##ORIGIN=Sadtler Research Labs Under US-EPA Contract
##OWNER=NIST Standard Reference Data Program
##CAS REGISTRY NO=85-91-6
##MOLFORM=C 9 H 11 N O 2
##XUNITS=1/CM
##YUNITS=ABSORBANCE
##XFACTOR=1.0
##YFACTOR=0.000069434
##DELTAX=4.0
##FIRSTX=450.0
##LASTX=3966.0
##FIRSTY=0.009929
##MAXX=3966
##MINX=450
##MAXY=0.69434
##MINY=0
##NPOINTS=880
##XYDATA=(X++(Y..Y))
450.0 143 126 111 109 79 46 48 37 104 41
490.0 52 74 123 152 191 302 379 426 477 611
530.0 609 545 535 451 454 433 339 328 379 374
570.0 430 426 483 437 421 409 223 229 148 174
610.0 180 124 215 165 194 121 149 165 162 178
650.0 174 228 252 328 292 276 244 120 158 175
690.0 320 511 698 938 769 533 419 279 211 282
730.0 401 754 1196 1778 2444 2296 1428 959 507 250
770.0 175 90 124 115 128 185 177 191 175 187
810.0 191 138 230 262 368 414 386 357 289 206
850.0 120 109 76 37 20 26 31 32 32 68
890.0 59 75 68 57 73 34 49 22 41 55
930.0 52 85 47 97 114 112 113 82 102 88
970.0 101 101 112 82 86 85 99 127 97 129
1010.0 131 128 145 152 191 239 317 389 414 415
1050.0 443 481 619 825 996 1087 1034 1066 1311 1878
1090.0 2362 2463 2160 1626 1194 1090 1273 1742 2384 2972
1130.0 3168 3021 2371 1730 1307 1208 1556 2299 3075 3778
1170.0 3782 3143 2439 1739 1459 1511 1573 1508 1323 1187
1210.0 1112 1207 1426 1877 2640 3750 5251 7164 9049 10000
1250.0 9973 9409 8938 8372 7862 6692 4424 2791 1920 1472
1290.0 1286 1193 1153 1169 1246 1492 1849 2147 2339 2283
1330.0 2068 1718 1282 859 568 407 321 285 268 262
1370.0 260 246 240 194 187 158 170 158 172 210
1410.0 221 283 336 518 867 1338 1903 2525 2611 2386
1450.0 1735 1203 1084 1143 1176 1162 1076 968 900 888
1490.0 922 931 927 954 1041 1380 2082 3167 4076 4054
1530.0 3689 2558 1416 749 498 461 420 449 529 687
1570.0 988 1493 2353 3262 3912 4026 3590 2886 2597 2694
1610.0 2579 2367 1934 1377 1009 786 640 536 479 450
1650.0 446 479 544 583 663 709 798 927 1139 1569
1690.0 2244 3508 5691 7691 8138 7761 5602 3197 1738 1099
1730.0 949 904 909 810 634 505 408 392 353 285
1770.0 242 180 157 151 143 143 132 116 108 94
1810.0 86 71 57 52 46 31 35 36 32 44
1850.0 32 37 42 43 58 35 43 38 33 53
1890.0 47 65 57 65 84 109 122 115 101 95
1930.0 109 108 115 90 73 55 51 51 47 44
1970.0 36 36 23 35 20 28 19 11 30 9
2010.0 30 23 31 44 44 61 58 74 70 72
2050.0 71 74 82 81 89 68 68 54 46 46
2090.0 39 41 37 38 44 36 30 40 31 39
2130.0 32 38 49 38 50 46 56 50 46 44
2170.0 37 25 19 26 18 18 19 11 21 9
2210.0 29 25 31 31 33 40 40 35 43 52
2250.0 47 48 39 50 44 52 49 39 46 41
2290.0 49 34 42 37 36 28 7 25 6 12
2330.0 7 7 7 7 7 7 7 7 7 7
2370.0 7 11 33 48 52 62 54 62 55 61
2410.0 69 68 57 66 62 62 62 52 65 60
2450.0 56 54 48 61 39 47 49 52 62 48
2490.0 63 61 71 66 62 60 53 60 54 54
2530.0 48 51 48 43 41 49 52 53 54 61
2570.0 68 67 75 74 83 81 68 87 75 83
2610.0 73 69 74 67 75 75 89 84 98 95
2650.0 102 102 92 104 80 82 82 75 83 73
2690.0 82 82 84 87 88 87 89 81 88 81
2730.0 81 89 88 91 87 93 99 100 96 98
2770.0 108 99 118 116 146 155 160 197 194 236
2810.0 253 318 439 594 793 895 916 806 642 545
2850.0 531 516 498 446 397 444 532 649 714 740
2890.0 734 733 768 882 1014 1149 1301 1310 1261 1139
2930.0 1002 897 837 860 898 1026 1344 1723 1822 1645
2970.0 1247 785 600 597 716 836 877 900 803 655
3010.0 540 483 492 524 579 620 621 575 503 438
3050.0 418 388 388 379 370 358 379 483 577 680
3090.0 713 696 604 507 427 344 292 213 193 150
3130.0 121 110 85 100 77 73 71 66 64 57
3170.0 57 73 63 72 80 70 84 78 79 84
3210.0 79 85 100 93 86 103 79 87 59 56
3250.0 68 44 70 35 65 78 49 94 91 116
3290.0 118 122 120 122 125 114 107 98 108 113
3330.0 114 119 143 152 179 186 245 284 362 481
3370.0 650 965 1294 1674 1954 2083 2079 1892 1646 1352
3410.0 1035 788 563 432 307 254 192 169 143 121
3450.0 125 109 127 127 178 187 191 187 160 127
3490.0 98 76 92 78 70 84 75 97 102 97
3530.0 94 68 76 48 48 36 51 44 41 57
3570.0 37 46 41 44 39 27 39 12 39 27
3610.0 25 25 20 23 14 16 23 19 25 40
3650.0 39 40 39 38 51 40 49 56 40 35
3690.0 46 31 50 31 26 47 19 32 22 18
3730.0 31 17 31 28 42 35 28 53 47 48
3770.0 39 54 32 49 35 36 27 12 10 19
3810.0 7 7 7 7 7 7 17 16 24 41
3850.0 33 51 38 55 59 53 55 52 55 40
3890.0 56 47 43 34 35 48 38 47 25 31
3930.0 40 39 55 70 85 96 0 7 7 7
##END=
