##TITLE=Methanone, bis(pentafluorophenyl)-
##JCAMP-DX=4.24
##DATA TYPE=INFRARED SPECTRUM
##ORIGIN=Sadtler Research Labs Under US-EPA Contract
##OWNER=NIST Standard Reference Data Program
##CAS REGISTRY NO=853-39-4
##MOLFORM=C 13 F 10 O
##XUNITS=1/CM
##YUNITS=ABSORBANCE
##XFACTOR=1.0
##YFACTOR=0.000120743
##DELTAX=4.0
##FIRSTX=450.0
##LASTX=3966.0
##FIRSTY=0.000000
##MAXX=3966
##MINX=450
##MAXY=1.20743
##MINY=0
##NPOINTS=880
##XYDATA=(X++(Y..Y))
450.0 0 106 145 132 157 132 146 166 183 230
490.0 263 247 183 143 145 156 153 134 164 136
530.0 115 137 117 133 132 133 138 136 160 197
570.0 242 310 297 211 151 150 142 144 122 114
610.0 106 98 130 140 160 175 195 206 233 287
650.0 406 497 535 397 320 278 266 237 185 171
690.0 145 178 226 377 863 1192 826 370 197 162
730.0 151 152 164 148 168 195 217 274 442 804
770.0 1318 1795 1649 982 523 360 281 235 222 239
810.0 253 252 286 321 303 203 145 121 111 106
850.0 92 95 100 108 99 115 132 144 185 222
890.0 231 202 165 132 122 114 107 101 98 96
930.0 100 99 111 116 122 149 181 213 266 334
970.0 420 521 638 817 1211 2004 3132 3866 3558 2526
1010.0 1622 1220 1126 1152 1260 1406 1359 1225 1275 1350
1050.0 1096 680 440 323 254 214 190 184 184 191
1090.0 200 219 242 298 447 761 1137 1204 843 484
1130.0 349 333 346 382 452 555 710 972 1374 1830
1170.0 2153 2259 2344 2492 2349 1800 1196 746 467 312
1210.0 235 202 189 183 182 176 167 158 158 163
1250.0 173 182 183 177 171 169 177 184 185 182
1290.0 184 191 206 243 320 434 539 634 885 1614
1330.0 2838 3577 2815 1503 734 443 339 299 269 264
1370.0 249 231 237 282 385 522 655 813 1188 1743
1410.0 2041 1599 979 620 469 416 381 363 329 307
1450.0 298 330 390 509 659 878 1201 1692 2333 3196
1490.0 4396 6223 8288 10000 9670 7353 5846 5427 5177 3774
1530.0 2392 1504 1010 671 485 400 344 304 271 256
1570.0 242 242 241 253 288 315 334 317 310 307
1610.0 331 367 413 493 586 721 863 1133 1583 2057
1650.0 2043 1411 775 481 352 311 285 317 337 403
1690.0 494 612 705 849 1115 1514 1825 1723 1301 895
1730.0 635 511 430 358 291 259 231 202 178 169
1770.0 156 144 146 137 134 126 123 121 123 129
1810.0 119 116 114 112 111 108 111 113 110 109
1850.0 111 115 115 111 110 104 109 107 108 104
1890.0 103 103 102 104 104 106 107 111 108 111
1930.0 110 107 104 101 102 101 101 97 101 100
1970.0 104 102 105 105 105 103 104 107 110 112
2010.0 114 116 115 114 113 116 116 116 116 114
2050.0 111 110 113 113 115 118 121 121 117 116
2090.0 114 112 111 111 108 110 108 103 105 105
2130.0 105 107 111 113 114 114 113 112 111 108
2170.0 107 107 107 108 106 106 105 106 106 105
2210.0 108 109 112 114 116 114 110 104 98 97
2250.0 95 95 94 97 97 100 103 104 106 103
2290.0 104 100 100 98 98 91 98 99 103 113
2330.0 115 121 116 128 109 119 122 123 119 123
2370.0 119 112 111 107 108 118 129 136 141 145
2410.0 144 136 128 121 118 116 115 117 114 117
2450.0 117 118 127 131 134 132 130 128 130 131
2490.0 129 128 129 126 127 131 135 137 137 133
2530.0 132 134 134 132 132 128 132 131 128 127
2570.0 121 117 113 112 111 111 109 110 108 114
2610.0 115 119 121 128 133 139 145 148 149 148
2650.0 145 140 136 135 137 137 131 126 120 119
2690.0 113 111 111 107 107 106 106 106 104 110
2730.0 107 106 111 111 113 113 114 111 113 113
2770.0 110 109 107 108 103 102 103 102 100 102
2810.0 102 100 100 103 104 103 104 102 104 101
2850.0 103 101 100 105 102 105 106 106 108 108
2890.0 112 115 116 120 122 122 124 121 118 116
2930.0 121 120 120 118 116 113 109 113 112 111
2970.0 109 107 107 102 103 101 102 99 100 101
3010.0 103 104 106 104 107 107 107 109 107 108
3050.0 105 105 103 103 102 102 102 103 105 105
3090.0 102 101 104 105 104 108 107 108 107 109
3130.0 109 109 108 106 108 106 104 103 101 102
3170.0 98 100 98 99 99 98 98 100 98 102
3210.0 100 98 97 101 97 95 102 104 101 99
3250.0 102 99 102 99 98 99 103 103 96 97
3290.0 98 97 100 100 99 102 99 99 100 103
3330.0 100 101 105 102 101 101 102 103 97 106
3370.0 106 109 104 110 108 111 115 113 115 111
3410.0 113 106 105 107 108 111 104 102 103 106
3450.0 102 104 104 103 100 100 99 97 93 97
3490.0 92 97 99 98 94 95 96 95 96 94
3530.0 99 95 93 96 95 97 96 96 95 96
3570.0 103 97 97 100 97 97 95 102 97 100
3610.0 100 98 98 98 104 102 95 98 96 96
3650.0 93 96 96 98 97 93 99 95 95 92
3690.0 92 96 97 98 98 98 93 98 104 97
3730.0 99 98 98 93 98 91 91 92 95 98
3770.0 95 96 94 92 91 93 92 96 96 94
3810.0 91 91 96 92 91 92 93 91 97 94
3850.0 90 102 98 91 98 91 91 94 92 92
3890.0 94 94 91 91 94 100 94 91 91 94
3930.0 93 91 94 91 98 94 91 91 103 95
##END=
