##TITLE=1,1'-Biphenyl, 2-nitro-
##JCAMP-DX=4.24
##DATA TYPE=INFRARED SPECTRUM
##ORIGIN=Sadtler Research Labs Under US-EPA Contract
##OWNER=NIST Standard Reference Data Program
##CAS REGISTRY NO=86-00-0
##MOLFORM=C 12 H 9 N O 2
##XUNITS=1/CM
##YUNITS=ABSORBANCE
##XFACTOR=1.0
##YFACTOR=0.000112631
##DELTAX=4.0
##FIRSTX=450.0
##LASTX=3966.0
##FIRSTY=0.005294
##MAXX=3966
##MINX=450
##MAXY=1.12631
##MINY=0
##NPOINTS=880
##XYDATA=(X++(Y..Y))
450.0 47 117 100 160 228 129 180 132 208 157
490.0 203 159 174 197 195 262 329 453 457 516
530.0 479 457 347 297 241 148 171 129 142 140
570.0 174 140 140 155 67 41 54 38 35 150
610.0 219 308 317 184 85 43 48 35 47 82
650.0 113 241 401 801 1023 1252 1176 907 856 1100
690.0 1785 2436 2750 2601 1935 1355 964 807 838 990
730.0 1359 1843 2501 3116 3264 3234 2922 2537 2192 1933
770.0 1787 1675 1552 1192 750 491 278 194 142 137
810.0 132 106 151 126 172 184 294 456 806 1485
850.0 2040 2026 1728 926 399 217 130 115 92 88
890.0 97 80 104 123 182 198 221 188 137 105
930.0 93 97 77 125 131 158 134 118 96 80
970.0 82 69 83 59 96 87 127 183 418 767
1010.0 874 817 452 175 94 124 132 206 245 255
1050.0 244 212 204 224 296 332 353 290 261 233
1090.0 232 250 232 218 163 156 119 115 94 88
1130.0 72 59 78 68 90 73 103 103 118 112
1170.0 92 92 102 134 117 124 79 68 53 58
1210.0 57 49 65 66 96 95 137 137 171 188
1250.0 223 252 295 404 484 586 578 532 400 339
1290.0 317 330 380 412 475 465 513 518 575 622
1330.0 740 916 1157 1740 2596 3712 4734 5321 5025 4321
1370.0 3045 1956 1193 830 613 488 452 398 428 388
1410.0 390 376 308 319 305 385 348 475 516 589
1450.0 568 567 548 619 935 1290 1498 1476 1357 1050
1490.0 998 1073 1218 1362 1391 1820 1823 2275 2472 3615
1530.0 4290 6010 8127 8595 10000 8585 6866 5323 3596 3223
1570.0 2695 2507 2114 1892 1648 1408 1509 1599 1692 1504
1610.0 1301 970 678 504 367 357 207 229 195 202
1650.0 109 160 128 126 142 91 117 107 138 57
1690.0 107 94 48 20 32 80 43 40 73 114
1730.0 76 79 101 108 111 96 109 81 70 67
1770.0 51 31 69 70 82 122 134 187 164 183
1810.0 154 175 179 159 115 66 76 59 75 59
1850.0 95 82 78 85 84 94 124 142 121 150
1890.0 139 157 129 108 81 62 93 101 150 168
1930.0 194 177 178 171 179 198 210 235 207 164
1970.0 88 54 22 21 24 12 16 12 21 8
2010.0 19 10 10 13 14 14 7 15 8 14
2050.0 4 14 6 7 7 5 8 4 12 5
2090.0 9 5 12 6 8 13 5 11 9 14
2130.0 4 11 9 9 5 8 11 0 10 5
2170.0 13 6 15 14 12 19 19 21 11 19
2210.0 11 17 15 20 15 18 22 16 23 16
2250.0 27 21 28 22 17 20 19 30 28 42
2290.0 40 50 45 56 58 70 69 68 83 51
2330.0 61 30 37 36 41 40 33 37 1 24
2370.0 19 36 38 54 61 58 54 45 49 35
2410.0 40 31 30 25 30 25 23 27 28 35
2450.0 26 38 32 34 33 27 28 22 30 22
2490.0 33 27 39 34 37 36 34 31 30 34
2530.0 22 31 25 30 28 34 32 32 39 37
2570.0 42 36 47 43 47 49 52 51 50 58
2610.0 51 55 51 51 46 50 48 44 40 37
2650.0 45 32 43 36 37 37 38 44 40 50
2690.0 44 53 49 59 57 58 56 54 53 46
2730.0 41 30 34 34 38 36 36 41 38 41
2770.0 38 41 36 43 38 39 37 37 41 38
2810.0 47 42 50 48 60 60 67 74 79 93
2850.0 101 121 123 140 153 165 183 193 210 215
2890.0 228 222 219 196 186 166 153 135 122 119
2930.0 105 110 107 110 100 104 100 91 92 88
2970.0 92 85 93 91 95 105 112 115 125 139
3010.0 164 216 282 395 537 720 895 990 981 869
3050.0 757 750 904 1208 1736 2253 2492 2372 1934 1507
3090.0 1213 963 723 552 428 365 308 260 199 152
3130.0 128 101 97 88 93 91 87 76 62 60
3170.0 43 45 27 34 31 34 25 35 28 30
3210.0 28 23 28 27 32 22 30 25 25 26
3250.0 19 25 10 23 25 30 19 22 23 20
3290.0 27 25 22 19 30 27 22 22 27 32
3330.0 19 33 22 34 22 36 27 25 31 32
3370.0 32 15 37 28 30 27 31 25 31 32
3410.0 25 26 30 27 24 42 35 34 30 36
3450.0 34 23 41 30 36 33 36 30 31 52
3490.0 25 33 26 53 40 32 38 39 40 48
3530.0 27 23 41 28 53 35 32 48 35 56
3570.0 42 52 45 54 52 36 40 45 37 39
3610.0 50 35 39 37 54 28 58 49 59 49
3650.0 52 68 45 66 56 58 35 46 54 59
3690.0 56 52 67 54 63 39 60 58 64 53
3730.0 49 45 46 48 46 44 30 48 55 48
3770.0 46 44 52 35 57 46 63 43 28 39
3810.0 51 64 42 63 44 58 37 50 31 49
3850.0 47 32 54 52 57 32 48 28 55 50
3890.0 49 31 37 65 43 57 57 73 57 73
3930.0 66 44 55 49 69 59 51 50 48 46
##END=
