##TITLE=1-Naphthalenecarboxylic acid
##JCAMP-DX=4.24
##DATA TYPE=INFRARED SPECTRUM
##ORIGIN=Sadtler Research Labs Under US-EPA Contract
##OWNER=NIST Standard Reference Data Program
##CAS REGISTRY NO=86-55-5
##MOLFORM=C 11 H 8 O 2
##XUNITS=1/CM
##YUNITS=ABSORBANCE
##XFACTOR=1.0
##YFACTOR=0.000050244
##DELTAX=4.0
##FIRSTX=450.0
##LASTX=3966.0
##FIRSTY=0.000000
##MAXX=3966
##MINX=450
##MAXY=0.50244
##MINY=0
##NPOINTS=880
##XYDATA=(X++(Y..Y))
450.0 0 147 57 74 337 583 770 696 556 557
490.0 568 714 687 532 396 334 477 619 824 943
530.0 848 925 970 1139 1350 1400 1476 1569 1857 2148
570.0 2424 2487 2074 1862 1181 1117 1194 1002 1010 635
610.0 776 987 1230 2547 3537 3672 3254 2013 941 480
650.0 637 344 368 465 741 802 458 586 436 478
690.0 570 891 1302 1462 1491 1414 1292 1329 963 583
730.0 558 443 563 394 650 710 695 987 1425 2303
770.0 3227 4103 5475 5033 3878 2878 2072 1437 1031 992
810.0 817 806 767 642 522 330 358 548 490 551
850.0 495 469 377 418 524 445 414 427 372 441
890.0 436 500 364 339 360 336 446 415 478 421
930.0 388 451 452 388 376 359 423 441 534 534
970.0 571 814 975 1238 1482 1472 1215 940 644 493
1010.0 601 683 664 635 504 529 522 595 612 521
1050.0 679 746 1037 1322 1403 1496 1391 1326 1394 1395
1090.0 1405 1497 1940 3035 4917 7345 8891 9064 7622 4947
1130.0 3252 2372 1953 1693 1590 1673 1753 2103 2778 3706
1170.0 4294 4413 4097 3205 2512 1995 1632 1432 1305 1417
1210.0 1468 1594 1635 1458 1376 1187 1070 957 861 903
1250.0 908 993 1037 955 930 834 841 920 982 1074
1290.0 1100 1225 1307 1419 1599 1675 1815 1806 1795 1819
1330.0 1785 1840 1798 1865 1908 1986 1997 1834 1658 1313
1370.0 1108 981 800 741 627 566 618 622 648 623
1410.0 540 480 444 449 437 546 551 550 581 569
1450.0 616 571 608 535 483 516 495 491 488 444
1490.0 523 516 742 1013 1328 1518 1353 1184 877 638
1530.0 627 627 738 868 1036 1233 1227 1146 857 674
1570.0 717 733 808 788 789 777 714 696 632 578
1610.0 504 463 495 488 535 520 456 451 391 491
1650.0 450 464 417 403 416 428 504 546 603 616
1690.0 643 785 858 927 1017 1113 1261 1406 1557 1707
1730.0 1815 2133 2839 4555 7096 9230 10000 9794 7816 5345
1770.0 3728 3018 2344 1980 1776 1598 1418 1093 860 651
1810.0 567 521 519 523 472 437 370 360 366 370
1850.0 360 315 267 275 265 303 300 314 284 267
1890.0 287 282 312 274 252 274 265 343 347 343
1930.0 344 309 326 314 329 345 313 299 266 286
1970.0 286 262 253 192 179 195 207 203 170 180
2010.0 154 161 206 206 216 166 162 181 191 209
2050.0 169 167 168 156 186 187 190 177 185 199
2090.0 189 234 212 205 175 148 176 174 192 178
2130.0 159 178 160 213 193 177 179 136 176 173
2170.0 179 170 143 140 139 177 202 174 176 138
2210.0 165 160 165 194 161 163 157 171 210 178
2250.0 186 160 156 174 175 191 139 154 152 172
2290.0 219 200 199 159 179 182 159 214 123 80
2330.0 58 58 81 56 57 142 197 111 55 125
2370.0 59 57 61 95 179 189 169 163 133 161
2410.0 163 170 195 161 179 144 146 162 160 150
2450.0 102 125 122 140 184 138 147 128 154 172
2490.0 150 159 116 98 113 124 153 133 138 109
2530.0 136 154 150 161 116 84 94 105 145 134
2570.0 132 104 113 153 135 154 119 103 114 93
2610.0 138 124 107 96 74 113 119 144 144 84
2650.0 99 97 114 129 91 88 57 86 102 110
2690.0 146 91 141 101 104 154 132 111 95 66
2730.0 97 117 146 114 114 88 127 145 127 130
2770.0 85 90 94 126 137 118 101 105 106 159
2810.0 137 146 123 104 128 114 159 138 116 110
2850.0 98 175 187 188 197 151 158 155 155 186
2890.0 139 138 131 164 192 217 233 182 192 210
2930.0 262 296 227 219 198 208 263 241 253 213
2970.0 173 199 203 241 177 187 147 178 239 260
3010.0 317 290 290 334 336 427 409 454 535 684
3050.0 977 1218 1453 1569 1575 1389 1162 1007 797 703
3090.0 688 633 709 658 594 467 291 265 208 226
3130.0 216 202 196 142 190 190 209 188 111 140
3170.0 142 160 209 163 190 144 140 181 205 232
3210.0 165 135 111 121 174 147 184 124 134 169
3250.0 182 235 176 169 147 122 182 151 153 118
3290.0 76 130 142 228 201 155 162 98 162 181
3330.0 159 168 97 123 115 185 195 131 169 102
3370.0 165 192 186 182 92 113 78 117 170 119
3410.0 130 109 129 189 160 182 124 112 91 151
3450.0 173 114 164 109 116 209 199 274 221 176
3490.0 173 155 253 152 130 117 86 157 176 233
3530.0 188 130 181 183 223 227 353 624 1050 1556
3570.0 2111 2800 3347 3416 3065 2277 1316 612 345 239
3610.0 101 164 132 182 175 141 130 121 176 192
3650.0 167 175 85 81 83 105 122 93 91 53
3690.0 92 110 127 156 97 65 77 57 144 78
3730.0 68 57 60 120 149 140 106 89 107 79
3770.0 148 105 76 57 56 85 89 136 112 62
3810.0 86 77 157 117 132 82 57 57 60 84
3850.0 88 60 92 119 198 208 151 96 56 57
3890.0 57 57 65 56 57 55 99 116 109 117
3930.0 57 58 60 75 94 56 57 57 57 57
##END=
