##TITLE=Naphthalene, 1-(chloromethyl)-
##JCAMP-DX=4.24
##DATA TYPE=INFRARED SPECTRUM
##ORIGIN=Sadtler Research Labs Under US-EPA Contract
##OWNER=NIST Standard Reference Data Program
##CAS REGISTRY NO=86-52-2
##MOLFORM=C 11 H 9 Cl
##XUNITS=1/CM
##YUNITS=ABSORBANCE
##XFACTOR=1.0
##YFACTOR=0.000087643
##DELTAX=4.0
##FIRSTX=450.0
##LASTX=3966.0
##FIRSTY=0.000000
##MAXX=3966
##MINX=450
##MAXY=0.87643
##MINY=0
##NPOINTS=880
##XYDATA=(X++(Y..Y))
450.0 0 122 256 200 289 218 391 521 691 697
490.0 577 418 342 277 258 298 310 357 402 550
530.0 687 948 1011 801 567 341 174 203 218 173
570.0 313 707 997 1115 1074 758 427 270 191 185
610.0 200 292 648 1022 1140 1024 689 354 202 144
650.0 123 134 137 126 127 119 183 203 253 359
690.0 529 659 762 864 1127 1627 2010 2101 2080 1926
730.0 1931 2049 1763 1440 1178 1098 1350 1972 3382 5195
770.0 7368 10000 7818 5774 4413 3403 2933 2357 1833 1197
810.0 832 487 369 271 219 197 194 198 230 259
850.0 301 391 480 614 689 702 598 423 305 227
890.0 210 192 205 181 175 158 155 153 151 156
930.0 158 190 213 230 244 263 226 241 239 278
970.0 252 216 189 169 174 171 190 208 235 277
1010.0 400 521 529 515 408 300 268 305 336 313
1050.0 270 202 140 121 143 178 232 261 258 215
1090.0 162 122 106 113 116 121 132 147 159 193
1130.0 229 315 373 405 397 353 313 341 451 629
1170.0 713 686 547 348 264 245 247 275 340 478
1210.0 622 654 591 482 341 314 366 500 691 1019
1250.0 1521 1939 2113 2037 1822 1687 1605 1450 1146 840
1290.0 597 429 326 278 248 240 231 225 211 214
1330.0 222 244 275 338 407 429 437 404 357 325
1370.0 308 294 295 303 303 369 463 515 500 429
1410.0 314 262 221 247 263 305 351 394 473 527
1450.0 672 805 942 861 674 440 262 206 206 202
1490.0 240 295 413 618 870 1087 1100 969 710 458
1530.0 319 252 189 147 147 160 161 140 143 163
1570.0 183 189 206 216 236 287 378 429 427 373
1610.0 293 214 186 217 238 255 252 232 222 207
1650.0 192 176 191 214 225 252 265 280 276 271
1690.0 309 335 329 308 294 289 291 306 309 306
1730.0 287 265 263 276 272 269 271 280 282 286
1770.0 280 250 239 225 229 255 290 348 376 387
1810.0 364 332 315 301 294 280 268 248 227 215
1850.0 220 241 272 305 315 296 269 240 221 215
1890.0 220 220 233 248 290 332 375 408 420 426
1930.0 408 410 417 393 374 314 257 208 173 161
1970.0 154 152 149 143 148 144 142 146 148 153
2010.0 160 161 162 169 180 187 190 195 196 204
2050.0 201 193 221 229 228 218 211 198 188 166
2090.0 161 162 157 160 164 159 159 165 162 160
2130.0 158 164 157 158 165 167 170 163 167 161
2170.0 159 161 164 165 155 161 167 162 160 171
2210.0 166 171 161 165 163 164 169 170 174 178
2250.0 184 181 187 182 176 184 172 178 184 194
2290.0 200 196 208 217 224 243 230 242 243 224
2330.0 225 207 212 198 179 224 271 242 192 171
2370.0 139 132 136 148 164 167 167 178 183 183
2410.0 187 199 193 192 188 188 183 176 179 186
2450.0 186 179 179 178 177 181 180 183 183 183
2490.0 187 176 180 179 183 179 197 171 180 182
2530.0 189 181 183 188 173 181 183 186 183 178
2570.0 175 172 184 183 186 180 179 179 174 165
2610.0 162 151 147 140 149 150 150 141 143 160
2650.0 144 127 125 116 125 135 151 172 194 208
2690.0 207 211 210 221 222 229 224 227 232 223
2730.0 222 212 203 199 199 197 193 184 183 176
2770.0 182 183 183 190 181 196 216 210 204 210
2810.0 215 223 233 225 232 232 249 246 258 247
2850.0 258 266 265 278 281 273 286 312 333 366
2890.0 385 385 368 351 339 339 321 326 317 331
2930.0 343 359 386 427 459 525 584 645 727 869
2970.0 1045 1172 1275 1227 1025 830 702 652 741 875
3010.0 990 1089 1080 1054 1034 1060 1149 1332 1624 2043
3050.0 2557 2961 3201 3415 3568 3582 3466 3113 2583 2132
3090.0 1753 1473 1291 1094 932 757 576 429 330 273
3130.0 259 248 253 242 255 222 208 209 235 239
3170.0 221 235 249 228 250 233 212 216 214 203
3210.0 193 202 221 217 212 197 190 192 199 195
3250.0 203 180 195 190 187 202 188 203 205 199
3290.0 206 186 204 216 207 195 201 204 214 201
3330.0 198 204 212 198 198 215 215 204 222 225
3370.0 237 218 217 221 209 221 206 211 201 206
3410.0 199 201 173 200 200 216 217 182 181 200
3450.0 181 193 219 204 178 222 194 175 207 202
3490.0 179 183 173 203 202 208 212 191 192 188
3530.0 183 183 188 189 193 195 184 186 198 174
3570.0 169 183 208 185 169 185 191 143 175 193
3610.0 182 167 183 186 184 159 139 121 139 163
3650.0 136 127 170 182 144 174 186 175 131 141
3690.0 137 124 141 177 129 147 131 107 111 106
3730.0 127 140 122 120 138 123 106 106 137 105
3770.0 116 106 116 106 107 111 117 137 109 158
3810.0 111 106 137 106 131 113 121 137 138 130
3850.0 174 145 132 179 127 176 139 148 182 163
3890.0 171 171 144 153 113 179 115 115 204 231
3930.0 221 217 198 148 167 226 206 226 250 150
##END=
