##TITLE=1-Naphthalenecarbonitrile
##JCAMP-DX=4.24
##DATA TYPE=INFRARED SPECTRUM
##ORIGIN=Sadtler Research Labs Under US-EPA Contract
##OWNER=NIST Standard Reference Data Program
##CAS REGISTRY NO=86-53-3
##MOLFORM=C 11 H 7 N
##XUNITS=1/CM
##YUNITS=ABSORBANCE
##XFACTOR=1.0
##YFACTOR=0.000062845
##DELTAX=4.0
##FIRSTX=450.0
##LASTX=3966.0
##FIRSTY=0.071392
##MAXX=3966
##MINX=450
##MAXY=0.62845
##MINY=0
##NPOINTS=880
##XYDATA=(X++(Y..Y))
450.0 1136 1383 1320 941 360 280 263 240 264 371
490.0 505 585 475 475 491 434 441 373 402 282
530.0 342 314 285 218 158 141 162 260 260 304
570.0 567 225 212 131 117 68 142 188 125 44
610.0 17 0 3 14 32 49 41 39 27 22
650.0 26 27 44 71 82 134 171 296 534 576
690.0 626 584 373 162 68 48 67 125 198 283
730.0 357 577 344 345 433 712 1607 3146 4921 6005
770.0 10000 8421 5334 5110 4664 5029 5470 9385 6796 4385
810.0 3502 2019 929 475 349 327 344 400 465 541
850.0 659 814 918 987 815 647 576 474 381 365
890.0 357 349 332 280 230 152 130 102 134 196
930.0 211 230 232 188 170 175 225 214 249 284
970.0 321 208 142 103 83 104 155 278 470 578
1010.0 643 684 609 467 347 238 170 115 78 39
1050.0 49 91 181 294 355 400 503 605 677 673
1090.0 618 521 432 332 253 183 135 104 94 117
1130.0 149 198 290 372 436 525 550 384 341 314
1170.0 221 148 109 71 53 44 81 182 323 404
1210.0 446 516 455 373 339 299 246 193 151 121
1250.0 145 201 319 511 633 611 687 584 377 244
1290.0 175 152 143 142 140 147 155 170 219 326
1330.0 473 629 708 651 553 399 251 266 437 695
1370.0 900 974 938 807 733 770 763 729 617 334
1410.0 161 81 56 68 79 84 85 71 78 48
1450.0 27 26 14 38 41 49 53 97 158 260
1490.0 397 573 755 995 1221 1314 1257 1108 851 548
1530.0 366 265 221 124 77 58 39 14 32 70
1570.0 98 153 226 364 554 689 678 653 510 282
1610.0 135 85 77 99 129 157 171 173 172 140
1650.0 130 108 118 100 89 69 77 104 122 134
1690.0 173 210 223 251 303 317 306 296 270 210
1730.0 167 111 103 128 157 160 168 149 127 133
1770.0 152 163 157 124 79 41 28 65 118 221
1810.0 306 382 448 468 420 395 355 282 211 151
1850.0 109 73 75 103 139 179 241 271 259 226
1890.0 173 117 89 92 112 144 203 276 369 450
1930.0 492 490 452 397 371 361 331 288 228 153
1970.0 84 44 30 22 17 11 8 3 4 8
2010.0 6 4 9 9 9 13 11 14 11 14
2050.0 17 19 21 22 18 20 12 9 7 9
2090.0 4 6 8 6 2 3 2 0 4 1
2130.0 1 1 0 1 2 1 4 2 7 9
2170.0 17 21 21 21 23 20 26 36 56 95
2210.0 170 335 595 898 1131 1234 1168 921 588 364
2250.0 251 189 153 127 94 77 63 57 62 79
2290.0 94 113 123 123 123 129 111 95 90 72
2330.0 52 39 32 27 44 59 32 27 16 21
2370.0 23 34 43 52 42 22 19 18 14 26
2410.0 29 36 30 32 26 20 20 20 21 22
2450.0 23 19 17 13 14 12 6 7 2 6
2490.0 3 2 6 1 3 4 4 0 7 8
2530.0 10 14 14 17 14 7 7 8 6 7
2570.0 8 8 12 14 12 12 17 13 14 17
2610.0 18 18 23 23 21 24 23 21 24 26
2650.0 33 39 39 40 41 34 34 26 20 20
2690.0 17 14 16 12 16 13 12 16 13 12
2730.0 16 12 12 20 14 16 17 18 21 22
2770.0 23 26 27 31 32 40 44 49 47 53
2810.0 59 59 60 57 53 60 64 84 103 139
2850.0 190 220 214 172 137 113 103 104 109 122
2890.0 134 150 172 194 221 250 299 363 429 458
2930.0 438 389 330 289 273 268 262 258 242 202
2970.0 180 157 134 129 128 135 160 200 255 306
3010.0 344 371 385 405 442 503 586 720 938 1293
3050.0 1802 2376 3068 4048 4548 4395 4162 3434 2487 1885
3090.0 1614 1491 1428 1318 1111 817 508 269 147 95
3130.0 80 65 68 68 64 62 61 77 79 90
3170.0 89 93 97 83 69 64 58 53 50 56
3210.0 53 51 56 51 41 40 39 41 44 43
3250.0 42 38 39 36 36 31 19 19 18 17
3290.0 14 19 21 12 16 17 12 7 8 10
3330.0 12 2 9 14 7 6 4 1 8 7
3370.0 7 17 16 21 18 12 17 14 23 10
3410.0 13 10 12 4 18 22 19 26 30 32
3450.0 31 31 48 34 30 34 28 24 14 19
3490.0 26 36 32 33 30 28 33 29 18 21
3530.0 16 23 22 27 29 40 27 26 37 40
3570.0 30 32 37 37 38 23 32 40 50 44
3610.0 40 47 40 58 39 26 29 26 36 29
3650.0 13 33 19 26 21 30 33 27 39 38
3690.0 36 37 31 36 34 31 40 42 43 32
3730.0 26 29 20 27 17 41 30 47 52 50
3770.0 42 44 29 44 44 37 43 33 40 57
3810.0 68 67 75 46 57 48 56 48 53 60
3850.0 72 62 89 90 98 107 87 80 68 46
3890.0 50 49 54 39 50 68 65 59 84 63
3930.0 61 50 44 42 42 30 24 31 22 14
##END=
