##TITLE=1-Naphthalenamine, N,N-dimethyl-
##JCAMP-DX=4.24
##DATA TYPE=INFRARED SPECTRUM
##ORIGIN=Sadtler Research Labs Under US-EPA Contract
##OWNER=NIST Standard Reference Data Program
##CAS REGISTRY NO=86-56-6
##MOLFORM=C 12 H 13 N
##XUNITS=1/CM
##YUNITS=ABSORBANCE
##XFACTOR=1.0
##YFACTOR=0.000055859
##DELTAX=4.0
##FIRSTX=450.0
##LASTX=3966.0
##FIRSTY=0.021785
##MAXX=3966
##MINX=450
##MAXY=0.55859
##MINY=0
##NPOINTS=880
##XYDATA=(X++(Y..Y))
450.0 390 431 355 221 125 109 160 147 196 181
490.0 96 174 144 305 130 166 109 62 202 237
530.0 346 190 187 49 82 181 278 404 261 532
570.0 708 791 930 532 321 64 164 250 236 267
610.0 80 157 151 229 230 211 111 96 191 196
650.0 346 299 227 244 163 321 240 349 265 310
690.0 420 389 470 242 212 157 194 230 253 404
730.0 254 342 313 376 524 736 1439 2551 4558 6513
770.0 8774 10000 5970 4764 3345 2933 2756 2908 1951 1175
810.0 823 443 370 321 327 311 264 366 265 271
850.0 217 192 231 270 323 290 250 199 178 269
890.0 250 346 286 259 297 360 525 649 1087 1640
930.0 2045 2165 1889 1319 720 492 404 451 526 443
970.0 414 323 299 270 320 366 405 477 602 1074
1010.0 1601 1992 2025 1731 1327 1173 1670 2246 2668 2784
1050.0 2530 2153 1784 1690 1694 1999 2185 2113 1904 1314
1090.0 1013 845 861 851 794 729 605 493 383 448
1130.0 583 833 1174 1435 1670 1660 1509 1288 1110 982
1170.0 926 1005 1125 1370 1550 1578 1454 1283 1274 1234
1210.0 1152 1122 1074 1047 971 945 848 766 679 697
1250.0 687 642 675 634 604 581 554 554 545 715
1290.0 928 1339 1858 2282 2491 2225 1786 1350 1039 821
1330.0 706 588 481 454 437 439 414 398 426 498
1370.0 658 830 1151 1730 2814 4328 5246 5375 4465 3032
1410.0 1852 1340 1173 1049 1056 1076 1235 1505 1924 2307
1450.0 2523 2776 2875 3123 2935 2627 2269 1999 1867 1624
1490.0 1375 1204 1240 1503 1610 1661 1502 1205 889 724
1530.0 633 523 500 372 382 363 363 442 712 1350
1570.0 2207 3144 3740 3875 3466 2734 2070 1593 1180 786
1610.0 565 527 476 536 493 456 380 288 327 276
1650.0 311 232 300 276 279 258 237 264 291 284
1690.0 337 334 245 148 206 238 291 278 312 301
1730.0 251 222 247 281 291 252 269 240 291 316
1770.0 310 252 221 174 129 145 122 147 147 186
1810.0 216 216 232 222 241 286 351 399 352 269
1850.0 201 154 134 134 153 113 133 129 137 140
1890.0 144 194 221 316 379 408 411 351 310 252
1930.0 230 211 197 192 189 198 163 156 119 95
1970.0 75 64 86 85 104 96 87 75 64 84
2010.0 62 73 53 51 50 61 80 56 54 33
2050.0 33 49 49 55 39 36 48 65 74 74
2090.0 85 53 56 59 70 67 44 54 42 49
2130.0 62 71 69 59 69 51 70 60 49 31
2170.0 21 27 27 38 38 18 17 15 39 28
2210.0 34 25 20 34 40 54 42 42 31 33
2250.0 40 40 50 30 34 33 44 59 58 58
2290.0 38 36 55 56 52 34 31 7 19 32
2330.0 20 15 7 7 7 28 27 8 6 7
2370.0 30 13 39 28 28 30 30 58 59 60
2410.0 60 52 61 50 60 43 38 38 35 52
2450.0 55 62 35 34 42 51 64 65 71 53
2490.0 70 97 100 96 79 87 66 79 86 70
2530.0 79 63 76 69 83 72 60 61 51 70
2570.0 61 72 77 65 80 72 103 96 101 93
2610.0 90 111 94 123 103 96 101 111 135 134
2650.0 148 113 109 121 115 135 107 116 106 121
2690.0 145 144 156 135 157 153 180 200 196 208
2730.0 208 249 269 301 355 394 485 581 780 994
2770.0 1308 1739 2287 2960 3677 4362 4588 4338 3608 2763
2810.0 2146 1770 1747 1971 2546 3441 4254 4630 4250 3475
2850.0 2710 2306 2208 2240 2369 2427 2451 2321 2121 1978
2890.0 1872 1862 1842 1871 1806 1754 1732 1709 1793 1926
2930.0 2298 2855 3655 4653 5247 5304 4706 3722 2688 1956
2970.0 1577 1467 1703 2107 2602 2756 2528 2144 1701 1401
3010.0 1146 1039 917 847 843 894 1044 1272 1744 2459
3050.0 3426 4382 4975 5140 4521 3828 3084 2566 2286 2096
3090.0 1999 1733 1460 1129 814 553 343 248 166 167
3130.0 167 153 139 112 115 108 145 139 128 128
3170.0 111 140 128 140 122 100 96 83 126 115
3210.0 119 104 83 112 103 122 77 73 63 64
3250.0 83 77 94 30 48 39 59 96 49 58
3290.0 14 51 63 53 69 40 42 22 59 72
3330.0 53 46 22 60 40 74 52 30 36 34
3370.0 59 34 75 54 28 43 43 69 49 53
3410.0 44 27 49 53 75 31 38 39 32 76
3450.0 60 65 21 29 46 51 86 53 40 24
3490.0 43 62 48 49 33 38 31 66 69 42
3530.0 40 38 43 45 55 54 28 45 36 53
3570.0 44 71 60 43 51 39 87 60 39 48
3610.0 24 50 58 73 44 12 43 40 82 64
3650.0 34 34 34 64 59 55 40 17 40 59
3690.0 65 61 77 48 55 46 59 94 54 62
3730.0 45 43 46 59 51 33 49 51 80 88
3770.0 82 88 71 73 102 124 103 84 75 61
3810.0 101 112 84 71 74 94 79 113 132 136
3850.0 103 76 104 104 125 95 98 85 87 129
3890.0 126 134 102 91 103 117 130 100 91 80
3930.0 103 132 139 135 100 105 0 7 7 7
##END=
