##TITLE=Benzaldehyde, 2,3-dimethoxy-
##JCAMP-DX=4.24
##DATA TYPE=INFRARED SPECTRUM
##ORIGIN=Sadtler Research Labs Under US-EPA Contract
##OWNER=NIST Standard Reference Data Program
##CAS REGISTRY NO=86-51-1
##MOLFORM=C 9 H 10 O 3
##XUNITS=1/CM
##YUNITS=ABSORBANCE
##XFACTOR=1.0
##YFACTOR=0.000055127
##DELTAX=4.0
##FIRSTX=450.0
##LASTX=3966.0
##FIRSTY=0.002977
##MAXX=3966
##MINX=450
##MAXY=0.55127
##MINY=0
##NPOINTS=880
##XYDATA=(X++(Y..Y))
450.0 54 78 87 78 92 134 95 33 0 25
490.0 5 79 135 141 140 162 236 230 266 329
530.0 335 253 259 179 95 94 166 58 111 180
570.0 159 167 155 113 120 118 109 154 179 245
610.0 324 286 257 312 247 316 278 308 404 403
650.0 367 317 303 227 286 404 246 254 303 334
690.0 341 302 328 320 406 375 319 284 293 425
730.0 593 807 1103 1450 2012 2395 2496 2353 2156 1821
770.0 1472 1252 1217 1253 1374 1344 1351 1497 1531 1526
810.0 1413 1118 810 564 379 288 242 201 201 198
850.0 162 142 157 137 150 197 160 213 213 223
890.0 307 352 419 576 645 700 695 623 490 394
930.0 345 329 355 438 444 446 451 390 357 362
970.0 333 389 425 537 691 877 1229 1736 2289 2857
1010.0 3251 3298 2986 2484 2007 1722 1702 1719 1806 1761
1050.0 1696 1671 1739 1946 2194 2545 2751 2821 2652 2276
1090.0 1807 1383 1022 779 630 559 495 436 439 435
1130.0 425 409 421 445 478 557 668 772 930 1086
1170.0 1225 1339 1383 1369 1325 1237 1191 1197 1309 1573
1210.0 1952 2402 2980 3603 4242 4867 5659 6727 7564 8222
1250.0 8598 8756 9058 9420 9503 8942 7605 6219 4921 4013
1290.0 3386 2979 2699 2446 2180 1822 1460 1077 799 627
1330.0 520 457 428 398 386 411 443 468 486 549
1370.0 710 1008 1571 2193 2396 2512 2247 1620 1130 823
1410.0 731 785 995 1401 1875 2226 2311 2227 1931 1636
1450.0 1608 1807 2114 2656 3370 4367 5590 6565 6697 5982
1490.0 4631 2958 1712 1055 717 523 407 297 212 188
1530.0 205 222 240 251 309 361 384 404 505 698
1570.0 953 1402 1926 2394 2650 2618 2269 1754 1296 913
1610.0 607 422 317 313 309 321 338 342 388 396
1650.0 428 426 547 614 703 765 801 831 878 955
1690.0 1251 1929 3531 6239 8716 10000 9627 7397 4545 3073
1730.0 2309 1576 936 585 454 394 375 393 414 441
1770.0 462 466 474 432 365 306 249 222 203 185
1810.0 184 176 177 180 163 161 164 160 164 145
1850.0 139 137 129 119 110 101 110 107 104 105
1890.0 101 106 99 100 115 117 125 134 134 145
1930.0 134 124 121 115 126 130 133 150 149 142
1970.0 150 150 160 159 158 173 166 170 179 196
2010.0 202 204 211 194 184 174 163 139 126 111
2050.0 97 88 79 76 75 75 76 66 65 66
2090.0 66 52 47 35 46 40 37 43 45 44
2130.0 44 53 54 62 62 70 63 63 63 52
2170.0 52 53 42 42 42 42 42 33 26 32
2210.0 33 23 29 31 25 32 40 40 31 40
2250.0 31 31 21 21 21 21 21 38 35 49
2290.0 46 56 66 75 92 91 89 86 101 101
2330.0 100 108 96 101 100 100 125 110 127 109
2370.0 96 80 77 63 52 27 32 25 16 16
2410.0 7 5 5 1 0 6 7 12 8 16
2450.0 17 26 26 25 26 34 37 35 42 37
2490.0 36 46 39 47 47 55 55 48 55 59
2530.0 60 70 77 71 86 86 86 86 87 87
2570.0 77 69 50 51 49 36 42 37 41 42
2610.0 45 35 45 45 45 44 45 52 52 55
2650.0 66 59 59 66 65 58 66 76 75 94
2690.0 103 125 153 223 321 440 504 511 468 386
2730.0 348 377 443 513 528 496 415 316 238 201
2770.0 180 170 180 180 199 208 247 295 336 388
2810.0 446 502 570 658 817 1066 1442 1907 2307 2615
2850.0 2750 2747 2538 2284 2003 1628 1319 1134 1037 988
2890.0 960 941 944 962 1019 1067 1133 1198 1257 1351
2930.0 1519 1725 2075 2455 2712 2775 2644 2349 2051 1815
2970.0 1669 1547 1442 1334 1250 1200 1223 1330 1470 1617
3010.0 1643 1543 1333 1074 840 704 622 569 547 521
3050.0 503 501 521 540 590 665 750 815 815 759
3090.0 650 518 388 286 202 154 136 119 109 93
3130.0 95 75 76 77 66 72 59 50 60 59
3170.0 60 51 42 36 35 33 36 31 35 26
3210.0 26 26 26 17 19 24 20 22 28 23
3250.0 25 15 31 20 20 20 21 21 30 16
3290.0 31 26 20 32 33 29 32 32 24 34
3330.0 25 33 34 37 44 38 37 47 61 53
3370.0 61 81 81 90 111 125 155 178 165 165
3410.0 128 83 81 50 53 40 40 40 30 24
3450.0 22 26 36 27 24 25 20 27 15 7
3490.0 25 35 8 6 27 23 28 28 23 11
3530.0 19 25 21 20 11 9 30 28 39 44
3570.0 53 58 48 48 42 23 31 32 40 23
3610.0 13 21 20 10 20 19 28 31 43 36
3650.0 17 53 26 35 34 14 20 23 32 31
3690.0 17 38 29 38 37 28 31 40 45 39
3730.0 27 15 31 31 24 32 39 41 42 51
3770.0 50 40 52 41 47 56 56 49 60 62
3810.0 63 63 54 64 65 62 64 65 70 64
3850.0 66 49 62 65 67 66 76 84 76 79
3890.0 95 84 80 72 69 69 69 69 61 61
3930.0 61 70 70 71 71 78 3 8 8 9
##END=
