##TITLE=Carbazole
##JCAMP-DX=4.24
##DATA TYPE=INFRARED SPECTRUM
##ORIGIN=Sadtler Research Labs Under US-EPA Contract
##OWNER=NIST Standard Reference Data Program
##CAS REGISTRY NO=86-74-8
##MOLFORM=C 12 H 9 N
##XUNITS=1/CM
##YUNITS=ABSORBANCE
##XFACTOR=1.0
##YFACTOR=0.000056949
##DELTAX=4.0
##FIRSTX=450.0
##LASTX=3966.0
##FIRSTY=0.001310
##MAXX=3966
##MINX=450
##MAXY=0.56949
##MINY=0
##NPOINTS=880
##XYDATA=(X++(Y..Y))
450.0 23 357 403 543 369 526 358 378 328 330
490.0 394 433 673 768 813 726 525 276 369 326
530.0 372 377 377 478 514 699 835 1043 1258 1155
570.0 854 754 548 484 394 367 362 390 407 386
610.0 670 1015 1081 1203 1124 711 715 719 760 683
650.0 634 528 512 435 420 546 660 726 795 943
690.0 1019 1129 1293 1719 2466 3643 5255 6285 9027 9009
730.0 6762 7655 6782 7213 8438 7776 5521 4228 2844 1695
770.0 1116 803 730 607 614 541 467 380 333 288
810.0 223 231 219 284 370 561 648 681 634 508
850.0 441 476 580 571 587 510 459 424 413 430
890.0 419 423 401 395 382 420 446 473 539 543
930.0 454 421 377 348 330 314 324 301 306 301
970.0 304 300 332 377 398 480 654 1069 1257 1260
1010.0 1147 728 416 277 148 29 0 25 74 125
1050.0 148 149 147 146 125 115 92 92 65 78
1090.0 93 137 211 327 412 685 1492 1584 1584 1342
1130.0 658 385 495 680 807 883 1038 906 686 480
1170.0 327 346 390 488 581 631 644 644 717 785
1210.0 1019 1379 1963 3486 6637 9993 10000 9500 5830 2112
1250.0 1016 794 652 592 519 529 561 581 573 596
1290.0 560 511 531 644 1128 2329 4113 5501 5818 5266
1330.0 3589 2384 1853 1426 1167 1049 919 727 667 593
1370.0 652 894 1429 1973 2206 2164 1764 1121 768 569
1410.0 410 383 314 374 365 548 856 1416 2318 3073
1450.0 3525 4281 5480 4815 4217 3276 1620 1007 1819 2966
1490.0 4120 4506 3865 2595 1618 733 565 480 436 423
1530.0 330 352 297 334 273 341 420 475 580 629
1570.0 776 860 1123 1317 1326 1363 1368 1604 2047 2726
1610.0 2888 2658 2093 1319 845 687 670 662 682 673
1650.0 666 628 519 449 403 381 390 410 401 371
1690.0 313 267 235 220 204 197 193 210 226 227
1730.0 243 229 223 221 264 325 413 462 488 484
1770.0 413 328 252 216 237 295 358 375 362 289
1810.0 223 175 159 153 161 173 200 272 355 408
1850.0 389 355 263 229 253 350 465 551 569 526
1890.0 460 316 253 237 304 445 620 675 616 488
1930.0 270 170 137 135 127 135 130 130 134 130
1970.0 133 118 117 113 110 100 103 100 102 105
2010.0 104 103 96 105 100 103 102 103 99 98
2050.0 100 91 94 98 99 92 97 101 98 97
2090.0 94 108 106 118 123 134 135 135 123 116
2130.0 112 108 109 95 96 88 81 82 84 86
2170.0 86 92 88 87 78 85 84 89 93 91
2210.0 92 96 99 95 108 107 106 97 99 94
2250.0 97 98 95 98 92 95 88 85 83 77
2290.0 69 73 83 87 102 94 97 86 88 97
2330.0 86 102 87 86 66 76 81 74 63 84
2370.0 69 70 77 70 76 67 68 64 56 55
2410.0 56 63 68 76 78 91 87 89 81 81
2450.0 83 91 109 129 144 144 156 154 170 179
2490.0 188 180 156 133 100 83 59 60 57 63
2530.0 68 76 91 92 101 89 91 71 73 64
2570.0 65 63 72 83 100 123 136 154 153 146
2610.0 123 104 87 76 86 86 96 102 117 116
2650.0 120 127 129 134 117 112 82 67 47 32
2690.0 29 29 42 51 69 68 70 60 48 37
2730.0 28 17 11 6 2 9 13 31 44 53
2770.0 58 59 53 51 48 58 56 48 51 53
2810.0 64 65 71 74 64 55 41 40 30 30
2850.0 29 29 29 27 37 31 30 21 20 20
2890.0 35 41 42 57 69 85 94 89 83 89
2930.0 100 106 116 126 124 105 90 62 43 20
2970.0 23 31 49 58 51 66 68 100 119 179
3010.0 278 455 693 988 1284 1501 1685 1829 1921 2065
3050.0 2358 2630 3043 3697 4624 5437 5418 4850 3626 2413
3090.0 1885 1580 1238 889 604 409 273 191 144 111
3130.0 96 83 73 77 81 93 105 119 102 91
3170.0 85 65 58 53 59 43 37 41 41 37
3210.0 43 46 49 54 52 68 68 69 61 66
3250.0 36 33 29 25 21 17 12 28 22 14
3290.0 19 4 6 19 19 20 10 22 13 20
3330.0 19 17 21 21 14 21 16 16 21 3
3370.0 11 1 12 11 20 21 27 40 54 60
3410.0 50 61 65 63 80 93 91 101 114 118
3450.0 139 164 201 249 327 456 635 882 1173 1527
3490.0 1869 2233 2417 2492 2514 2321 1853 1509 1161 724
3530.0 467 312 231 194 175 160 153 120 107 94
3570.0 61 43 48 48 49 48 57 37 61 33
3610.0 54 51 65 53 52 88 44 53 59 61
3650.0 76 66 55 71 55 71 77 81 60 70
3690.0 74 73 61 47 57 57 73 84 71 63
3730.0 69 90 48 70 46 76 66 41 56 66
3770.0 86 84 84 97 78 93 84 89 84 97
3810.0 77 91 76 90 99 100 113 87 88 75
3850.0 72 103 83 73 98 71 95 91 77 78
3890.0 81 84 76 104 81 94 102 99 108 139
3930.0 137 106 138 118 117 101 102 92 108 116
##END=
