##TITLE=Quinoline, 4,7-dichloro-
##JCAMP-DX=4.24
##DATA TYPE=INFRARED SPECTRUM
##ORIGIN=Sadtler Research Labs Under US-EPA Contract
##OWNER=NIST Standard Reference Data Program
##CAS REGISTRY NO=86-98-6
##MOLFORM=C 9 H 5 Cl 2 N
##XUNITS=1/CM
##YUNITS=ABSORBANCE
##XFACTOR=1.0
##YFACTOR=0.000050439
##DELTAX=4.0
##FIRSTX=450.0
##LASTX=3966.0
##FIRSTY=0.035913
##MAXX=3966
##MINX=450
##MAXY=0.50439
##MINY=0
##NPOINTS=880
##XYDATA=(X++(Y..Y))
450.0 712 644 696 641 517 437 249 185 140 111
490.0 61 126 274 220 168 116 91 75 126 121
530.0 39 26 123 176 194 276 175 150 127 97
570.0 121 69 91 54 108 83 40 67 120 133
610.0 491 1517 3005 3781 3716 2550 1609 949 703 443
650.0 303 206 204 270 407 1379 2111 2816 2564 1922
690.0 767 277 155 137 178 213 167 187 167 136
730.0 188 142 139 147 157 199 397 605 657 782
770.0 637 467 403 324 440 543 808 1091 1598 2587
810.0 4177 6399 8396 8275 7265 6053 5276 3163 2225 1208
850.0 591 430 416 538 816 1387 2650 4607 6664 7810
890.0 6623 4292 2533 1213 467 301 313 391 350 266
930.0 187 165 187 200 319 426 552 736 1210 2291
970.0 4277 4923 4515 2693 969 576 632 631 581 503
1010.0 470 433 472 475 439 400 420 431 539 682
1050.0 838 1286 1947 2860 4608 6484 7482 6673 4078 2116
1090.0 997 518 395 310 279 270 209 172 180 165
1130.0 183 264 504 800 961 874 567 261 225 284
1170.0 568 1059 1543 1769 1632 1155 839 687 597 542
1210.0 532 421 348 321 254 211 236 249 285 292
1250.0 349 416 606 831 800 700 658 1031 1992 3272
1290.0 3789 3138 1820 586 275 224 212 240 343 618
1330.0 1357 2275 2775 2677 1797 997 942 1303 1731 1934
1370.0 2020 1837 1569 1469 1235 1113 1245 1768 2560 3263
1410.0 4155 4516 4102 3005 1637 1173 1145 1313 1192 1175
1450.0 1098 986 1019 794 804 1020 1827 3232 5374 6623
1490.0 6339 5054 2525 1201 779 637 520 585 632 650
1530.0 761 1013 1570 3019 5258 8299 10000 9465 6404 3013
1570.0 2166 2488 3229 3753 3986 3696 3563 4086 5926 8421
1610.0 9314 8029 4994 2353 1358 1012 880 865 749 730
1650.0 645 823 716 724 644 556 381 293 276 342
1690.0 247 290 394 420 315 266 320 437 361 326
1730.0 258 305 181 193 188 236 268 330 411 509
1770.0 589 593 440 309 218 156 190 140 146 94
1810.0 94 81 110 69 90 114 107 124 112 172
1850.0 111 105 115 96 99 125 96 82 88 97
1890.0 133 199 298 433 551 669 621 529 354 186
1930.0 91 70 47 80 80 60 65 82 91 91
1970.0 71 61 42 52 44 56 47 38 21 33
2010.0 40 54 54 53 44 45 55 42 64 43
2050.0 52 28 23 47 54 44 46 36 35 37
2090.0 47 56 39 43 43 53 58 66 58 47
2130.0 49 48 28 59 38 38 33 48 53 37
2170.0 31 33 22 20 11 31 23 29 19 16
2210.0 27 22 18 23 30 44 56 54 55 65
2250.0 46 56 60 55 51 59 57 75 78 106
2290.0 136 148 189 206 223 243 229 227 246 253
2330.0 235 287 231 268 269 241 252 265 346 297
2370.0 249 189 169 132 123 72 37 39 19 39
2410.0 39 30 41 49 50 46 46 53 42 32
2450.0 23 23 42 44 44 65 52 77 76 82
2490.0 58 63 48 37 48 57 68 67 77 78
2530.0 55 50 51 44 61 55 49 41 42 52
2570.0 43 44 51 44 43 40 31 19 36 35
2610.0 54 47 46 57 65 78 69 49 32 29
2650.0 29 42 38 18 22 20 11 11 12 21
2690.0 12 20 31 16 22 36 24 17 24 16
2730.0 35 27 29 38 45 38 36 32 24 19
2770.0 38 40 38 21 10 32 21 35 22 35
2810.0 42 38 34 47 46 31 51 51 52 74
2850.0 68 69 72 97 77 82 67 72 61 63
2890.0 43 54 52 50 56 41 52 67 68 50
2930.0 38 68 52 53 65 76 87 99 131 149
2970.0 169 179 200 242 243 214 195 214 225 267
3010.0 322 341 408 425 492 608 793 1069 1316 1473
3050.0 1435 1246 1041 842 711 607 487 478 490 489
3090.0 494 400 307 198 131 81 52 56 55 52
3130.0 82 75 76 71 61 68 61 59 73 73
3170.0 74 37 68 47 26 49 52 12 48 40
3210.0 31 34 25 25 39 38 30 53 25 49
3250.0 32 45 46 42 33 17 17 29 23 20
3290.0 33 44 32 50 26 23 3 27 39 48
3330.0 30 38 6 21 34 28 39 43 64 40
3370.0 38 52 48 21 50 31 0 48 42 35
3410.0 39 38 45 64 36 44 13 34 12 12
3450.0 27 60 36 14 45 33 30 32 43 46
3490.0 6 47 35 69 67 41 24 51 35 81
3530.0 50 28 70 47 67 57 77 89 82 83
3570.0 105 71 93 90 98 120 57 57 78 73
3610.0 137 129 117 111 79 120 86 55 77 75
3650.0 149 139 101 86 51 148 124 162 95 88
3690.0 174 146 140 150 150 172 178 135 170 181
3730.0 174 204 240 180 227 199 174 170 192 184
3770.0 187 152 161 198 200 175 189 224 249 210
3810.0 224 212 252 255 215 216 210 244 264 216
3850.0 216 269 282 293 273 294 233 256 248 253
3890.0 250 236 229 254 242 243 245 236 227 227
3930.0 259 268 254 255 261 243 93 106 107 109
##END=
