##TITLE=Phosphonic acid, dimethyl ester
##JCAMP-DX=4.24
##DATA TYPE=INFRARED SPECTRUM
##ORIGIN=Sadtler Research Labs Under US-EPA Contract
##OWNER=NIST Standard Reference Data Program
##CAS REGISTRY NO=868-85-9
##MOLFORM=C 2 H 7 O 3 P
##SOURCE REFERENCE=No.222456 (NIST/EPA/NIH MS Database)
##XUNITS=1/CM
##YUNITS=ABSORBANCE
##XFACTOR=1.0
##YFACTOR=0.000111533
##DELTAX=4.0
##FIRSTX=450.0
##LASTX=3966.0
##FIRSTY=0.018961
##MAXX=3966
##MINX=450
##MAXY=1.11533
##MINY=0
##NPOINTS=880
##XYDATA=(X++(Y..Y))
450.0 170 175 130 145 165 108 185 100 128 116
490.0 131 157 162 157 182 229 251 284 316 374
530.0 420 553 599 691 795 841 850 743 674 553
570.0 438 338 269 162 111 87 67 43 38 34
610.0 49 15 33 23 21 18 25 30 23 17
650.0 20 23 2 43 36 43 52 35 61 30
690.0 60 56 56 53 60 62 63 76 66 95
730.0 99 139 196 291 391 538 702 880 1001 1095
770.0 1192 1190 1100 948 795 677 651 726 924 1214
810.0 1517 1731 1811 1712 1593 1408 1072 769 566 448
850.0 402 344 299 261 222 198 187 182 178 176
890.0 178 181 176 177 176 179 179 189 198 220
930.0 248 284 328 384 463 574 746 1048 1556 2366
970.0 3587 5159 7070 8793 9990 10000 9204 7229 5281 3925
1010.0 3081 2626 2361 2251 2150 2360 2756 2828 3283 3888
1050.0 4531 5190 5700 6083 6228 6223 5955 5475 4911 4311
1090.0 3835 3466 3199 2898 2583 2306 2073 1840 1627 1436
1130.0 1276 1139 1022 918 830 761 717 696 724 791
1170.0 880 987 1094 1151 1186 1193 1142 1053 948 828
1210.0 735 672 636 608 590 578 566 564 567 595
1250.0 662 793 1007 1337 1805 2365 2989 3592 4094 4360
1290.0 4412 4481 4233 3770 3232 2659 2141 1765 1430 1062
1330.0 732 494 346 273 233 206 200 212 212 214
1370.0 201 191 175 179 172 182 175 181 178 174
1410.0 163 164 159 152 160 163 182 196 252 287
1450.0 356 386 431 441 414 405 374 336 317 298
1490.0 263 238 218 196 172 178 157 157 162 154
1530.0 161 144 169 143 157 138 153 131 132 123
1570.0 126 103 127 96 104 98 111 99 103 95
1610.0 86 72 76 55 61 40 58 36 44 40
1650.0 49 14 47 24 25 31 21 23 35 24
1690.0 30 35 31 30 36 41 40 59 45 52
1730.0 60 67 61 90 94 115 147 203 251 233
1770.0 239 152 94 64 65 49 68 64 68 72
1810.0 82 86 93 103 99 114 98 111 90 93
1850.0 79 72 65 63 63 61 62 60 68 69
1890.0 73 76 78 82 82 82 74 67 66 53
1930.0 48 41 40 32 31 29 26 21 25 20
1970.0 16 17 14 16 12 14 13 15 13 18
2010.0 14 15 14 13 10 9 11 10 9 9
2050.0 9 11 7 6 7 7 7 11 9 7
2090.0 5 8 6 7 7 8 12 11 11 12
2130.0 11 12 13 11 12 10 8 9 8 8
2170.0 8 8 8 8 6 6 4 4 6 6
2210.0 4 3 4 3 4 5 4 3 5 6
2250.0 10 13 15 17 18 22 21 22 27 28
2290.0 25 28 25 26 27 30 18 15 12 11
2330.0 6 12 37 0 69 56 53 104 79 127
2370.0 170 202 247 289 332 360 390 422 466 501
2410.0 536 575 636 716 799 870 921 969 992 944
2450.0 823 710 601 494 390 293 216 160 118 88
2490.0 69 54 46 38 33 30 24 24 22 19
2530.0 17 18 18 15 16 17 21 17 22 22
2570.0 21 20 19 17 18 17 18 19 17 21
2610.0 19 21 20 23 22 24 24 23 24 22
2650.0 27 24 24 22 22 19 18 19 19 17
2690.0 20 20 20 22 19 19 19 17 21 22
2730.0 26 17 23 20 21 23 27 21 25 29
2770.0 28 35 40 38 45 51 55 68 75 82
2810.0 98 105 123 137 146 148 165 191 263 371
2850.0 472 591 651 733 731 713 663 525 407 345
2890.0 317 321 331 349 378 415 450 487 526 551
2930.0 541 560 604 680 835 1058 1324 1469 1589 1700
2970.0 1642 1577 1390 1150 974 853 807 762 746 721
3010.0 714 698 677 635 608 571 529 478 435 392
3050.0 352 334 314 305 294 283 272 260 246 223
3090.0 209 192 179 157 142 129 115 105 95 84
3130.0 74 64 59 50 48 45 37 30 30 26
3170.0 26 22 21 23 19 19 20 22 18 19
3210.0 19 18 12 16 15 13 11 10 10 9
3250.0 7 4 5 7 3 6 3 7 3 8
3290.0 7 10 7 10 6 5 6 11 9 3
3330.0 6 6 8 5 8 10 4 7 7 11
3370.0 13 7 5 6 6 12 13 13 13 14
3410.0 13 19 20 16 16 9 16 12 14 13
3450.0 9 8 6 9 9 15 7 7 18 20
3490.0 8 15 17 18 21 11 17 14 19 18
3530.0 17 17 16 18 22 22 20 18 14 34
3570.0 15 30 47 76 95 69 75 25 26 18
3610.0 22 32 26 40 23 20 43 32 61 49
3650.0 74 81 59 92 45 93 45 73 54 49
3690.0 49 40 50 45 51 54 51 55 76 38
3730.0 54 36 61 5 62 3 28 18 8 14
3770.0 27 22 20 23 15 16 9 39 4 29
3810.0 9 26 30 8 28 14 12 26 34 7
3850.0 34 18 9 26 17 14 17 13 5 36
3890.0 8 33 19 25 13 18 33 27 29 24
3930.0 21 30 25 16 27 25 33 27 20 28
##END=
