##TITLE=Propanedioic acid, (ethoxymethylene)-, diethyl ester
##JCAMP-DX=4.24
##DATA TYPE=INFRARED SPECTRUM
##ORIGIN=Sadtler Research Labs Under US-EPA Contract
##OWNER=NIST Standard Reference Data Program
##CAS REGISTRY NO=87-13-8
##MOLFORM=C 10 H 16 O 5
##XUNITS=1/CM
##YUNITS=ABSORBANCE
##XFACTOR=1.0
##YFACTOR=0.000091809
##DELTAX=4.0
##FIRSTX=450.0
##LASTX=3966.0
##FIRSTY=0.013863
##MAXX=3966
##MINX=450
##MAXY=0.91809
##MINY=0
##NPOINTS=880
##XYDATA=(X++(Y..Y))
450.0 151 142 25 90 373 205 206 113 104 152
490.0 108 157 91 24 97 70 132 90 47 74
530.0 23 49 71 54 88 87 125 73 27 43
570.0 20 40 95 60 72 83 54 21 22 64
610.0 76 112 111 55 78 78 80 124 106 95
650.0 66 93 85 120 69 84 64 90 93 131
690.0 89 106 145 196 230 243 245 293 342 371
730.0 380 398 312 280 312 262 250 327 373 393
770.0 365 353 363 375 374 358 371 398 360 337
810.0 305 300 298 271 282 255 280 282 268 315
850.0 369 455 545 634 710 683 584 480 438 465
890.0 457 409 384 307 270 227 230 162 212 190
930.0 199 220 180 210 170 155 180 192 197 208
970.0 234 233 262 297 344 402 510 602 674 812
1010.0 895 1092 1316 1694 2026 2116 2069 1866 1677 1601
1050.0 1572 1669 1955 2494 3271 4291 5475 6373 6766 7000
1090.0 6846 7030 7203 7243 7114 7088 7303 8046 8608 9088
1130.0 8924 8810 8326 7556 6874 6367 6234 6398 6599 7049
1170.0 7349 7882 8566 9327 10000 9836 8969 7442 5733 4463
1210.0 3639 3234 3069 3175 3583 4138 4933 5777 6226 6387
1250.0 6020 5482 5125 4846 5015 5424 6043 6763 6971 6668
1290.0 5533 4529 3744 3285 3062 2763 2454 2118 1761 1485
1330.0 1285 1135 1037 1008 1057 1136 1223 1282 1346 1596
1370.0 1877 2041 2159 2203 2275 2239 2183 2159 2009 1737
1410.0 1453 1109 903 755 693 623 587 633 659 749
1450.0 789 814 764 803 830 945 919 911 790 619
1490.0 436 319 284 192 164 135 127 144 81 133
1530.0 124 73 144 43 117 104 92 117 63 155
1570.0 149 131 250 189 324 299 363 486 539 706
1610.0 898 1211 1504 1905 2322 2882 3756 5059 6324 6399
1650.0 5729 4240 2622 1976 1360 1091 1038 880 942 894
1690.0 996 1055 1136 1318 1532 1924 2415 3325 4709 6380
1730.0 8339 8940 9218 8911 8368 8423 7806 6709 5411 4158
1770.0 3314 2588 2075 1626 1249 1002 816 636 563 447
1810.0 407 369 316 308 233 222 189 186 172 147
1850.0 150 151 124 102 84 68 70 64 60 61
1890.0 64 72 56 61 51 58 43 49 41 54
1930.0 47 54 55 56 66 63 66 54 55 46
1970.0 37 41 28 26 27 18 26 18 24 22
2010.0 16 20 17 25 24 19 25 19 27 26
2050.0 21 19 17 15 19 8 10 8 16 14
2090.0 19 19 18 20 24 24 24 27 27 27
2130.0 34 35 32 33 34 38 38 29 31 24
2170.0 24 19 14 10 17 13 11 10 9 3
2210.0 4 7 7 9 12 12 15 20 20 23
2250.0 27 30 33 36 42 42 48 52 53 59
2290.0 72 78 95 99 108 131 120 125 118 122
2330.0 117 95 131 65 195 78 200 105 206 161
2370.0 126 130 115 108 91 60 57 54 55 58
2410.0 62 69 63 69 71 73 77 70 71 68
2450.0 61 62 56 55 53 46 48 47 39 39
2490.0 42 39 34 38 35 35 38 34 34 37
2530.0 34 39 39 39 47 47 42 38 40 40
2570.0 34 36 36 32 39 33 36 39 43 42
2610.0 39 41 40 42 41 39 42 39 36 35
2650.0 34 37 34 34 35 35 36 35 31 34
2690.0 34 36 36 35 42 45 54 59 65 70
2730.0 75 81 84 83 88 90 101 109 113 128
2770.0 132 136 137 145 145 138 143 144 149 151
2810.0 162 172 189 197 211 216 218 230 238 248
2850.0 274 291 322 370 423 477 566 702 858 1002
2890.0 1111 1221 1308 1358 1348 1315 1281 1214 1157 1152
2930.0 1246 1452 1761 2069 2207 2081 1819 1645 1661 1808
2970.0 1974 2197 2622 3333 4012 4149 3686 2970 2336 1848
3010.0 1459 1150 923 745 613 516 439 380 335 306
3050.0 277 260 239 220 192 189 165 152 151 142
3090.0 130 129 120 116 114 107 110 101 101 101
3130.0 101 101 96 99 96 85 89 90 86 87
3170.0 85 90 92 84 93 93 86 84 87 90
3210.0 80 83 88 81 75 74 72 74 68 73
3250.0 69 73 70 73 71 71 67 72 75 72
3290.0 65 69 73 68 77 68 76 77 70 80
3330.0 83 78 85 82 77 83 82 98 91 90
3370.0 94 96 101 99 96 97 93 93 95 101
3410.0 99 96 100 111 100 105 109 122 132 131
3450.0 130 134 134 126 134 131 125 123 130 124
3490.0 129 110 118 102 106 92 101 95 92 76
3530.0 82 95 96 89 98 85 95 75 94 62
3570.0 94 82 80 88 71 88 75 76 56 93
3610.0 69 69 69 69 71 80 59 107 68 61
3650.0 66 57 112 59 133 32 111 18 104 89
3690.0 49 107 84 98 80 53 74 69 98 71
3730.0 84 65 30 96 30 94 29 92 91 65
3770.0 100 68 108 86 73 105 86 84 78 46
3810.0 126 38 95 38 111 80 74 59 51 125
3850.0 43 87 0 117 48 63 96 40 103 62
3890.0 106 66 71 68 76 112 69 90 74 82
3930.0 89 79 93 91 81 86 105 108 109 63
##END=
