##TITLE=Benzoic acid, 2-hydroxy-, 3-methylbutyl ester
##JCAMP-DX=4.24
##DATA TYPE=INFRARED SPECTRUM
##ORIGIN=Sadtler Research Labs Under US-EPA Contract
##OWNER=NIST Standard Reference Data Program
##CAS REGISTRY NO=87-20-7
##MOLFORM=C 12 H 16 O 3
##XUNITS=1/CM
##YUNITS=ABSORBANCE
##XFACTOR=1.0
##YFACTOR=0.000137347
##DELTAX=4.0
##FIRSTX=450.0
##LASTX=3966.0
##FIRSTY=0.033650
##MAXX=3966
##MINX=450
##MAXY=1.37347
##MINY=0
##NPOINTS=880
##XYDATA=(X++(Y..Y))
450.0 245 156 13 178 115 158 109 96 134 129
490.0 148 175 247 241 279 277 343 394 445 522
530.0 559 527 339 423 365 286 267 253 267 273
570.0 257 189 168 177 173 184 57 118 153 145
610.0 191 196 192 196 175 188 166 158 148 156
650.0 209 248 387 575 751 810 699 556 577 632
690.0 814 1073 1394 1612 1613 1474 1300 1103 897 679
730.0 506 425 487 818 1356 2100 2702 2453 1729 1024
770.0 564 348 251 211 191 207 232 276 308 310
810.0 296 283 287 288 285 269 238 209 208 242
850.0 293 348 420 474 445 370 306 242 178 146
890.0 108 107 106 118 138 153 171 182 192 215
930.0 241 271 348 445 553 624 663 675 660 609
970.0 530 449 376 316 278 253 236 222 221 212
1010.0 228 244 294 403 586 744 800 722 545 417
1050.0 354 338 345 402 525 766 1213 2030 3330 4491
1090.0 4555 3171 1715 1058 1000 1058 1135 1209 1427 1872
1130.0 2518 3283 3302 2720 1932 2591 5478 7900 6601 3310
1170.0 2202 2296 2271 2114 1790 1633 1788 2330 3384 5080
1210.0 6921 7135 5795 4067 3284 3100 3080 3213 3638 4724
1250.0 6134 6683 5442 3713 2676 2265 2093 2202 2465 2787
1290.0 3449 5051 7869 10000 9423 6498 4490 4022 4027 3700
1330.0 3141 2748 2529 2248 1955 1713 1464 1275 1170 1119
1370.0 1128 1207 1310 1426 1638 1912 2175 2290 2249 2139
1410.0 2043 1900 1751 1509 1266 1036 883 783 729 758
1450.0 871 1068 1379 1763 2209 2598 2919 3169 3370 3311
1490.0 2848 2116 1451 1118 965 824 639 473 377 305
1530.0 266 231 222 223 222 225 261 322 375 437
1570.0 548 724 996 1320 1520 1537 1359 1187 1135 1339
1610.0 1823 2341 2477 1965 1252 706 506 457 469 520
1650.0 615 716 808 937 1134 1468 2061 3057 4525 6388
1690.0 7648 7807 6531 4659 2953 1806 1141 789 585 481
1730.0 448 474 550 682 784 776 642 452 314 232
1770.0 187 164 124 107 90 86 88 91 110 136
1810.0 156 139 99 78 73 77 77 72 61 58
1850.0 42 34 33 36 34 36 25 24 30 34
1890.0 43 52 54 57 56 55 72 106 134 126
1930.0 87 59 50 71 89 95 77 45 26 22
1970.0 15 15 11 8 6 9 5 7 7 12
2010.0 9 10 14 15 18 20 19 19 19 18
2050.0 22 21 19 20 24 12 8 2 5 8
2090.0 11 19 21 27 26 34 33 35 34 32
2130.0 35 28 30 27 28 27 30 31 27 29
2170.0 27 28 27 28 25 26 29 25 22 25
2210.0 26 25 28 27 25 27 31 34 33 39
2250.0 40 37 37 39 39 37 44 44 49 45
2290.0 43 39 27 25 18 4 5 3 2 6
2330.0 18 33 36 33 36 19 2 12 33 90
2370.0 92 95 98 85 76 78 71 71 69 62
2410.0 60 63 63 71 69 76 69 70 68 68
2450.0 67 66 67 68 66 69 68 68 70 76
2490.0 71 70 79 78 79 71 68 68 64 64
2530.0 74 76 75 83 79 82 83 78 69 77
2570.0 78 78 77 80 82 89 89 96 97 105
2610.0 103 103 101 116 111 114 103 111 111 102
2650.0 97 85 77 73 58 67 71 77 89 98
2690.0 106 116 113 119 121 125 122 128 127 131
2730.0 141 150 148 149 153 152 153 157 164 167
2770.0 181 180 180 173 178 169 171 177 190 176
2810.0 182 181 188 194 203 221 239 258 286 326
2850.0 375 409 428 469 535 658 855 1074 1272 1349
2890.0 1317 1240 1178 1177 1255 1394 1557 1651 1661 1702
2930.0 1795 1917 2019 2045 2019 1993 2106 2482 3140 4006
2970.0 4592 4296 3320 2322 1671 1252 988 814 689 594
3010.0 517 432 399 392 384 393 388 381 382 391
3050.0 454 512 582 645 704 775 804 782 705 639
3090.0 570 563 550 493 431 378 319 308 282 280
3130.0 278 279 282 277 278 307 323 340 363 385
3170.0 398 442 444 490 522 560 611 655 710 769
3210.0 849 946 1043 1178 1314 1404 1496 1560 1565 1569
3250.0 1552 1513 1458 1380 1297 1217 1147 1086 1044 1020
3290.0 982 947 907 867 836 803 782 758 733 708
3330.0 695 677 657 630 620 582 552 547 530 507
3370.0 501 466 457 428 420 402 364 353 332 323
3410.0 302 299 284 271 270 266 258 253 267 261
3450.0 265 300 333 422 510 535 537 477 413 373
3490.0 314 283 264 248 232 219 182 172 151 130
3530.0 113 110 102 90 87 74 67 78 72 76
3570.0 60 64 53 62 59 37 58 48 44 45
3610.0 54 37 32 42 57 43 36 31 27 51
3650.0 41 38 26 7 29 18 24 16 2 14
3690.0 11 3 2 20 5 41 1 2 1 36
3730.0 0 2 6 34 11 10 14 30 2 2
3770.0 2 2 5 5 2 2 2 2 2 2
3810.0 2 2 2 2 2 2 2 2 2 2
3850.0 2 2 2 2 2 2 17 2 2 2
3890.0 2 2 2 2 2 2 2 2 2 2
3930.0 2 2 2 8 0 2 2 2 1 19
##END=
