##TITLE=Benzoic acid, 2-amino-, ethyl ester
##JCAMP-DX=4.24
##DATA TYPE=INFRARED SPECTRUM
##ORIGIN=Sadtler Research Labs Under US-EPA Contract
##OWNER=NIST Standard Reference Data Program
##CAS REGISTRY NO=87-25-2
##MOLFORM=C 9 H 11 N O 2
##XUNITS=1/CM
##YUNITS=ABSORBANCE
##XFACTOR=1.0
##YFACTOR=0.000257480
##DELTAX=4.0
##FIRSTX=450.0
##LASTX=3966.0
##FIRSTY=0.000000
##MAXX=3966
##MINX=450
##MAXY=2.5748
##MINY=0
##NPOINTS=880
##XYDATA=(X++(Y..Y))
450.0 0 161 122 261 179 285 201 338 249 342
490.0 327 410 442 517 662 660 817 756 797 635
530.0 619 506 408 407 402 423 372 449 342 332
570.0 261 252 234 233 223 206 245 201 254 215
610.0 256 251 266 265 281 310 273 304 294 295
650.0 291 345 376 467 568 601 610 490 474 474
690.0 572 656 804 816 594 530 378 331 282 339
730.0 419 651 1006 1347 1814 1987 1417 1048 727 437
770.0 330 270 267 268 253 248 260 279 252 274
810.0 250 256 247 244 246 240 280 284 328 359
850.0 423 399 374 349 272 244 205 206 175 180
890.0 162 158 145 137 140 122 136 122 134 117
930.0 136 128 127 136 141 142 126 134 118 126
970.0 127 141 136 142 158 156 176 191 224 237
1010.0 274 298 322 354 402 469 500 521 483 438
1050.0 403 442 531 691 919 1135 1324 1422 1543 1700
1090.0 2057 2644 3524 4578 5399 5518 4603 3360 2170 1481
1130.0 1069 850 749 731 834 1145 1958 2753 2741 2619
1170.0 1651 972 784 664 555 492 439 422 394 410
1210.0 416 468 566 760 1107 1691 2652 4055 6186 7912
1250.0 10000 8208 5786 3483 2351 1947 1968 2521 3541 4767
1290.0 5127 4708 3470 2246 1559 1340 1307 1227 1134 923
1330.0 690 517 414 339 283 261 267 339 503 775
1370.0 919 912 758 501 383 368 376 371 358 323
1410.0 287 262 241 241 238 252 269 327 418 556
1450.0 741 904 995 1028 984 888 849 909 1039 1109
1490.0 1155 1108 932 744 552 394 296 254 240 251
1530.0 255 282 315 356 435 538 689 863 1046 1121
1570.0 1140 1077 1048 1191 1512 1992 2390 2618 2684 2717
1610.0 2906 3385 3675 3504 3157 2315 1534 997 700 539
1650.0 452 411 394 398 404 419 439 493 578 782
1690.0 1162 1804 2877 4336 5565 5492 5325 3791 2501 1732
1730.0 1333 1101 965 744 532 421 351 329 299 289
1770.0 264 238 216 202 196 191 195 185 180 165
1810.0 162 156 150 146 135 129 122 126 119 119
1850.0 118 121 119 119 124 118 128 131 141 141
1890.0 150 154 157 169 182 205 208 208 191 178
1930.0 174 177 172 160 152 142 145 142 148 144
1970.0 143 139 133 129 126 130 125 128 126 128
2010.0 126 128 128 125 128 123 123 116 116 111
2050.0 113 118 118 115 111 118 113 117 119 126
2090.0 126 128 133 131 136 136 140 136 139 139
2130.0 139 137 139 140 136 138 129 129 124 126
2170.0 122 119 122 117 120 116 119 116 117 116
2210.0 119 119 119 122 120 121 119 120 115 119
2250.0 119 120 122 124 129 125 127 124 124 122
2290.0 123 125 120 126 124 133 129 139 134 136
2330.0 131 123 121 116 123 124 148 142 130 111
2370.0 111 113 112 120 124 130 130 133 134 134
2410.0 133 129 129 123 123 120 119 119 118 114
2450.0 113 116 115 117 116 121 119 122 122 120
2490.0 123 122 119 117 119 118 119 117 121 127
2530.0 124 128 126 126 119 121 118 116 116 118
2570.0 118 119 118 117 117 113 117 117 118 120
2610.0 120 125 125 131 129 135 139 138 139 141
2650.0 144 146 142 137 137 124 123 114 111 111
2690.0 113 112 114 120 118 121 124 125 127 134
2730.0 141 137 139 133 135 130 133 134 135 142
2770.0 142 149 147 154 148 148 142 145 145 149
2810.0 160 160 167 166 168 164 163 162 167 169
2850.0 171 178 180 191 196 210 230 258 301 320
2890.0 332 329 330 336 358 382 406 402 388 386
2930.0 392 447 534 629 667 657 609 569 581 621
2970.0 690 771 917 1088 1205 1196 1100 929 768 654
3010.0 559 485 430 423 446 489 514 526 529 512
3050.0 523 530 558 566 545 489 456 449 498 531
3090.0 509 467 358 266 218 200 192 182 180 170
3130.0 168 154 160 152 152 148 151 155 152 152
3170.0 159 165 162 169 164 163 159 156 154 147
3210.0 147 141 140 138 129 124 131 138 136 143
3250.0 143 145 142 143 145 151 158 159 159 164
3290.0 180 170 180 185 184 182 176 180 177 174
3330.0 178 182 178 178 187 192 203 223 259 324
3370.0 434 620 931 1269 1524 1576 1399 1094 798 583
3410.0 437 354 310 296 288 268 245 215 192 171
3450.0 176 169 174 176 182 200 212 231 249 285
3490.0 316 371 440 532 662 812 967 1053 1045 934
3530.0 759 564 417 319 250 209 185 172 161 161
3570.0 142 144 139 148 139 140 141 130 140 127
3610.0 134 127 130 126 128 136 126 120 116 127
3650.0 130 122 117 123 114 117 136 138 144 140
3690.0 143 131 137 131 126 117 118 120 119 118
3730.0 113 114 120 115 116 114 121 113 116 111
3770.0 120 116 117 119 111 117 123 120 124 124
3810.0 136 131 135 144 127 123 128 116 113 119
3850.0 115 114 111 120 111 126 113 112 112 121
3890.0 120 119 112 134 128 124 131 120 124 112
3930.0 113 111 111 129 120 124 125 133 129 134
##END=
