##TITLE=Phenol, 2-(1-methylbutyl)-
##JCAMP-DX=4.24
##DATA TYPE=INFRARED SPECTRUM
##ORIGIN=Sadtler Research Labs Under US-EPA Contract
##OWNER=NIST Standard Reference Data Program
##CAS REGISTRY NO=87-26-3
##MOLFORM=C 11 H 16 O
##XUNITS=1/CM
##YUNITS=ABSORBANCE
##XFACTOR=1.0
##YFACTOR=0.000085339
##DELTAX=4.0
##FIRSTX=450.0
##LASTX=3966.0
##FIRSTY=0.041987
##MAXX=3966
##MINX=450
##MAXY=0.85339
##MINY=0
##NPOINTS=880
##XYDATA=(X++(Y..Y))
450.0 492 276 288 295 242 414 454 563 520 563
490.0 638 847 1158 767 738 762 676 545 227 455
530.0 486 457 456 505 502 487 491 576 297 280
570.0 248 262 219 191 141 215 197 188 194 198
610.0 149 61 60 76 128 22 64 38 28 53
650.0 88 107 67 89 45 136 157 119 134 176
690.0 225 246 235 264 386 362 432 399 474 611
730.0 985 1838 2580 4401 5690 5579 3208 2573 1263 614
770.0 551 346 389 370 295 328 313 384 451 563
810.0 654 774 1077 1285 1463 1583 1381 1161 849 608
850.0 599 547 540 464 439 386 304 368 403 404
890.0 367 357 339 257 268 341 225 349 304 283
930.0 304 248 208 188 140 120 74 126 115 115
970.0 120 130 138 173 195 275 293 341 316 385
1010.0 355 347 457 393 449 560 671 812 778 741
1050.0 605 517 510 569 576 691 837 1065 1258 1227
1090.0 1338 1242 1211 1134 1137 1160 1097 1050 1004 965
1130.0 1026 1121 1307 1521 1763 1974 1991 2131 2647 3773
1170.0 5064 5745 5717 4819 3952 3657 3584 3531 3307 2839
1210.0 2378 1954 1696 1547 1534 1633 1811 2158 2556 2893
1250.0 3317 3401 3298 3041 2358 1863 1450 1320 1278 1268
1290.0 1336 1289 1263 1291 1348 1589 1849 2215 2376 2255
1330.0 1912 1380 998 765 618 571 546 529 555 584
1370.0 669 716 903 1001 988 879 628 479 376 302
1410.0 356 320 370 422 476 624 773 1116 1500 1971
1450.0 2635 3015 3148 3071 2687 2217 1995 1928 2141 2446
1490.0 2696 2812 2695 2534 2415 2492 2318 1972 1333 747
1530.0 421 369 266 197 227 209 232 241 292 434
1570.0 503 719 912 1158 1295 1302 1381 1250 1264 1250
1610.0 1145 1144 889 653 470 242 222 132 130 134
1650.0 42 113 81 161 121 114 108 154 120 118
1690.0 90 94 79 66 99 48 54 33 44 79
1730.0 19 43 28 58 77 45 77 88 91 123
1770.0 103 96 113 92 105 69 84 70 65 53
1810.0 73 78 66 45 44 26 47 38 51 39
1850.0 72 75 86 87 66 78 97 123 141 158
1890.0 166 165 145 116 92 72 80 88 117 125
1930.0 120 92 63 33 18 18 19 10 11 15
1970.0 17 18 20 9 13 26 13 22 22 24
2010.0 19 14 24 26 28 28 21 28 23 27
2050.0 31 30 42 39 44 50 41 45 34 39
2090.0 35 30 25 15 13 10 15 10 6 6
2130.0 10 3 4 5 6 8 12 14 7 12
2170.0 3 4 9 6 7 12 9 13 11 15
2210.0 13 17 17 13 12 16 18 17 19 19
2250.0 25 22 26 24 27 27 29 37 40 40
2290.0 47 51 56 55 60 69 71 77 74 66
2330.0 70 64 57 78 48 74 55 70 68 69
2370.0 63 66 65 66 68 67 67 79 77 84
2410.0 84 86 96 103 111 110 106 99 90 82
2450.0 78 74 74 68 70 72 71 78 77 81
2490.0 79 79 77 71 69 65 61 61 57 56
2530.0 57 55 49 53 56 62 60 66 70 68
2570.0 71 66 73 71 71 72 71 77 83 82
2610.0 87 83 87 84 84 90 96 92 85 90
2650.0 91 89 92 91 93 94 98 105 110 106
2690.0 107 105 112 107 108 115 117 123 129 143
2730.0 154 167 182 187 191 183 166 163 153 150
2770.0 159 158 166 183 193 208 220 232 247 268
2810.0 283 303 333 361 394 431 471 521 590 700
2850.0 876 1142 1490 1894 2312 2772 3278 3794 4126 4132
2890.0 3766 3244 2829 2675 2771 3006 3335 3751 4262 4889
2930.0 5517 6058 6317 6197 5692 5123 5002 5684 7244 9096
2970.0 10000 9502 7628 5301 3378 2129 1480 1150 997 973
3010.0 1037 1132 1238 1342 1474 1594 1710 1733 1668 1523
3050.0 1363 1245 1179 1214 1383 1574 1681 1648 1469 1219
3090.0 994 805 664 554 471 422 366 321 287 252
3130.0 221 203 196 174 173 166 158 156 155 145
3170.0 144 136 130 129 120 121 113 104 109 102
3210.0 93 89 84 73 65 64 56 59 52 58
3250.0 57 52 47 51 44 47 47 42 51 46
3290.0 61 46 42 49 45 41 51 47 63 52
3330.0 53 73 73 76 80 80 79 75 84 75
3370.0 92 76 86 90 85 96 95 78 87 78
3410.0 79 88 78 67 82 86 83 63 63 54
3450.0 58 61 55 65 59 57 52 61 50 40
3490.0 51 63 46 52 37 39 43 49 57 22
3530.0 34 45 49 48 23 35 46 38 68 37
3570.0 10 66 60 61 79 19 91 44 120 82
3610.0 110 131 122 257 299 512 1022 1639 2799 3691
3650.0 4335 4230 3277 2189 1129 572 220 193 126 118
3690.0 91 47 114 26 51 23 14 52 25 19
3730.0 37 3 17 19 0 9 15 25 6 34
3770.0 18 45 52 22 4 26 23 29 3 32
3810.0 1 72 3 15 8 52 10 30 0 30
3850.0 60 4 69 45 32 20 12 87 10 17
3890.0 59 40 56 44 70 74 75 34 12 41
3930.0 55 42 35 29 55 67 45 39 68 45
##END=
