##TITLE=Benzene, 1,3,5-trichloro-2-methoxy-
##JCAMP-DX=4.24
##DATA TYPE=INFRARED SPECTRUM
##ORIGIN=Sadtler Research Labs Under US-EPA Contract
##OWNER=NIST Standard Reference Data Program
##CAS REGISTRY NO=87-40-1
##MOLFORM=C 7 H 5 Cl 3 O
##XUNITS=1/CM
##YUNITS=ABSORBANCE
##XFACTOR=1.0
##YFACTOR=0.000102969
##DELTAX=4.0
##FIRSTX=450.0
##LASTX=3966.0
##FIRSTY=0.000000
##MAXX=3966
##MINX=450
##MAXY=1.02969
##MINY=0
##NPOINTS=880
##XYDATA=(X++(Y..Y))
450.0 0 338 396 372 159 260 304 277 290 307
490.0 312 194 243 223 186 347 344 313 293 325
530.0 332 247 248 324 259 226 285 405 451 617
570.0 881 910 1118 971 634 575 415 333 304 209
610.0 312 278 304 292 263 239 263 299 280 245
650.0 280 235 265 280 263 390 281 445 711 1299
690.0 2157 2590 2434 1742 844 506 392 325 388 377
730.0 377 403 544 763 1095 1629 1972 1648 1201 681
770.0 440 435 610 908 1332 1865 2376 2759 2964 3163
810.0 3275 3501 3378 2784 1876 1194 966 1177 1757 2742
850.0 3751 4510 4390 3826 2211 1423 774 492 418 296
890.0 333 296 293 273 280 290 302 299 356 351
930.0 370 343 342 313 304 331 321 356 335 338
970.0 367 401 500 685 1016 1553 2438 3601 4670 4996
1010.0 4210 2925 1761 1100 834 717 664 589 509 407
1050.0 368 374 371 417 447 545 619 676 748 627
1090.0 520 419 351 316 315 318 371 354 479 613
1130.0 905 1256 1554 1552 1287 923 604 438 423 361
1170.0 360 356 422 515 653 729 728 703 670 644
1210.0 681 691 732 794 912 1048 1176 1260 1352 1544
1250.0 2028 2984 4289 5343 5540 4611 3057 1772 1133 810
1290.0 684 641 665 675 628 585 516 432 423 416
1330.0 433 439 409 398 414 472 576 764 1068 1457
1370.0 1783 1990 2310 2615 2590 2342 1840 1429 1592 2478
1410.0 4502 7595 9224 9049 6519 3310 1661 1298 1168 1265
1450.0 1509 1909 2709 4340 6785 9763 10000 8388 4940 2294
1490.0 1253 949 752 662 526 459 464 423 403 475
1530.0 594 816 1177 1750 2504 3021 3090 2544 1811 1470
1570.0 1395 1369 1314 1114 874 579 424 362 344 347
1610.0 330 341 300 306 279 272 234 230 221 236
1650.0 191 170 237 217 227 192 176 187 163 141
1690.0 195 209 175 200 255 342 388 456 531 528
1730.0 445 290 269 212 180 153 172 172 171 188
1770.0 164 160 182 176 180 161 153 154 150 162
1810.0 159 156 164 162 152 158 161 187 167 164
1850.0 184 197 194 187 172 149 164 166 164 163
1890.0 153 153 161 165 166 171 167 174 173 194
1930.0 199 207 217 212 238 266 280 290 272 258
1970.0 238 234 238 246 263 271 291 308 313 301
2010.0 280 254 235 219 209 194 187 177 173 176
2050.0 172 167 168 161 161 165 164 171 171 172
2090.0 173 173 174 177 183 187 189 183 176 169
2130.0 158 157 158 159 163 167 172 182 186 196
2170.0 190 185 176 170 162 155 158 158 160 161
2210.0 163 159 170 171 174 172 168 168 162 167
2250.0 166 169 181 192 203 203 198 195 183 179
2290.0 182 179 190 194 195 202 203 208 205 208
2330.0 200 187 202 134 219 161 212 167 189 170
2370.0 178 164 177 185 176 172 169 167 169 170
2410.0 172 174 171 173 170 173 171 168 171 172
2450.0 176 177 184 183 182 186 184 184 185 180
2490.0 188 189 189 192 195 205 210 218 221 222
2530.0 219 210 201 190 180 181 176 177 176 176
2570.0 176 180 179 176 182 184 189 192 194 191
2610.0 196 193 191 190 188 189 183 186 188 188
2650.0 190 186 185 184 186 188 185 191 194 191
2690.0 191 185 186 190 185 187 189 188 191 195
2730.0 195 197 200 196 195 198 200 199 206 214
2770.0 219 224 232 234 240 238 233 233 242 253
2810.0 279 309 353 418 490 549 561 526 500 503
2850.0 526 548 564 576 590 590 564 536 524 538
2890.0 579 631 661 664 623 584 554 556 589 652
2930.0 760 892 1043 1220 1431 1667 1783 1628 1354 1112
2970.0 977 900 834 744 649 585 558 552 575 631
3010.0 728 826 874 840 740 630 553 506 466 443
3050.0 420 402 385 375 369 368 366 364 370 365
3090.0 359 334 307 288 271 266 260 259 256 246
3130.0 239 238 231 221 212 207 198 195 189 188
3170.0 191 183 184 188 184 187 186 186 189 184
3210.0 187 179 183 179 176 176 177 179 175 179
3250.0 182 189 191 186 189 188 183 180 185 174
3290.0 173 182 181 183 181 187 186 185 190 187
3330.0 195 182 181 184 185 176 181 182 185 184
3370.0 186 191 185 194 192 191 182 184 193 182
3410.0 189 191 179 184 188 185 188 192 186 192
3450.0 196 193 186 185 184 186 187 181 189 180
3490.0 181 198 199 191 195 183 193 182 191 185
3530.0 184 187 190 185 190 186 203 185 202 186
3570.0 199 193 202 184 193 193 185 180 194 193
3610.0 196 200 194 212 186 205 189 203 183 199
3650.0 165 202 163 205 186 162 197 164 208 176
3690.0 199 174 191 190 200 191 184 167 208 181
3730.0 190 198 185 223 138 239 139 218 184 205
3770.0 207 176 200 209 191 210 190 224 206 228
3810.0 199 221 180 186 207 186 187 205 171 236
3850.0 185 204 179 199 227 201 232 197 207 186
3890.0 207 173 225 182 200 204 199 229 239 243
3930.0 197 239 223 211 190 193 205 220 189 190
##END=
