##TITLE=Benzenamine, 2,3-dimethyl-
##JCAMP-DX=4.24
##DATA TYPE=INFRARED SPECTRUM
##ORIGIN=Sadtler Research Labs Under US-EPA Contract
##OWNER=NIST Standard Reference Data Program
##CAS REGISTRY NO=87-59-2
##MOLFORM=C 8 H 11 N
##XUNITS=1/CM
##YUNITS=ABSORBANCE
##XFACTOR=1.0
##YFACTOR=0.000047327
##DELTAX=4.0
##FIRSTX=450.0
##LASTX=3966.0
##FIRSTY=0.000189
##MAXX=3966
##MINX=450
##MAXY=0.47327
##MINY=0
##NPOINTS=880
##XYDATA=(X++(Y..Y))
450.0 4 155 245 282 329 370 344 475 428 487
490.0 270 469 305 213 240 387 419 379 457 393
530.0 554 415 448 190 272 131 81 52 75 178
570.0 205 229 280 451 404 515 523 640 698 794
610.0 818 894 1025 1044 1152 1217 1343 1391 1474 1582
650.0 1639 1662 1614 1639 1529 1541 1350 1408 1434 1526
690.0 1764 2026 2302 2222 3304 3357 2229 1854 1665 1238
730.0 1071 873 1005 1201 1663 2331 3279 4275 5303 6990
770.0 7144 5671 4559 3728 2698 1885 1331 1064 911 807
810.0 745 706 664 540 510 500 483 404 510 458
850.0 445 384 396 448 443 402 437 486 507 549
890.0 541 546 494 389 316 250 214 174 187 192
930.0 167 158 181 189 180 229 217 230 233 272
970.0 320 375 434 518 623 630 614 578 531 453
1010.0 393 348 383 431 480 597 703 761 788 837
1050.0 816 755 680 649 651 726 882 1179 1627 2101
1090.0 2421 2483 2445 2229 1823 1428 1260 1219 1147 994
1130.0 783 589 369 247 176 189 227 264 294 324
1170.0 312 259 212 171 165 166 180 185 188 168
1210.0 145 153 147 152 173 203 220 241 286 363
1250.0 480 607 778 948 1181 1554 2288 3411 4642 5486
1290.0 5911 6035 5505 4217 2912 2045 1379 895 574 398
1330.0 294 242 220 166 153 159 170 161 189 177
1370.0 190 213 266 326 397 395 407 391 318 289
1410.0 325 346 427 489 561 684 878 1120 1438 1913
1450.0 2482 3097 4062 5059 6108 6987 7574 7620 7062 6155
1490.0 5088 4188 3231 2329 1801 1508 1278 1181 1085 978
1530.0 915 921 922 980 1003 1098 1283 1540 1807 2047
1570.0 2416 2812 3295 3892 4582 5361 5987 6385 6257 6115
1610.0 6329 7243 8544 9564 10000 9657 8572 6675 4760 3214
1650.0 2196 1618 1194 906 724 599 491 401 336 342
1690.0 272 258 285 313 314 323 383 414 372 327
1730.0 320 293 241 184 172 170 166 136 140 121
1770.0 114 111 91 108 90 100 128 154 196 214
1810.0 224 228 189 150 106 78 44 36 41 54
1850.0 35 30 41 45 48 83 95 117 173 241
1890.0 331 381 393 386 357 283 189 120 90 61
1930.0 65 69 65 72 77 75 78 61 53 39
1970.0 33 18 18 13 4 13 21 14 15 23
2010.0 19 25 24 23 34 29 17 25 32 26
2050.0 28 39 47 61 61 47 42 26 26 35
2090.0 42 44 49 66 64 53 48 69 57 51
2130.0 50 64 53 50 55 60 51 46 66 61
2170.0 54 53 67 59 53 53 62 48 38 22
2210.0 17 11 10 19 17 20 18 36 44 43
2250.0 52 58 55 52 53 62 69 57 59 74
2290.0 64 55 53 52 29 14 18 18 8 21
2330.0 32 58 64 64 126 61 4 26 82 139
2370.0 161 174 171 139 110 109 95 85 96 100
2410.0 104 107 109 103 111 90 83 88 81 84
2450.0 80 95 86 100 107 125 115 116 127 117
2490.0 116 114 121 110 85 101 109 108 97 94
2530.0 90 87 94 111 110 112 105 123 135 134
2570.0 150 189 188 195 207 225 235 240 226 222
2610.0 196 180 159 156 143 133 133 124 123 149
2650.0 160 142 129 114 100 84 99 117 120 135
2690.0 146 152 161 144 165 166 194 199 218 283
2730.0 317 373 410 458 468 426 398 348 310 273
2770.0 289 286 274 273 273 279 273 278 305 309
2810.0 332 356 399 446 473 557 618 664 748 918
2850.0 1124 1407 1816 2332 2905 3332 3627 3733 3722 3532
2890.0 3295 3174 3098 3155 3315 3547 3773 4131 4512 4885
2930.0 5077 5096 5021 4796 4451 4051 3961 3644 3252 3138
2970.0 3194 3183 3103 2993 2844 2650 2393 2233 2152 2153
3010.0 2294 2482 2866 3373 3947 4373 4622 4773 4693 4235
3050.0 3915 3729 3671 3533 3356 3168 2982 2727 2487 2146
3090.0 1753 1426 1104 813 660 541 423 367 347 334
3130.0 300 289 275 252 258 241 228 201 221 220
3170.0 217 232 211 223 226 225 221 264 238 205
3210.0 236 236 259 180 208 250 250 214 215 203
3250.0 185 153 200 193 120 143 129 168 115 115
3290.0 123 125 119 121 123 80 114 113 86 120
3330.0 161 126 99 112 105 102 154 93 76 152
3370.0 153 152 175 152 266 282 418 667 807 892
3410.0 942 968 864 697 518 384 308 287 235 216
3450.0 120 188 241 253 253 388 617 839 1027 1233
3490.0 1332 1334 1269 1014 730 499 356 328 283 234
3530.0 185 239 149 98 103 136 118 90 80 109
3570.0 121 150 101 68 182 109 96 28 90 37
3610.0 154 50 134 78 62 37 31 62 138 153
3650.0 101 100 137 114 7 96 121 95 38 44
3690.0 103 210 93 154 208 83 2 78 165 68
3730.0 74 126 68 97 151 126 38 77 98 8
3770.0 77 139 115 101 38 33 87 110 32 35
3810.0 113 207 155 98 156 69 47 105 125 163
3850.0 103 201 186 104 114 51 252 94 118 445
3890.0 117 267 247 90 133 119 177 95 144 0
3930.0 167 114 25 142 40 145 147 54 109 177
##END=
