##TITLE=Phenol, 2,6-dichloro-
##JCAMP-DX=4.24
##DATA TYPE=INFRARED SPECTRUM
##ORIGIN=Sadtler Research Labs Under US-EPA Contract
##OWNER=NIST Standard Reference Data Program
##CAS REGISTRY NO=87-65-0
##MOLFORM=C 6 H 4 Cl 2 O
##XUNITS=1/CM
##YUNITS=ABSORBANCE
##XFACTOR=1.0
##YFACTOR=0.000055243
##DELTAX=4.0
##FIRSTX=450.0
##LASTX=3966.0
##FIRSTY=0.000000
##MAXX=3966
##MINX=450
##MAXY=0.55243
##MINY=0
##NPOINTS=880
##XYDATA=(X++(Y..Y))
450.0 0 132 192 374 407 250 355 247 273 319
490.0 278 277 231 185 173 206 186 257 315 492
530.0 803 988 854 941 909 533 377 234 194 148
570.0 185 162 119 214 273 430 641 874 822 904
610.0 840 631 450 289 257 214 233 205 215 198
650.0 238 235 247 264 236 357 347 324 318 374
690.0 464 621 943 1298 1757 2066 2925 2425 1668 1407
730.0 931 667 521 632 1104 1935 2964 4005 6733 6491
770.0 5343 4880 4140 3845 4730 5675 6349 6151 5374 3476
810.0 1792 980 813 855 1043 1486 1432 1259 1333 995
850.0 545 366 210 202 173 182 183 183 212 177
890.0 214 205 234 226 234 231 221 236 232 247
930.0 234 265 259 308 324 340 352 347 375 372
970.0 372 334 325 276 276 283 283 277 277 298
1010.0 290 302 291 310 300 318 352 393 478 587
1050.0 796 1000 1199 1253 1218 1222 1062 892 906 1062
1090.0 1309 1668 2106 2280 2229 2328 2085 1634 1424 1346
1130.0 1462 1595 1894 2319 2622 2917 3404 3733 3911 4577
1170.0 5657 6686 6708 6412 5844 4028 2254 1327 924 805
1210.0 886 1057 1370 1783 2650 3966 5188 5248 5152 5231
1250.0 3770 2867 3008 3456 3717 3817 3598 2825 1905 1086
1290.0 755 668 761 826 1004 1380 2097 3289 4944 5907
1330.0 5321 5664 4620 2469 1269 629 393 274 261 242
1370.0 265 264 290 286 310 322 324 347 303 350
1410.0 359 478 655 1040 1446 2226 3411 4888 6382 7166
1450.0 8037 8585 8493 7873 7770 7725 6654 5832 5055 3951
1490.0 2765 1907 1481 1078 908 658 501 490 421 453
1530.0 354 387 335 393 339 328 486 553 896 1089
1570.0 1756 2163 2522 2767 2500 2081 1479 1070 695 467
1610.0 359 305 272 260 228 252 247 303 286 373
1650.0 408 411 333 279 241 196 226 179 195 220
1690.0 181 164 202 207 180 165 173 202 160 143
1730.0 156 179 167 154 182 179 181 200 227 242
1770.0 285 322 278 286 249 233 190 177 171 147
1810.0 153 167 168 196 250 303 350 364 371 343
1850.0 282 220 198 195 202 224 197 205 212 231
1890.0 255 284 312 307 299 276 252 199 191 166
1930.0 155 154 151 159 150 152 142 139 137 140
1970.0 136 134 136 128 135 137 142 132 134 134
2010.0 137 140 141 147 135 137 135 143 139 142
2050.0 146 143 147 147 158 154 157 152 154 150
2090.0 150 152 151 155 154 154 142 146 131 127
2130.0 127 128 124 120 121 118 119 120 123 116
2170.0 119 121 119 120 118 124 116 121 116 123
2210.0 120 122 125 127 132 140 152 155 165 164
2250.0 157 158 157 159 156 159 163 175 181 192
2290.0 194 206 212 213 213 207 201 183 193 187
2330.0 182 176 181 185 173 173 166 162 173 194
2370.0 189 187 190 187 181 174 175 173 181 187
2410.0 200 199 200 195 186 172 155 150 145 151
2450.0 145 147 147 147 151 159 170 177 188 196
2490.0 214 234 253 275 272 264 241 228 200 181
2530.0 173 175 170 175 174 174 177 174 186 181
2570.0 176 173 160 148 140 138 131 131 127 132
2610.0 129 135 128 129 133 135 137 145 158 162
2650.0 172 166 164 154 139 140 139 141 138 151
2690.0 142 143 142 142 141 148 156 148 150 150
2730.0 149 144 140 135 146 143 142 133 138 139
2770.0 129 135 133 135 139 143 145 150 152 152
2810.0 144 144 141 136 135 130 142 149 140 144
2850.0 142 147 139 137 133 133 131 117 127 125
2890.0 130 139 132 139 148 154 157 151 144 156
2930.0 153 147 136 145 145 135 128 128 133 130
2970.0 135 137 138 132 137 145 137 147 162 173
3010.0 181 193 204 203 217 216 213 213 216 208
3050.0 206 212 220 244 285 360 470 641 772 822
3090.0 778 695 541 366 241 188 165 148 145 141
3130.0 134 139 145 150 156 173 183 177 180 174
3170.0 166 165 157 157 151 151 152 156 159 156
3210.0 161 161 160 153 155 148 152 152 149 143
3250.0 153 153 149 149 152 155 146 181 210 232
3290.0 240 235 212 181 164 155 144 149 145 138
3330.0 138 139 140 137 141 143 137 137 143 138
3370.0 138 147 133 118 120 136 136 132 130 135
3410.0 127 136 121 134 127 139 122 134 123 125
3450.0 129 149 129 119 132 133 149 128 143 127
3490.0 143 153 139 133 120 169 153 173 160 177
3530.0 169 228 237 287 410 686 1348 2877 6009 8962
3570.0 9694 10000 8424 5166 2821 1321 823 473 384 248
3610.0 237 191 182 189 188 169 161 181 148 147
3650.0 116 153 136 152 147 134 124 137 156 155
3690.0 152 130 131 132 124 130 117 134 116 116
3730.0 115 138 115 124 132 114 128 139 142 125
3770.0 137 129 132 149 141 133 142 142 113 142
3810.0 115 138 116 141 138 149 157 173 204 254
3850.0 238 228 244 199 167 165 126 155 134 162
3890.0 122 164 117 154 155 192 190 178 177 167
3930.0 176 122 139 145 116 113 169 150 173 139
##END=
