##TITLE=1,3-Butadiene, 1,1,2,3,4,4-hexachloro-
##JCAMP-DX=4.24
##DATA TYPE=INFRARED SPECTRUM
##ORIGIN=Sadtler Research Labs Under US-EPA Contract
##OWNER=NIST Standard Reference Data Program
##CAS REGISTRY NO=87-68-3
##MOLFORM=C 4 Cl 6
##XUNITS=1/CM
##YUNITS=ABSORBANCE
##XFACTOR=1.0
##YFACTOR=0.000099051
##DELTAX=4.0
##FIRSTX=450.0
##LASTX=3966.0
##FIRSTY=0.000000
##MAXX=3966
##MINX=450
##MAXY=0.99051
##MINY=0
##NPOINTS=880
##XYDATA=(X++(Y..Y))
450.0 0 242 297 193 217 311 195 271 189 266
490.0 193 235 252 236 249 247 274 227 253 238
530.0 265 254 272 255 255 287 408 562 581 530
570.0 392 310 296 297 305 332 302 329 302 269
610.0 261 229 265 254 279 254 280 324 542 1224
650.0 3049 5063 6514 3746 1917 793 599 378 302 281
690.0 260 284 256 257 209 216 199 203 205 203
730.0 214 207 245 255 274 290 339 396 522 679
770.0 807 861 931 1021 1485 2446 3760 4816 5012 4271
810.0 2997 1859 1141 826 758 741 801 1129 2136 4334
850.0 7523 10000 9660 5994 2629 937 553 544 611 659
890.0 655 575 481 401 366 368 415 482 572 718
930.0 966 1353 1801 2184 2314 2040 1549 1116 949 1088
970.0 1626 2864 4970 7193 7709 6126 3506 1611 801 602
1010.0 562 536 451 384 353 358 359 358 343 304
1050.0 258 225 223 210 209 201 202 195 197 201
1090.0 205 217 227 239 235 235 222 218 218 230
1130.0 245 268 305 328 354 392 476 612 838 1128
1170.0 1423 1584 1569 1479 1331 1115 815 515 322 262
1210.0 257 259 269 286 309 328 348 349 328 290
1250.0 254 229 208 207 207 216 213 219 204 194
1290.0 188 185 185 178 192 187 200 195 204 203
1330.0 200 197 190 191 184 193 181 195 196 204
1370.0 199 200 201 190 197 187 199 190 203 198
1410.0 199 199 201 196 183 199 190 201 190 206
1450.0 195 203 214 204 206 186 202 172 188 183
1490.0 197 188 196 210 191 216 199 238 211 297
1530.0 328 430 589 811 1095 1347 1880 2329 2985 3277
1570.0 3022 2371 1418 707 517 404 453 453 596 671
1610.0 745 713 604 444 340 349 362 369 326 279
1650.0 218 209 199 198 197 193 207 186 204 190
1690.0 191 183 187 182 175 181 178 186 171 182
1730.0 182 190 180 181 181 176 181 173 182 176
1770.0 187 179 182 186 188 191 193 196 190 189
1810.0 181 180 177 180 181 177 180 181 184 178
1850.0 181 178 180 178 179 180 176 184 183 187
1890.0 190 192 190 188 191 193 194 198 205 206
1930.0 206 202 199 194 195 191 188 187 186 189
1970.0 188 193 196 198 196 194 190 185 185 179
2010.0 183 180 182 180 179 182 184 183 178 180
2050.0 177 177 177 176 175 177 177 176 177 176
2090.0 179 175 178 179 180 178 176 177 175 178
2130.0 176 179 178 181 179 179 179 176 178 175
2170.0 179 180 178 180 178 177 178 179 176 178
2210.0 178 176 175 178 176 176 177 179 181 180
2250.0 186 184 190 192 194 193 188 185 180 180
2290.0 180 182 180 184 186 189 188 186 194 187
2330.0 194 185 186 189 181 188 202 194 185 172
2370.0 172 172 172 172 172 177 179 183 186 185
2410.0 185 185 185 183 184 181 181 180 180 184
2450.0 184 187 186 187 186 189 186 185 186 184
2490.0 184 181 185 181 184 185 184 184 184 184
2530.0 182 185 180 185 181 182 184 181 183 182
2570.0 183 183 185 184 186 181 184 182 185 180
2610.0 181 182 181 180 181 182 181 182 181 179
2650.0 184 184 181 180 181 181 182 180 180 184
2690.0 184 187 181 182 184 183 186 188 189 192
2730.0 194 195 194 192 197 196 196 196 198 200
2770.0 204 207 205 205 198 197 192 191 189 187
2810.0 184 183 186 183 182 182 183 184 181 185
2850.0 183 185 183 184 184 184 185 184 186 183
2890.0 185 180 185 184 183 181 184 185 184 183
2930.0 184 183 184 188 182 179 181 182 182 182
2970.0 184 185 186 183 185 184 183 185 183 184
3010.0 185 185 179 183 181 184 183 183 187 186
3050.0 183 183 182 183 183 180 185 185 183 180
3090.0 180 181 180 178 179 181 183 184 175 178
3130.0 179 178 182 182 183 186 192 188 190 190
3170.0 188 187 186 180 183 183 181 182 179 179
3210.0 177 180 178 183 179 181 186 183 182 182
3250.0 179 185 182 182 179 184 182 184 185 183
3290.0 182 182 181 182 181 184 188 182 180 182
3330.0 182 179 180 179 183 186 183 190 182 185
3370.0 184 181 182 180 183 183 181 178 179 180
3410.0 185 184 183 185 183 185 182 186 175 176
3450.0 182 179 182 184 186 180 186 186 189 184
3490.0 183 183 183 184 186 186 184 187 185 188
3530.0 181 189 184 186 182 181 184 186 191 191
3570.0 186 180 190 190 188 193 184 185 188 191
3610.0 191 189 191 191 192 187 178 177 187 192
3650.0 192 189 190 193 197 196 194 190 179 193
3690.0 193 185 195 203 191 191 195 186 193 194
3730.0 193 197 193 209 196 190 187 182 194 188
3770.0 196 187 196 195 190 199 195 196 199 198
3810.0 189 192 195 199 189 195 192 205 192 201
3850.0 199 195 189 202 194 201 194 186 205 193
3890.0 197 188 207 191 202 192 198 200 204 196
3930.0 187 196 193 192 211 208 194 195 196 193
##END=
