##TITLE=Phenol, 2-chloro-6-methyl-
##JCAMP-DX=4.24
##DATA TYPE=INFRARED SPECTRUM
##ORIGIN=Sadtler Research Labs Under US-EPA Contract
##OWNER=NIST Standard Reference Data Program
##CAS REGISTRY NO=87-64-9
##MOLFORM=C 7 H 7 Cl O
##XUNITS=1/CM
##YUNITS=ABSORBANCE
##XFACTOR=1.0
##YFACTOR=0.000041071
##DELTAX=4.0
##FIRSTX=450.0
##LASTX=3966.0
##FIRSTY=0.019550
##MAXX=3966
##MINX=450
##MAXY=0.41071
##MINY=0
##NPOINTS=880
##XYDATA=(X++(Y..Y))
450.0 476 265 135 52 189 92 155 103 244 181
490.0 154 104 110 182 114 173 127 220 142 386
530.0 508 667 810 818 771 682 481 188 139 73
570.0 118 137 118 86 73 48 112 169 64 138
610.0 170 263 630 1232 1700 1537 1581 1375 735 232
650.0 216 137 192 216 156 198 165 195 91 285
690.0 228 269 302 377 825 1083 1424 1843 2608 2380
730.0 1825 2005 1723 2029 3081 4560 3388 5626 6508 3815
770.0 2963 2144 1155 541 327 430 388 456 377 418
810.0 490 534 706 926 1322 1462 1578 1698 1890 2502
850.0 3887 5018 5128 5008 4221 2348 960 468 250 213
890.0 189 142 147 143 183 169 178 202 213 229
930.0 236 242 257 275 289 337 385 411 457 476
970.0 505 538 575 623 724 848 917 902 875 791
1010.0 604 454 380 348 389 428 483 491 499 479
1050.0 482 522 638 895 1249 1644 1861 1977 2098 2123
1090.0 2011 2017 1933 1876 1664 1427 1480 1387 1659 2336
1130.0 3156 3761 3948 3803 3169 2478 2102 2343 2620 2925
1170.0 3014 2661 2388 1971 1509 1336 1430 1683 2114 2587
1210.0 3318 4104 5019 6179 6673 7131 8890 9233 7642 7985
1250.0 7718 5646 4176 3467 3037 2502 2251 2411 2484 2480
1290.0 2408 2041 1423 1119 1116 1281 1613 2117 2940 4062
1330.0 4721 4542 4340 3663 2263 1193 656 398 307 261
1370.0 296 360 496 587 564 598 562 403 311 263
1410.0 281 365 493 876 1512 2480 3406 4181 5015 5524
1450.0 5728 6043 6714 7433 7928 7896 7935 7658 6368 5631
1490.0 4980 3814 2844 2260 1810 1441 1201 994 815 671
1530.0 545 476 429 409 415 404 387 386 417 473
1570.0 578 721 945 1164 1358 1573 1825 2113 2311 2324
1610.0 2165 1869 1298 826 532 385 324 318 346 344
1650.0 314 286 253 167 133 125 104 110 86 84
1690.0 72 91 71 86 106 98 92 81 90 87
1730.0 77 56 66 63 69 89 104 120 154 189
1770.0 217 218 200 192 138 108 81 56 64 61
1810.0 49 51 60 86 123 176 234 244 234 214
1850.0 146 102 83 78 86 79 93 108 106 130
1890.0 166 206 248 250 253 232 183 141 111 109
1930.0 92 76 67 55 45 46 41 38 38 48
1970.0 36 29 40 39 37 37 52 46 39 45
2010.0 52 45 44 45 47 42 42 43 43 40
2050.0 46 42 43 53 74 68 71 62 73 64
2090.0 67 64 71 61 63 56 54 57 52 53
2130.0 54 61 54 55 49 47 41 40 40 32
2170.0 31 39 43 41 36 36 42 39 51 45
2210.0 36 43 40 55 55 65 66 79 87 84
2250.0 86 84 75 76 74 76 80 83 80 84
2290.0 78 86 95 100 92 101 107 100 95 79
2330.0 83 91 108 83 81 67 61 73 118 91
2370.0 96 103 89 74 70 68 64 79 87 89
2410.0 94 114 119 131 126 126 117 110 105 99
2450.0 104 110 114 114 111 111 105 98 103 94
2490.0 100 104 99 101 114 122 135 145 139 131
2530.0 132 122 104 84 81 69 76 81 73 75
2570.0 68 62 56 59 46 47 53 60 71 70
2610.0 70 69 70 72 64 70 72 70 80 87
2650.0 92 103 114 112 110 96 67 48 42 33
2690.0 33 35 35 46 56 55 54 63 77 75
2730.0 88 80 85 93 129 141 130 135 104 69
2770.0 55 54 40 47 46 50 50 41 63 62
2810.0 85 76 91 112 124 127 127 149 178 217
2850.0 275 365 490 626 725 807 846 831 752 705
2890.0 692 649 635 646 678 725 823 975 1229 1534
2930.0 1825 2060 2159 2046 1827 1573 1358 1157 1176 1245
2970.0 1217 1142 1155 1187 1176 1118 1027 879 698 542
3010.0 485 511 580 735 976 1260 1514 1703 1781 1767
3050.0 1572 1391 1264 1241 1273 1380 1489 1591 1629 1552
3090.0 1393 1164 910 700 497 365 261 194 139 120
3130.0 122 112 97 94 90 98 98 107 92 84
3170.0 94 67 55 67 65 76 73 80 89 71
3210.0 53 59 46 58 67 61 81 65 70 55
3250.0 85 64 110 105 85 97 60 54 73 62
3290.0 59 48 64 35 57 52 54 53 101 108
3330.0 70 93 103 91 115 88 99 92 72 95
3370.0 64 36 94 86 80 92 73 74 64 63
3410.0 46 64 78 81 78 50 67 71 103 69
3450.0 106 108 68 85 81 109 63 76 100 120
3490.0 121 129 78 123 92 133 100 98 123 159
3530.0 132 198 169 195 247 276 561 1107 2949 6327
3570.0 9004 9989 10000 8462 5223 2472 1095 555 354 192
3610.0 224 178 147 140 223 248 399 565 823 1138
3650.0 1268 1228 1185 1150 912 475 317 193 103 102
3690.0 18 38 47 46 20 9 8 13 14 8
3730.0 5 28 8 6 17 29 8 8 8 8
3770.0 9 14 8 8 8 8 8 26 7 8
3810.0 30 8 19 7 7 46 19 48 54 8
3850.0 86 68 68 59 53 8 8 8 8 8
3890.0 6 61 127 5 137 20 0 47 8 70
3930.0 20 211 7 9 32 59 69 65 142 26
##END=
