##TITLE=Benzenamine, 2-chloro-6-methyl-
##JCAMP-DX=4.24
##DATA TYPE=INFRARED SPECTRUM
##ORIGIN=Sadtler Research Labs Under US-EPA Contract
##OWNER=NIST Standard Reference Data Program
##CAS REGISTRY NO=87-63-8
##MOLFORM=C 7 H 8 Cl N
##XUNITS=1/CM
##YUNITS=ABSORBANCE
##XFACTOR=1.0
##YFACTOR=0.000084601
##DELTAX=4.0
##FIRSTX=450.0
##LASTX=3966.0
##FIRSTY=0.037394
##MAXX=3966
##MINX=450
##MAXY=0.84601
##MINY=0
##NPOINTS=880
##XYDATA=(X++(Y..Y))
450.0 442 432 395 355 319 267 218 201 184 175
490.0 183 141 158 164 173 169 210 242 290 233
530.0 222 337 213 177 153 199 215 219 287 286
570.0 387 406 501 601 609 743 794 915 980 1013
610.0 1037 1062 1208 1549 1928 1931 1941 1708 1192 648
650.0 547 560 628 703 791 751 807 865 954 1046
690.0 1172 1301 1436 1628 1946 2241 2550 3114 3361 2830
730.0 2617 2536 2646 3212 4101 4718 5399 8007 4504 3570
770.0 2905 1872 1144 808 691 652 607 579 569 574
810.0 632 791 1100 1476 1768 1937 2019 2080 2115 2097
850.0 2016 1857 1510 1019 620 408 302 259 227 212
890.0 198 194 190 194 172 170 164 161 169 172
930.0 196 217 243 258 280 299 270 290 294 320
970.0 328 349 364 400 475 546 548 590 543 477
1010.0 401 346 334 345 373 397 433 462 478 531
1050.0 628 779 1027 1407 1917 2583 3367 4227 5064 5575
1090.0 5601 5054 4160 3113 2099 1287 768 434 247 146
1130.0 92 81 78 101 121 140 166 174 155 135
1170.0 116 82 55 80 111 149 183 196 207 186
1210.0 156 158 166 174 210 287 429 686 985 1096
1250.0 1122 1190 1011 840 934 1265 1778 2215 2283 2333
1290.0 2251 1796 1463 1343 1229 1073 824 498 206 73
1330.0 34 12 32 23 0 3 4 31 45 61
1370.0 94 157 230 259 280 292 250 188 141 115
1410.0 152 166 326 466 786 1255 2001 2699 3263 3793
1450.0 4265 4626 5314 6532 7878 9227 10000 9676 8831 7266
1490.0 5028 3184 2025 1337 933 720 610 515 489 406
1530.0 419 379 441 426 506 552 650 761 844 1045
1570.0 1255 1506 1649 1840 1915 1906 1820 2011 2437 3215
1610.0 4508 6152 7630 8555 8902 8156 6925 5261 3964 2819
1650.0 1993 1359 1036 763 597 471 471 361 411 322
1690.0 314 316 295 203 230 216 232 222 194 196
1730.0 212 226 192 181 205 188 173 178 197 223
1770.0 278 291 295 298 294 260 191 176 169 139
1810.0 147 170 195 256 318 385 401 375 357 268
1850.0 206 157 152 148 178 184 207 250 311 372
1890.0 403 398 390 349 284 226 205 184 197 181
1930.0 171 171 161 159 143 140 132 145 134 146
1970.0 149 151 147 160 160 168 168 161 154 162
2010.0 156 151 151 154 139 140 144 142 149 148
2050.0 154 146 152 166 161 155 160 160 160 156
2090.0 164 168 164 169 158 157 157 154 157 152
2130.0 152 159 159 165 166 159 158 161 160 164
2170.0 157 156 161 156 162 157 157 154 151 157
2210.0 156 155 165 166 165 167 173 178 173 173
2250.0 167 170 162 170 160 164 164 167 173 179
2290.0 187 196 199 205 209 217 211 204 205 193
2330.0 191 181 183 169 163 166 180 169 142 123
2370.0 125 133 147 154 161 161 167 172 165 167
2410.0 168 166 162 161 172 170 180 183 181 176
2450.0 169 171 170 164 165 165 161 158 158 154
2490.0 162 156 155 138 139 139 139 145 145 153
2530.0 165 171 183 202 221 235 248 245 235 223
2570.0 210 192 182 190 183 180 197 209 223 233
2610.0 258 254 243 230 223 187 176 172 165 174
2650.0 177 172 184 190 181 179 180 180 163 162
2690.0 162 162 161 162 165 169 174 175 198 199
2730.0 223 248 284 301 320 310 280 251 213 196
2770.0 184 184 172 172 167 166 173 185 193 217
2810.0 221 248 252 261 278 286 309 309 341 391
2850.0 499 665 916 1242 1476 1589 1655 1561 1387 1255
2890.0 1168 1150 1168 1211 1276 1433 1637 1874 2095 2207
2930.0 2265 2235 2103 2008 1921 1628 1355 1125 963 872
2970.0 910 1096 1358 1565 1601 1512 1307 969 688 564
3010.0 541 595 762 1021 1329 1528 1623 1576 1351 1109
3050.0 953 932 993 1162 1374 1670 1966 2140 2068 1845
3090.0 1581 1163 813 565 404 330 282 259 234 225
3130.0 233 215 224 213 219 225 233 219 215 214
3170.0 216 213 227 237 225 249 254 259 250 242
3210.0 228 223 211 187 188 194 197 167 171 176
3250.0 172 155 153 152 160 171 177 167 162 179
3290.0 167 167 163 163 177 154 147 165 149 167
3330.0 161 152 170 149 180 171 181 188 187 196
3370.0 212 215 251 276 307 385 545 804 1191 1630
3410.0 1920 2081 2099 1838 1439 1112 809 561 401 317
3450.0 267 256 262 291 305 359 418 502 627 916
3490.0 1320 1839 2298 2542 2635 2480 2154 1829 1477 1193
3530.0 924 616 424 325 279 241 208 211 194 177
3570.0 177 192 180 195 200 173 178 194 173 187
3610.0 168 156 159 167 176 139 180 167 192 182
3650.0 163 169 163 186 191 163 189 154 175 185
3690.0 167 181 213 206 211 205 202 207 198 183
3730.0 193 146 145 164 132 158 135 163 170 148
3770.0 154 166 178 177 187 176 185 185 161 177
3810.0 150 155 153 129 144 134 128 131 166 163
3850.0 154 157 168 167 173 181 186 197 193 194
3890.0 201 174 175 171 170 159 165 175 191 190
3930.0 191 196 201 188 169 165 154 165 159 153
##END=
