##TITLE=Benzene, 1,2,3-trichloro-
##JCAMP-DX=4.24
##DATA TYPE=INFRARED SPECTRUM
##ORIGIN=Sadtler Research Labs Under US-EPA Contract
##OWNER=NIST Standard Reference Data Program
##CAS REGISTRY NO=87-61-6
##MOLFORM=C 6 H 3 Cl 3
##XUNITS=1/CM
##YUNITS=ABSORBANCE
##XFACTOR=1.0
##YFACTOR=0.000068854
##DELTAX=4.0
##FIRSTX=450.0
##LASTX=3966.0
##FIRSTY=0.011430
##MAXX=3966
##MINX=450
##MAXY=0.68854
##MINY=0
##NPOINTS=880
##XYDATA=(X++(Y..Y))
450.0 166 108 25 195 141 131 142 240 308 331
490.0 453 480 482 509 783 993 999 967 843 572
530.0 315 220 87 32 51 42 28 20 40 18
570.0 37 36 46 92 16 34 46 63 58 109
610.0 88 89 91 56 58 12 33 8 35 21
650.0 32 34 38 72 33 117 96 207 303 613
690.0 996 1155 2332 1665 934 958 462 311 278 420
730.0 553 652 773 859 830 888 1265 2169 3545 4525
770.0 7660 9684 7116 9543 10000 9335 8481 6665 4121 2084
810.0 1383 824 532 332 349 321 373 384 330 276
850.0 163 134 29 68 36 60 38 59 71 73
890.0 145 135 159 116 123 57 64 67 75 73
930.0 58 97 59 87 74 105 100 124 170 175
970.0 162 122 115 54 93 122 201 271 375 437
1010.0 404 402 352 345 356 497 585 731 888 1013
1050.0 950 803 686 365 202 123 157 190 252 293
1090.0 268 254 169 110 29 48 34 56 59 105
1130.0 162 243 471 919 1816 3043 4484 4955 4992 4723
1170.0 3005 1660 962 1136 2104 3199 3523 3410 2685 1333
1210.0 433 258 241 224 218 189 196 234 342 420
1250.0 447 414 312 182 97 135 141 166 165 164
1290.0 157 135 133 84 76 38 44 25 39 20
1330.0 19 38 39 63 37 94 81 126 141 138
1370.0 141 157 261 380 751 1194 1843 2736 4031 5434
1410.0 6607 6787 6442 6269 6714 8005 9026 8755 7400 4275
1450.0 1467 832 595 402 319 333 491 605 678 702
1490.0 637 460 316 203 184 195 128 189 102 209
1530.0 178 271 356 530 780 1092 2263 3348 4813 5165
1570.0 4052 2542 1062 266 236 83 171 23 138 53
1610.0 64 38 59 53 21 86 70 137 93 210
1650.0 244 321 390 358 339 250 210 84 114 76
1690.0 71 45 83 86 64 61 66 106 57 70
1730.0 80 105 63 62 67 53 81 79 128 151
1770.0 221 246 231 219 177 132 84 64 36 35
1810.0 29 39 27 43 59 79 100 145 216 277
1850.0 286 258 203 138 83 70 33 42 37 47
1890.0 46 57 63 81 125 179 241 294 345 308
1930.0 276 221 158 120 99 90 76 63 46 42
1970.0 29 30 35 32 31 31 31 19 25 21
2010.0 20 13 23 22 15 22 22 24 16 23
2050.0 16 20 15 16 18 15 24 18 27 23
2090.0 26 17 21 16 16 17 14 23 19 27
2130.0 25 32 29 37 39 36 36 31 27 23
2170.0 23 20 22 23 27 23 26 35 30 35
2210.0 28 31 23 21 27 21 22 20 24 22
2250.0 26 23 21 15 19 27 29 45 48 57
2290.0 58 68 71 73 82 88 78 57 66 39
2330.0 23 21 26 39 29 45 27 38 3 0
2370.0 0 2 11 19 21 22 23 17 20 21
2410.0 26 22 27 24 28 33 35 40 41 42
2450.0 40 41 31 33 35 39 43 47 53 54
2490.0 69 74 86 86 78 70 57 43 30 27
2530.0 25 23 17 21 22 22 22 21 24 22
2570.0 29 29 30 31 31 31 32 34 36 37
2610.0 33 33 31 36 37 39 40 42 43 46
2650.0 48 47 41 31 32 29 25 23 21 20
2690.0 17 18 18 18 22 24 27 28 24 22
2730.0 25 14 20 18 18 16 14 16 20 18
2770.0 16 14 12 10 14 21 18 15 19 23
2810.0 26 19 16 16 12 10 16 15 3 5
2850.0 4 6 3 7 2 8 11 0 5 7
2890.0 9 20 17 22 22 17 22 19 16 19
2930.0 18 22 17 20 21 23 17 25 23 26
2970.0 37 46 57 65 68 64 57 45 35 26
3010.0 30 34 26 31 22 29 30 39 47 60
3050.0 92 147 241 352 492 574 648 640 532 430
3090.0 292 177 100 71 69 70 80 101 104 112
3130.0 124 122 105 72 42 39 30 21 25 25
3170.0 25 25 21 27 19 28 24 20 19 20
3210.0 20 19 24 25 27 25 22 24 22 22
3250.0 20 18 25 20 17 20 17 23 21 30
3290.0 24 24 22 18 31 22 21 20 27 23
3330.0 21 19 22 26 19 22 24 21 25 21
3370.0 34 22 21 16 20 25 21 18 21 27
3410.0 26 28 25 25 25 22 18 24 14 25
3450.0 24 26 33 25 21 29 25 29 25 30
3490.0 16 23 27 22 23 21 26 20 18 23
3530.0 31 13 17 17 23 22 35 26 17 48
3570.0 30 37 20 33 43 33 45 13 32 28
3610.0 43 24 37 41 33 36 18 26 27 20
3650.0 48 31 39 22 25 41 30 54 13 38
3690.0 24 26 30 32 23 28 51 32 35 34
3730.0 51 47 41 51 64 44 55 25 17 25
3770.0 35 30 27 46 48 40 57 68 80 64
3810.0 68 66 52 57 33 38 39 69 28 42
3850.0 47 68 58 57 65 57 63 46 56 28
3890.0 52 16 29 53 38 22 28 55 44 53
3930.0 36 14 24 34 21 22 38 30 25 35
##END=
