##TITLE=Benzenamine, 3-chloro-2-methyl-
##JCAMP-DX=4.24
##DATA TYPE=INFRARED SPECTRUM
##ORIGIN=Sadtler Research Labs Under US-EPA Contract
##OWNER=NIST Standard Reference Data Program
##CAS REGISTRY NO=87-60-5
##MOLFORM=C 7 H 8 Cl N
##XUNITS=1/CM
##YUNITS=ABSORBANCE
##XFACTOR=1.0
##YFACTOR=0.000087579
##DELTAX=4.0
##FIRSTX=450.0
##LASTX=3966.0
##FIRSTY=0.011210
##MAXX=3966
##MINX=450
##MAXY=0.87579
##MINY=0
##NPOINTS=880
##XYDATA=(X++(Y..Y))
450.0 128 118 229 178 290 268 289 272 263 288
490.0 285 403 365 460 415 437 449 463 446 372
530.0 390 267 250 177 221 187 209 212 159 238
570.0 204 250 267 354 337 381 371 389 416 405
610.0 477 445 611 795 957 1079 1194 1219 1107 1031
650.0 996 1004 976 1016 1009 1078 1103 1200 1368 1604
690.0 2036 2125 2743 3259 2253 1778 1559 1117 885 734
730.0 721 719 727 838 999 1414 1998 2847 3632 4845
770.0 5776 4575 3528 2755 1948 1389 1134 1023 935 856
810.0 704 537 445 395 362 364 356 371 411 510
850.0 696 978 1458 1941 2238 2201 1952 1413 799 385
890.0 219 140 99 83 52 36 18 6 1 5
930.0 25 48 80 114 161 212 242 278 336 390
970.0 491 613 778 990 1195 1445 1728 2113 2577 3090
1010.0 3456 3542 3410 2987 2388 1862 1558 1354 1249 1176
1050.0 1100 996 836 653 505 424 378 374 397 496
1090.0 711 1044 1342 1389 1394 1266 926 617 448 347
1130.0 298 268 253 264 282 297 293 289 257 217
1170.0 191 177 183 200 227 265 320 406 565 770
1210.0 867 839 853 724 478 337 268 264 270 313
1250.0 368 450 544 647 807 1063 1559 2346 3452 4245
1290.0 4425 4437 3942 2720 1595 896 562 452 412 414
1330.0 392 384 341 329 327 341 366 357 366 357
1370.0 352 339 405 441 446 474 444 386 355 374
1410.0 376 452 490 686 877 1319 1914 2607 3556 4523
1450.0 5584 6118 6607 6850 6718 6600 5737 5056 4318 3139
1490.0 1963 1280 1062 955 981 1031 1036 1046 949 972
1530.0 857 912 932 1063 1195 1379 1673 1794 2205 2517
1570.0 3327 4036 4827 5489 5424 5255 4504 3986 3890 4186
1610.0 4783 5806 7474 8641 10000 8787 8235 5607 4028 2400
1650.0 1668 1323 913 867 698 679 529 556 459 428
1690.0 386 378 343 299 342 345 395 384 442 428
1730.0 403 354 299 255 196 189 162 158 140 144
1770.0 119 106 120 107 118 116 136 153 195 241
1810.0 259 256 241 206 152 130 119 120 112 104
1850.0 110 110 106 104 106 98 128 142 181 230
1890.0 297 353 380 375 351 295 226 173 129 114
1930.0 94 82 75 66 71 66 71 67 71 65
1970.0 68 68 70 72 69 68 67 74 67 66
2010.0 67 67 63 62 68 67 66 62 63 67
2050.0 72 73 79 85 89 96 98 106 103 102
2090.0 97 94 85 76 70 65 59 56 57 55
2130.0 60 62 72 79 88 97 97 95 85 78
2170.0 63 54 47 45 40 38 42 41 43 44
2210.0 46 43 43 40 35 34 33 33 32 37
2250.0 41 44 49 54 50 50 46 41 38 37
2290.0 33 36 38 43 49 61 66 77 78 79
2330.0 75 76 70 73 72 54 52 42 58 43
2370.0 43 32 38 34 40 40 39 43 39 33
2410.0 29 30 25 27 27 26 32 29 32 34
2450.0 41 41 39 34 36 36 38 44 52 58
2490.0 66 69 68 64 47 36 27 12 5 1
2530.0 4 1 5 6 7 10 18 27 35 53
2570.0 70 91 106 120 121 115 101 81 64 47
2610.0 42 36 34 34 37 38 37 39 33 33
2650.0 33 31 35 40 42 46 53 49 45 41
2690.0 35 30 26 27 26 27 28 39 44 57
2730.0 67 82 98 113 125 132 136 127 110 89
2770.0 77 64 54 50 52 50 53 59 61 64
2810.0 68 76 87 97 114 126 143 158 183 214
2850.0 267 336 439 559 679 784 873 918 933 919
2890.0 889 856 819 812 832 928 1068 1240 1419 1573
2930.0 1654 1653 1581 1444 1264 1067 881 717 594 495
2970.0 425 385 353 333 322 330 340 365 411 488
3010.0 582 708 882 1084 1279 1412 1474 1432 1303 1138
3050.0 1007 929 959 1091 1316 1537 1630 1625 1495 1215
3090.0 889 619 457 329 221 149 107 94 76 66
3130.0 59 57 57 51 46 47 50 50 50 52
3170.0 48 50 47 54 62 70 76 77 85 88
3210.0 93 92 89 81 74 74 72 61 58 59
3250.0 51 51 43 28 28 30 18 12 9 14
3290.0 14 22 12 13 12 7 5 4 4 4
3330.0 8 3 9 10 8 12 17 17 21 25
3370.0 32 34 38 59 69 105 155 257 430 690
3410.0 969 1152 1208 1144 938 647 408 256 165 118
3450.0 101 91 86 89 99 126 168 247 364 566
3490.0 820 1064 1220 1259 1169 965 705 487 328 214
3530.0 157 114 90 74 58 46 33 36 33 14
3570.0 27 21 20 11 16 15 8 7 9 9
3610.0 7 7 7 13 4 4 22 7 14 8
3650.0 19 20 12 26 16 17 17 11 28 18
3690.0 22 8 15 22 17 13 23 11 18 12
3730.0 22 10 22 5 34 14 33 23 14 12
3770.0 10 20 8 6 8 8 3 1 0 23
3810.0 10 6 11 5 28 24 19 28 17 12
3850.0 42 18 36 45 39 53 60 59 30 63
3890.0 29 39 20 26 29 28 10 28 35 28
3930.0 18 27 32 40 34 31 31 36 34 23
##END=
