##TITLE=Benzene, hexamethyl-
##JCAMP-DX=4.24
##DATA TYPE=INFRARED SPECTRUM
##ORIGIN=Sadtler Research Labs Under US-EPA Contract
##OWNER=NIST Standard Reference Data Program
##CAS REGISTRY NO=87-85-4
##MOLFORM=C 12 H 18
##XUNITS=1/CM
##YUNITS=ABSORBANCE
##XFACTOR=1.0
##YFACTOR=0.000039780
##DELTAX=4.0
##FIRSTX=450.0
##LASTX=3966.0
##FIRSTY=0.007240
##MAXX=3966
##MINX=450
##MAXY=0.3978
##MINY=0
##NPOINTS=880
##XYDATA=(X++(Y..Y))
450.0 182 245 67 101 9 227 132 251 18 119
490.0 165 26 161 135 262 115 173 105 130 156
530.0 194 203 106 201 92 168 178 163 117 138
570.0 153 69 27 95 149 131 86 73 123 78
610.0 88 110 94 104 114 118 118 172 119 105
650.0 78 79 69 59 60 70 107 33 79 55
690.0 95 101 76 99 102 105 89 81 78 57
730.0 64 56 51 29 35 30 53 52 65 72
770.0 78 114 187 295 413 466 458 429 341 280
810.0 240 191 175 189 142 116 125 120 108 107
850.0 118 118 122 124 122 129 143 122 122 134
890.0 124 120 128 129 144 135 173 176 206 203
930.0 206 200 178 148 161 161 154 164 165 194
970.0 190 216 229 255 297 298 328 332 354 369
1010.0 395 421 451 508 562 626 696 802 926 1125
1050.0 1395 1719 2031 2247 2277 2094 1786 1426 1113 848
1090.0 663 540 444 378 325 297 278 251 233 220
1130.0 209 195 198 192 186 166 169 163 166 166
1170.0 166 167 166 167 168 169 161 163 163 164
1210.0 168 159 155 152 155 154 155 158 163 176
1250.0 176 173 170 179 186 195 188 205 218 235
1290.0 262 273 282 280 284 280 286 293 292 300
1330.0 310 321 353 371 362 384 400 427 460 486
1370.0 523 604 719 851 988 1075 1123 1103 1112 1199
1410.0 1353 1556 1793 2022 2207 2347 2468 2502 2508 2448
1450.0 2413 2327 2269 2181 2101 2055 1983 1936 1864 1828
1490.0 1753 1705 1626 1545 1511 1441 1343 1259 1195 1090
1530.0 1030 968 930 833 823 772 726 675 636 604
1570.0 589 560 552 513 508 483 470 444 436 419
1610.0 390 390 353 359 316 321 274 276 253 268
1650.0 233 256 222 220 203 186 168 172 144 151
1690.0 133 144 135 201 201 222 211 184 122 105
1730.0 103 100 111 110 125 143 140 148 149 143
1770.0 140 134 123 144 126 146 115 115 95 70
1810.0 59 62 49 42 50 34 51 27 49 36
1850.0 45 38 36 33 35 40 26 36 25 29
1890.0 25 30 29 25 26 21 30 26 43 31
1930.0 31 34 43 55 49 55 51 62 49 52
1970.0 48 37 37 41 37 37 42 36 37 32
2010.0 37 31 32 34 26 34 24 28 21 25
2050.0 22 28 24 28 32 29 33 30 42 39
2090.0 40 32 30 26 16 23 15 18 21 11
2130.0 10 12 16 16 28 27 31 27 26 21
2170.0 31 26 22 23 20 21 21 18 23 19
2210.0 14 15 19 17 15 11 14 12 11 6
2250.0 9 7 13 5 0 9 7 10 12 9
2290.0 15 19 20 17 31 26 21 18 16 14
2330.0 28 25 30 49 44 31 44 31 45 58
2370.0 44 54 69 67 66 57 60 61 59 58
2410.0 65 62 60 65 69 71 79 86 88 86
2450.0 91 88 85 84 91 84 88 87 79 80
2490.0 83 79 84 76 71 75 76 70 63 63
2530.0 58 58 54 57 53 58 52 52 57 49
2570.0 48 42 44 49 52 54 58 61 59 57
2610.0 58 66 66 66 70 62 65 59 56 66
2650.0 60 67 66 67 73 83 91 100 108 110
2690.0 111 121 126 131 138 163 189 224 270 346
2730.0 422 480 520 505 470 418 386 380 375 386
2770.0 399 410 433 449 455 466 479 503 534 575
2810.0 628 679 746 824 926 1027 1158 1314 1501 1757
2850.0 2066 2475 3000 3629 4366 5164 5934 6557 7003 7155
2890.0 7199 7139 7095 7116 7211 7395 7623 8001 8404 8877
2930.0 9322 9747 10000 9961 9717 9198 8522 7700 6929 6177
2970.0 5581 5076 4723 4451 4276 4165 4118 4142 4176 4246
3010.0 4294 4367 4411 4406 4354 4247 4102 3899 3664 3399
3050.0 3135 2852 2611 2355 2126 1916 1698 1526 1363 1226
3090.0 1092 994 894 819 731 675 623 560 525 481
3130.0 442 394 370 334 298 267 247 228 210 195
3170.0 182 171 151 142 130 127 113 107 95 92
3210.0 94 83 85 67 76 68 67 59 58 56
3250.0 59 56 54 60 44 54 60 52 57 43
3290.0 61 55 58 51 55 56 60 51 60 64
3330.0 49 55 59 57 60 68 52 57 51 53
3370.0 63 62 63 73 93 83 84 82 77 86
3410.0 78 85 78 62 86 76 77 84 76 71
3450.0 59 84 81 79 89 74 80 83 87 80
3490.0 78 71 78 90 83 75 77 81 70 90
3530.0 76 74 87 75 72 57 74 68 89 55
3570.0 89 64 89 91 66 80 50 77 66 65
3610.0 51 64 58 52 65 32 66 54 56 64
3650.0 27 57 63 53 54 4 27 15 61 41
3690.0 26 34 74 53 51 22 30 42 14 37
3730.0 38 33 27 34 16 55 35 35 23 37
3770.0 32 12 26 34 58 41 45 8 30 18
3810.0 68 5 5 1 40 54 24 19 51 35
3850.0 75 41 75 46 65 33 51 65 70 76
3890.0 78 69 78 46 85 73 76 36 73 90
3930.0 52 108 81 54 93 94 66 55 67 76
##END=
