##TITLE=Tartaric acid, diethyl ester
##JCAMP-DX=4.24
##DATA TYPE=INFRARED SPECTRUM
##ORIGIN=Sadtler Research Labs Under US-EPA Contract
##OWNER=NIST Standard Reference Data Program
##CAS REGISTRY NO=87-91-2
##MOLFORM=C 8 H 14 O 6
##XUNITS=1/CM
##YUNITS=ABSORBANCE
##XFACTOR=1.0
##YFACTOR=0.000102075
##DELTAX=4.0
##FIRSTX=450.0
##LASTX=3966.0
##FIRSTY=0.039401
##MAXX=3966
##MINX=450
##MAXY=1.02075
##MINY=0
##NPOINTS=880
##XYDATA=(X++(Y..Y))
450.0 386 283 177 197 187 180 190 167 162 122
490.0 151 153 137 137 117 102 108 120 109 103
530.0 94 76 83 88 85 115 114 104 101 111
570.0 138 168 182 220 248 350 439 498 514 526
610.0 491 448 364 314 272 235 215 195 194 177
650.0 186 191 200 207 196 222 216 211 218 217
690.0 232 240 250 249 263 277 275 252 206 175
730.0 140 103 95 82 85 68 79 64 70 80
770.0 94 103 105 104 75 58 30 3 10 20
810.0 41 50 67 80 89 92 110 115 140 177
850.0 229 304 417 554 666 658 527 362 271 233
890.0 200 180 158 149 152 171 197 233 243 238
930.0 228 219 208 195 190 175 160 154 159 174
970.0 188 196 203 205 216 248 287 358 458 614
1010.0 844 1159 1515 1813 1925 1870 1709 1517 1313 1117
1050.0 997 955 990 1083 1242 1471 1801 2224 2723 3244
1090.0 3778 4297 4624 4530 4018 3478 3196 3245 3453 3591
1130.0 3476 3049 2480 1945 1559 1341 1244 1234 1286 1391
1170.0 1544 1743 1994 2340 2819 3463 4166 4715 4951 4936
1210.0 4888 4979 5167 5416 5664 5879 6127 6424 6832 7303
1250.0 7894 8369 8300 7398 6059 4828 3959 3434 3103 2884
1290.0 2696 2556 2442 2331 2163 1915 1608 1325 1092 915
1330.0 787 689 637 581 536 517 522 578 726 970
1370.0 1191 1267 1162 1007 931 891 875 853 813 773
1410.0 738 680 655 580 531 482 469 456 456 480
1450.0 512 527 540 530 567 628 676 637 526 423
1490.0 339 252 222 191 190 190 159 157 162 139
1530.0 133 124 130 142 134 111 114 134 115 101
1570.0 105 101 100 101 91 99 94 100 92 98
1610.0 96 95 107 98 113 100 120 120 111 111
1650.0 132 129 122 118 128 139 159 158 194 222
1690.0 233 257 315 367 418 487 591 721 839 994
1730.0 1242 1586 2090 2876 4171 5957 8184 9916 10000 8113
1770.0 5553 3378 2023 1327 974 765 615 485 392 312
1810.0 271 250 221 213 199 190 167 150 143 136
1850.0 114 99 95 89 92 95 87 87 90 94
1890.0 95 94 84 80 68 65 60 54 54 45
1930.0 37 37 37 39 39 36 35 34 31 32
1970.0 30 29 24 24 22 28 26 25 22 26
2010.0 22 22 24 23 20 21 21 22 24 26
2050.0 25 26 27 32 33 34 36 37 39 41
2090.0 42 39 38 37 35 30 34 28 29 28
2130.0 25 23 24 21 21 20 16 17 18 17
2170.0 17 16 17 19 19 19 20 21 21 20
2210.0 21 17 20 18 16 14 13 13 10 8
2250.0 8 6 7 8 6 5 3 4 2 2
2290.0 5 3 3 6 6 8 8 8 6 7
2330.0 6 6 7 8 17 17 5 7 0 4
2370.0 15 16 27 23 20 17 19 18 19 20
2410.0 19 15 13 16 14 13 13 9 10 14
2450.0 14 11 10 10 12 10 12 10 12 10
2490.0 11 12 10 12 11 12 11 12 12 10
2530.0 6 4 7 5 8 7 3 2 3 2
2570.0 6 6 4 5 3 5 4 5 4 4
2610.0 4 4 6 4 7 9 7 6 3 2
2650.0 1 2 1 3 2 2 3 5 5 5
2690.0 4 0 2 0 1 1 1 2 2 11
2730.0 9 10 12 10 13 12 15 12 15 22
2770.0 25 26 28 26 30 32 32 31 30 31
2810.0 39 42 47 54 60 66 71 72 77 81
2850.0 85 88 99 108 122 138 164 210 267 320
2890.0 346 345 342 365 409 476 550 618 661 707
2930.0 769 839 923 1023 1084 1029 887 741 678 711
2970.0 811 958 1149 1512 1949 2151 1948 1536 1234 1059
3010.0 888 718 568 443 337 261 206 166 134 110
3050.0 97 80 70 62 58 52 42 37 32 32
3090.0 30 25 24 25 25 21 18 23 19 23
3130.0 22 22 21 21 23 19 21 18 20 18
3170.0 17 17 16 19 20 20 17 17 18 18
3210.0 20 17 16 11 14 12 14 11 8 9
3250.0 10 10 5 4 5 6 6 4 7 6
3290.0 8 2 3 3 6 6 10 8 8 11
3330.0 7 11 13 11 14 12 12 10 12 13
3370.0 14 18 16 14 16 13 15 18 17 21
3410.0 19 18 21 16 17 19 15 20 21 20
3450.0 24 26 29 34 43 47 52 56 71 86
3490.0 106 120 136 143 158 163 178 195 232 279
3530.0 331 406 504 632 827 1099 1459 1813 1976 1862
3570.0 1554 1212 932 732 586 473 391 329 285 272
3610.0 295 363 453 485 422 308 215 158 114 91
3650.0 68 56 53 39 24 17 15 7 8 14
3690.0 0 7 7 11 6 0 0 0 5 5
3730.0 1 1 2 0 0 0 0 6 7 8
3770.0 4 0 0 2 2 9 11 4 3 7
3810.0 12 17 5 10 15 12 9 3 8 8
3850.0 9 1 3 8 6 0 0 5 6 8
3890.0 7 1 10 12 8 10 2 0 8 0
3930.0 0 0 0 0 0 0 0 0 0 0
##END=
