##TITLE=Dibutyl tartrate
##JCAMP-DX=4.24
##DATA TYPE=INFRARED SPECTRUM
##ORIGIN=Sadtler Research Labs Under US-EPA Contract
##OWNER=NIST Standard Reference Data Program
##CAS REGISTRY NO=87-92-3
##MOLFORM=C 12 H 22 O 6
##XUNITS=1/CM
##YUNITS=ABSORBANCE
##XFACTOR=1.0
##YFACTOR=0.000087827
##DELTAX=4.0
##FIRSTX=450.0
##LASTX=3966.0
##FIRSTY=0.000000
##MAXX=3966
##MINX=450
##MAXY=0.87827
##MINY=0
##NPOINTS=880
##XYDATA=(X++(Y..Y))
450.0 0 655 841 731 566 601 392 948 710 509
490.0 573 422 463 633 452 473 420 656 765 364
530.0 680 358 504 568 670 669 537 593 705 695
570.0 552 575 515 673 687 688 807 837 863 763
610.0 805 713 666 647 648 678 603 541 577 489
650.0 543 545 504 575 472 518 589 570 602 542
690.0 576 534 698 709 618 645 530 525 594 563
730.0 568 467 588 881 704 506 590 485 433 377
770.0 462 541 393 435 493 457 490 481 592 435
810.0 377 523 480 377 521 571 526 620 654 599
850.0 631 488 470 426 524 487 510 464 572 572
890.0 469 458 434 519 494 515 528 477 475 505
930.0 682 753 865 1027 1119 1238 1201 1195 1184 1193
970.0 1042 935 824 803 870 927 1003 1091 1185 1227
1010.0 1321 1367 1416 1393 1344 1311 1218 1307 1333 1359
1050.0 1496 1690 1913 2031 2328 2497 2776 3070 3484 3986
1090.0 4380 4597 4461 4036 3602 3349 3452 3687 3927 4040
1130.0 3944 3512 3081 2652 2470 2440 2333 2377 2401 2549
1170.0 2719 2911 3250 3716 4220 4909 5185 5382 5625 5468
1210.0 5471 5479 5543 5661 5963 6007 6142 6479 7046 7219
1250.0 7511 7640 7071 6350 5722 4995 4465 4311 3797 3444
1290.0 3227 2964 2604 2356 2235 1977 1797 1625 1461 1341
1330.0 1222 1092 1050 980 975 958 955 981 975 967
1370.0 1022 1070 1156 1275 1390 1410 1346 1272 1140 1048
1410.0 993 934 920 856 841 809 831 880 924 977
1450.0 1058 1128 1300 1409 1471 1484 1377 1224 1037 882
1490.0 804 717 673 622 597 572 562 523 513 480
1530.0 472 464 435 447 441 413 410 412 409 386
1570.0 399 424 432 435 428 413 405 422 417 464
1610.0 500 488 431 349 374 379 448 466 451 460
1650.0 439 432 435 444 446 416 416 454 497 526
1690.0 539 522 525 549 650 787 1010 1288 1551 1935
1730.0 2336 2854 3670 4594 5881 7401 8908 10000 9112 6949
1770.0 4861 3311 2455 1919 1548 1330 1103 958 858 742
1810.0 697 647 605 587 547 533 509 480 472 457
1850.0 445 418 409 416 402 415 401 394 399 391
1890.0 395 397 388 393 392 390 391 387 390 381
1930.0 379 383 378 385 380 381 386 381 382 383
1970.0 384 383 379 381 381 384 384 382 383 380
2010.0 384 384 383 390 387 389 393 395 403 391
2050.0 390 392 392 399 397 395 393 396 397 394
2090.0 392 394 388 394 392 390 393 390 385 389
2130.0 389 387 387 383 383 386 387 385 388 385
2170.0 392 392 386 391 390 388 392 382 383 383
2210.0 382 381 380 380 375 372 375 375 376 377
2250.0 373 377 377 377 378 382 383 377 387 392
2290.0 394 401 406 412 413 419 414 411 412 407
2330.0 390 403 397 400 419 426 428 415 409 399
2370.0 395 402 409 415 408 393 394 393 397 403
2410.0 395 394 401 394 394 394 395 396 397 390
2450.0 396 394 394 395 395 398 398 396 395 399
2490.0 396 398 397 396 394 395 394 390 389 399
2530.0 395 394 387 389 385 387 393 388 390 389
2570.0 393 398 397 398 400 395 397 392 408 402
2610.0 398 401 406 402 408 411 408 402 409 419
2650.0 413 421 416 427 431 432 437 432 437 436
2690.0 434 441 443 451 448 445 456 452 455 461
2730.0 463 474 483 481 496 500 508 507 501 509
2770.0 501 513 517 518 530 534 548 558 571 584
2810.0 598 620 637 655 696 720 754 790 830 911
2850.0 1007 1104 1211 1309 1417 1586 1813 2032 2214 2341
2890.0 2300 2181 2087 2080 2155 2268 2461 2642 2818 2964
2930.0 3117 3359 3646 3920 4039 3961 3871 3971 4403 5086
2970.0 5529 5396 4657 3646 2780 2232 1874 1579 1332 1135
3010.0 987 878 796 741 700 659 630 618 594 577
3050.0 563 539 535 518 506 497 488 493 488 490
3090.0 476 483 476 481 477 476 462 467 460 454
3130.0 462 456 450 449 451 446 446 454 442 441
3170.0 449 451 447 449 438 447 443 451 434 444
3210.0 447 444 444 447 443 444 452 462 455 458
3250.0 452 441 454 447 457 463 452 458 447 446
3290.0 443 440 438 435 435 439 432 436 428 424
3330.0 434 415 412 411 411 411 404 409 409 402
3370.0 399 394 390 395 388 387 374 383 384 381
3410.0 380 387 382 378 372 382 393 391 382 392
3450.0 399 384 396 398 406 410 409 427 439 451
3490.0 467 475 487 501 501 511 527 551 573 624
3530.0 672 749 857 979 1116 1294 1502 1709 1824 1763
3570.0 1585 1383 1191 1020 899 779 710 660 624 628
3610.0 662 752 833 813 722 613 532 501 462 441
3650.0 415 415 432 424 429 413 402 402 404 402
3690.0 392 375 393 374 367 364 361 377 390 394
3730.0 378 374 395 375 364 378 387 376 376 370
3770.0 389 393 391 387 390 387 389 385 390 397
3810.0 400 382 392 382 391 402 389 399 378 379
3850.0 406 384 385 414 408 401 399 394 401 423
3890.0 423 404 412 405 393 423 435 421 388 380
3930.0 390 424 395 392 374 415 381 397 409 380
##END=
