##TITLE=Phosphoramidic acid, dibutyl ester
##JCAMP-DX=4.24
##DATA TYPE=INFRARED SPECTRUM
##ORIGIN=Sadtler Research Labs Under US-EPA Contract
##OWNER=NIST Standard Reference Data Program
##CAS REGISTRY NO=870-52-0
##MOLFORM=C 8 H 20 N O 3 P
##XUNITS=1/CM
##YUNITS=ABSORBANCE
##XFACTOR=1.0
##YFACTOR=0.000075467
##DELTAX=4.0
##FIRSTX=450.0
##LASTX=3966.0
##FIRSTY=0.058110
##MAXX=3966
##MINX=450
##MAXY=0.75467
##MINY=0
##NPOINTS=880
##XYDATA=(X++(Y..Y))
450.0 770 666 501 1043 960 808 821 589 848 954
490.0 599 609 623 798 747 731 716 738 712 742
530.0 483 775 670 616 898 737 725 608 421 442
570.0 382 228 363 355 125 257 221 58 174 84
610.0 136 236 242 352 163 274 246 190 272 211
650.0 163 152 211 247 230 97 181 161 198 213
690.0 184 269 321 319 397 539 518 543 554 565
730.0 691 719 830 810 605 565 589 580 562 629
770.0 527 660 729 748 810 847 841 914 970 1187
810.0 1478 1530 1561 1414 1319 1177 1237 1126 1153 1172
850.0 1099 1142 920 875 879 879 745 767 822 931
890.0 1133 1275 1444 1575 1843 2036 1987 1952 1924 1926
930.0 2114 1939 1409 1486 1548 1878 2114 2202 2899 3527
970.0 3280 3350 3933 4229 4458 4557 4707 4607 4748 4971
1010.0 5247 5908 6663 7901 9067 9759 10000 9053 8017 7330
1050.0 6511 6318 5901 5778 5700 5236 4807 4067 3532 3061
1090.0 2514 2230 1849 1704 1476 1296 1304 1312 1375 1142
1130.0 1115 1053 1037 1057 898 797 883 882 890 693
1170.0 687 739 751 694 620 675 739 739 722 768
1210.0 840 938 993 1036 1171 1304 1359 1424 1449 1462
1250.0 1444 1414 1426 1498 1669 1744 1725 1716 1681 1642
1290.0 1692 1773 1850 1785 1639 1424 1182 990 777 624
1330.0 493 396 358 316 242 218 201 217 196 209
1370.0 196 256 328 372 477 474 505 440 319 269
1410.0 186 206 179 210 209 232 307 358 375 350
1450.0 440 560 618 679 688 744 651 554 472 409
1490.0 303 256 217 197 190 224 178 152 145 122
1530.0 112 148 99 127 143 99 105 96 154 82
1570.0 68 103 85 107 75 78 123 84 124 118
1610.0 122 159 165 211 230 258 143 146 137 103
1650.0 165 129 156 99 131 119 124 131 132 135
1690.0 123 144 131 180 128 139 138 162 146 142
1730.0 154 168 194 190 168 207 187 194 192 182
1770.0 191 160 153 148 133 143 119 132 109 116
1810.0 94 89 95 64 93 74 63 65 49 88
1850.0 43 41 50 37 62 44 56 35 42 44
1890.0 42 42 42 36 35 34 26 39 31 35
1930.0 19 24 18 23 27 5 14 14 12 13
1970.0 10 4 5 9 11 11 22 3 10 10
2010.0 0 17 6 13 7 15 13 14 14 11
2050.0 15 16 13 17 17 17 20 21 18 19
2090.0 18 22 22 29 27 30 33 31 33 32
2130.0 30 33 39 41 42 39 41 46 43 48
2170.0 50 55 50 50 57 57 58 61 63 59
2210.0 64 65 66 71 73 73 80 85 91 95
2250.0 94 101 102 105 106 107 117 126 138 147
2290.0 156 165 179 187 194 201 190 189 180 180
2330.0 168 173 159 170 182 204 210 193 192 163
2370.0 174 164 177 188 166 135 124 125 118 120
2410.0 119 122 115 113 115 109 106 110 101 94
2450.0 94 90 92 90 91 87 86 87 86 84
2490.0 83 79 87 89 85 86 94 97 99 101
2530.0 101 100 108 114 106 113 115 120 124 130
2570.0 138 133 146 148 151 147 156 160 162 162
2610.0 166 165 174 184 182 189 186 192 191 196
2650.0 201 202 210 215 215 216 221 227 236 231
2690.0 241 239 242 249 248 253 255 260 261 272
2730.0 282 282 295 302 310 320 325 327 327 331
2770.0 333 333 335 335 340 348 349 363 374 386
2810.0 400 409 433 460 486 514 562 607 691 777
2850.0 869 955 1059 1173 1329 1530 1751 1956 2078 2129
2890.0 2110 2072 2079 2147 2253 2376 2491 2573 2638 2695
2930.0 2840 3062 3293 3483 3594 3650 3750 3990 4403 4790
2970.0 4938 4623 3920 3085 2365 1838 1449 1158 960 810
3010.0 707 623 565 517 469 442 424 397 374 357
3050.0 338 325 326 311 301 287 284 274 260 252
3090.0 250 247 228 231 213 214 207 196 196 188
3130.0 182 183 176 169 170 162 165 162 151 147
3170.0 139 154 142 144 137 141 137 145 125 114
3210.0 125 119 130 121 111 103 114 106 109 108
3250.0 96 103 98 102 95 92 95 92 99 87
3290.0 91 92 87 89 86 94 89 81 101 114
3330.0 121 184 134 86 94 81 76 86 80 82
3370.0 91 78 92 91 79 83 93 86 85 79
3410.0 86 89 86 83 74 90 96 95 86 79
3450.0 93 91 94 76 84 94 93 71 86 83
3490.0 93 108 76 85 103 75 108 71 83 84
3530.0 81 71 86 71 93 82 90 61 95 99
3570.0 131 65 83 66 111 87 105 63 85 65
3610.0 100 107 93 90 74 140 101 106 125 146
3650.0 169 260 261 431 518 581 590 440 309 200
3690.0 156 134 91 83 82 86 97 86 86 67
3730.0 94 103 91 92 80 106 55 83 57 77
3770.0 49 72 79 82 75 73 61 97 70 105
3810.0 85 101 73 103 91 77 82 42 55 79
3850.0 67 98 80 56 75 114 71 106 84 102
3890.0 92 87 106 89 104 59 81 116 95 119
3930.0 64 140 100 116 130 78 102 83 127 107
##END=
