##TITLE=1-Decene
##JCAMP-DX=4.24
##DATA TYPE=INFRARED SPECTRUM
##ORIGIN=Sadtler Research Labs Under US-EPA Contract
##OWNER=NIST Standard Reference Data Program
##CAS REGISTRY NO=872-05-9
##MOLFORM=C 10 H 20
##XUNITS=1/CM
##YUNITS=ABSORBANCE
##XFACTOR=1.0
##YFACTOR=0.000148029
##DELTAX=4.0
##FIRSTX=450.0
##LASTX=3966.0
##FIRSTY=0.000000
##MAXX=3966
##MINX=450
##MAXY=1.48029
##MINY=0
##NPOINTS=880
##XYDATA=(X++(Y..Y))
450.0 0 123 167 124 190 148 153 141 85 69
490.0 207 304 154 156 160 193 152 172 158 156
530.0 171 151 169 168 188 169 196 163 170 165
570.0 168 174 168 132 192 198 177 130 188 144
610.0 196 211 224 276 288 302 351 306 261 246
650.0 221 219 191 188 189 188 175 172 193 160
690.0 184 186 203 193 225 235 261 286 259 281
730.0 256 260 245 211 204 221 208 218 201 208
770.0 196 185 196 174 166 152 170 187 161 175
810.0 174 172 169 181 173 186 183 187 201 204
850.0 213 212 223 233 250 256 258 273 308 328
890.0 371 433 543 716 1008 1327 1454 1310 971 691
930.0 525 430 382 351 340 328 320 320 310 320
970.0 321 343 379 443 552 656 669 642 538 457
1010.0 394 351 328 295 284 260 250 236 233 223
1050.0 215 212 205 206 205 207 199 202 197 195
1090.0 194 188 193 189 191 192 194 186 188 189
1130.0 186 187 186 186 180 180 178 179 177 182
1170.0 182 183 185 183 181 176 177 172 174 172
1210.0 171 166 165 169 170 173 173 180 181 183
1250.0 191 191 190 189 192 197 208 212 220 229
1290.0 235 248 257 266 270 262 251 249 239 243
1330.0 247 260 282 308 340 357 358 350 337 324
1370.0 322 324 342 363 356 333 284 259 250 250
1410.0 261 280 294 303 313 332 379 455 560 659
1450.0 744 819 886 924 902 830 696 553 417 323
1490.0 261 219 197 177 175 161 152 150 149 144
1530.0 142 142 147 146 138 137 135 134 131 123
1570.0 124 125 130 122 124 122 127 131 134 144
1610.0 155 169 183 207 233 293 383 533 637 639
1650.0 513 347 237 193 165 148 141 136 129 134
1690.0 128 131 136 142 148 166 182 182 153 132
1730.0 127 132 130 131 135 142 141 134 134 129
1770.0 128 131 126 123 121 120 116 115 116 119
1810.0 123 132 147 178 208 213 200 170 144 125
1850.0 113 107 102 100 98 98 94 91 92 91
1890.0 94 91 95 93 90 92 88 91 89 90
1930.0 89 90 88 90 89 88 87 89 89 90
1970.0 89 95 92 93 90 89 85 83 84 84
2010.0 85 85 83 87 91 91 86 90 89 86
2050.0 84 87 93 91 88 88 88 86 81 83
2090.0 86 87 83 83 80 79 77 77 79 77
2130.0 78 79 77 81 79 78 80 79 79 78
2170.0 78 79 75 75 76 75 74 75 75 75
2210.0 76 74 73 73 72 71 76 75 76 74
2250.0 74 73 74 77 80 79 74 78 80 81
2290.0 80 85 80 85 86 89 92 90 97 94
2330.0 97 84 83 85 75 79 100 94 78 71
2370.0 71 71 71 71 71 71 74 76 76 76
2410.0 76 74 74 73 74 76 74 74 73 75
2450.0 75 74 76 78 78 77 75 78 78 80
2490.0 76 77 74 83 77 82 81 85 81 85
2530.0 81 83 84 84 88 86 86 86 89 83
2570.0 90 99 101 96 96 98 100 99 95 93
2610.0 96 102 99 103 105 107 113 113 114 123
2650.0 132 131 133 138 145 152 150 155 157 164
2690.0 162 156 153 144 145 141 136 137 146 146
2730.0 152 158 156 162 163 162 163 162 161 162
2770.0 170 165 170 185 190 205 222 237 258 279
2810.0 301 325 356 388 432 482 568 682 877 1170
2850.0 1617 2239 2943 3527 3830 3693 3311 2921 2618 2385
2890.0 2195 2051 2082 2305 2673 3207 3920 4897 6281 7918
2930.0 9424 10000 9590 8257 6712 5182 4089 3586 3579 3856
2970.0 3941 3542 2780 2028 1575 1304 1115 997 923 880
3010.0 820 734 625 535 478 427 390 368 346 335
3050.0 327 331 335 364 409 454 524 618 787 901
3090.0 879 729 481 335 263 217 185 161 168 161
3130.0 153 139 138 134 134 129 118 129 127 128
3170.0 119 128 118 116 111 111 118 105 109 101
3210.0 102 103 101 99 92 98 93 100 93 95
3250.0 90 97 97 102 94 84 94 91 87 94
3290.0 94 91 88 81 92 94 89 90 91 89
3330.0 91 85 85 83 85 93 94 95 85 90
3370.0 90 90 101 94 86 92 104 105 100 104
3410.0 110 100 84 96 105 94 90 89 93 85
3450.0 96 100 86 93 97 92 98 95 100 86
3490.0 81 88 83 90 92 92 94 95 90 103
3530.0 91 103 86 84 86 102 89 95 85 80
3570.0 85 95 98 110 99 91 90 89 82 82
3610.0 94 81 101 111 89 96 82 87 102 102
3650.0 96 97 88 91 90 88 100 100 83 85
3690.0 82 84 71 90 74 71 84 93 87 73
3730.0 78 71 87 85 86 98 81 82 82 75
3770.0 92 83 91 78 86 82 88 97 93 71
3810.0 71 71 95 76 71 80 101 83 75 78
3850.0 91 91 102 88 88 87 91 92 78 94
3890.0 79 78 87 104 90 104 103 88 91 113
3930.0 97 94 88 95 94 107 125 109 94 109
##END=
