##TITLE=2-Pyrrolidinone, 1-methyl-
##JCAMP-DX=4.24
##DATA TYPE=INFRARED SPECTRUM
##ORIGIN=Sadtler Research Labs Under US-EPA Contract
##OWNER=NIST Standard Reference Data Program
##CAS REGISTRY NO=872-50-4
##MOLFORM=C 5 H 9 N O
##XUNITS=1/CM
##YUNITS=ABSORBANCE
##XFACTOR=1.0
##YFACTOR=0.000161523
##DELTAX=4.0
##FIRSTX=450.0
##LASTX=3966.0
##FIRSTY=0.000000
##MAXX=3966
##MINX=450
##MAXY=1.61523
##MINY=0
##NPOINTS=880
##XYDATA=(X++(Y..Y))
450.0 0 137 406 341 328 346 261 297 251 221
490.0 108 123 139 90 110 185 102 126 141 136
530.0 107 152 192 176 210 166 228 206 211 168
570.0 181 163 171 170 143 154 154 163 156 189
610.0 191 161 196 204 179 199 229 265 264 282
650.0 319 323 259 252 205 238 143 161 162 167
690.0 175 163 160 144 138 144 140 119 131 144
730.0 143 131 120 91 174 134 118 117 128 137
770.0 142 156 140 144 119 127 118 140 146 147
810.0 149 151 159 170 183 197 220 255 273 272
850.0 276 268 259 240 198 185 179 176 164 169
890.0 175 171 162 163 162 174 184 184 175 165
930.0 176 170 154 144 137 139 146 151 183 218
970.0 285 334 369 391 393 371 348 299 241 203
1010.0 195 197 199 198 192 193 170 157 150 144
1050.0 150 163 170 187 192 205 213 228 251 286
1090.0 345 411 498 571 613 612 615 612 568 483
1130.0 402 334 289 262 242 238 230 238 240 246
1170.0 280 284 256 255 265 267 276 287 304 332
1210.0 364 387 405 419 428 427 443 460 491 538
1250.0 622 738 880 1036 1224 1491 1792 2098 2304 2375
1290.0 2365 2267 2037 1697 1323 1006 765 602 487 406
1330.0 354 298 284 247 210 208 208 222 258 258
1370.0 305 387 480 640 878 1172 1484 1724 1731 1705
1410.0 1840 1876 1902 1693 1566 1481 1492 1455 1263 1064
1450.0 877 832 817 852 782 773 754 700 612 636
1490.0 689 634 651 591 622 616 472 439 375 268
1530.0 255 193 273 268 261 197 203 308 225 206
1570.0 215 201 227 186 187 171 177 170 160 173
1610.0 139 182 177 170 179 134 180 189 147 185
1650.0 224 249 207 172 225 244 321 310 439 494
1690.0 552 631 891 1147 1504 2170 3153 5006 6554 8302
1730.0 10000 8606 9887 9035 7657 5717 3173 1731 999 613
1770.0 479 385 289 257 224 209 213 172 188 139
1810.0 144 145 117 137 128 152 117 107 123 133
1850.0 105 90 106 102 115 139 106 105 104 112
1890.0 118 115 106 108 105 112 101 109 108 95
1930.0 89 87 92 100 103 86 94 86 85 88
1970.0 89 83 85 84 85 96 94 89 86 86
2010.0 91 95 102 100 97 96 95 95 96 91
2050.0 91 88 88 86 88 82 82 84 81 81
2090.0 86 81 84 85 80 84 84 85 87 87
2130.0 90 87 90 88 88 88 86 88 87 86
2170.0 88 85 85 86 84 85 84 85 85 82
2210.0 81 79 81 81 84 86 85 91 90 90
2250.0 90 89 89 90 89 90 88 87 87 90
2290.0 94 95 104 106 112 129 116 126 126 120
2330.0 128 126 148 131 171 115 177 130 194 194
2370.0 153 154 124 115 101 86 81 79 76 72
2410.0 72 72 71 77 75 75 76 72 74 76
2450.0 76 81 83 87 90 89 90 89 86 85
2490.0 82 82 79 79 79 80 78 80 81 80
2530.0 82 84 88 87 86 88 89 89 92 93
2570.0 90 92 91 92 89 86 86 86 88 88
2610.0 87 85 83 84 82 85 85 85 89 90
2650.0 92 91 89 91 92 93 97 97 100 100
2690.0 99 100 101 100 103 104 111 111 112 113
2730.0 110 112 113 117 118 124 129 136 143 150
2770.0 162 175 189 213 234 250 268 283 294 302
2810.0 306 319 332 355 394 450 532 637 768 909
2850.0 1036 1141 1240 1302 1302 1287 1277 1268 1283 1298
2890.0 1313 1330 1362 1407 1437 1450 1455 1475 1508 1481
2930.0 1423 1433 1419 1394 1442 1444 1359 1292 1298 1269
2970.0 1271 1276 1255 1282 1274 1157 1063 860 712 602
3010.0 488 404 335 276 244 217 207 201 196 199
3050.0 198 195 190 184 182 173 171 160 158 156
3090.0 146 142 139 129 129 121 121 121 120 121
3130.0 116 114 111 105 107 105 104 106 106 106
3170.0 101 101 99 95 94 93 101 102 105 107
3210.0 101 97 98 96 97 98 102 105 103 102
3250.0 104 99 94 91 94 96 99 103 99 104
3290.0 100 97 95 101 106 110 108 108 103 106
3330.0 102 93 97 95 105 104 103 104 99 103
3370.0 105 104 104 104 105 108 112 107 101 106
3410.0 108 113 116 120 131 145 150 156 169 174
3450.0 181 183 178 162 157 135 124 111 103 106
3490.0 110 108 108 98 98 102 99 99 104 100
3530.0 101 110 107 107 98 99 101 105 105 102
3570.0 99 124 101 123 82 117 90 120 93 118
3610.0 102 106 115 81 115 89 103 112 116 89
3650.0 137 71 149 71 123 94 111 116 97 139
3690.0 81 134 97 113 107 101 101 115 92 111
3730.0 105 102 107 86 149 72 163 92 138 107
3770.0 118 123 120 113 111 108 123 106 149 93
3810.0 159 87 144 99 127 107 123 114 117 120
3850.0 122 136 110 133 114 134 118 122 112 121
3890.0 98 141 97 126 108 131 111 101 107 90
3930.0 128 99 122 130 119 121 121 131 103 111
##END=
