##TITLE=4-Chlorobenzyl alcohol
##JCAMP-DX=4.24
##DATA TYPE=INFRARED SPECTRUM
##ORIGIN=Sadtler Research Labs Under US-EPA Contract
##OWNER=NIST Standard Reference Data Program
##CAS REGISTRY NO=873-76-7
##MOLFORM=C 7 H 7 Cl O
##XUNITS=1/CM
##YUNITS=ABSORBANCE
##XFACTOR=1.0
##YFACTOR=0.000045554
##DELTAX=4.0
##FIRSTX=450.0
##LASTX=3966.0
##FIRSTY=0.033482
##MAXX=3966
##MINX=450
##MAXY=0.45554
##MINY=0
##NPOINTS=880
##XYDATA=(X++(Y..Y))
450.0 735 1009 969 940 796 841 854 849 826 874
490.0 874 924 932 1118 1178 1292 1439 1533 1514 1438
530.0 1294 1075 903 753 618 498 407 297 260 185
570.0 136 108 70 80 49 52 40 5 50 31
610.0 44 62 76 77 143 169 239 354 516 659
650.0 743 691 568 363 247 193 150 82 49 22
690.0 24 43 28 38 53 48 72 80 82 89
730.0 96 119 140 159 170 220 247 294 358 458
770.0 603 798 1155 1650 2383 3194 4008 4680 5144 5358
810.0 5540 5517 5328 4957 4543 4057 3477 2878 2240 1704
850.0 1267 936 700 543 442 363 318 282 266 262
890.0 289 277 281 304 327 343 377 424 466 536
930.0 597 687 750 821 867 932 1020 1159 1313 1483
970.0 1655 1804 1967 2168 2439 2789 3230 3837 4828 6732
1010.0 9335 10000 9846 9604 7487 6507 6675 6555 6168 5465
1050.0 4832 4286 3910 3596 3351 3179 3219 3607 4628 6391
1090.0 8254 9199 9026 7489 4839 2832 1803 1331 1086 938
1130.0 866 817 822 836 878 940 1020 1109 1207 1294
1170.0 1402 1512 1589 1672 1748 1829 1938 2058 2077 2006
1210.0 1821 1571 1345 1235 1186 1123 1073 1002 968 924
1250.0 893 899 903 923 927 925 898 885 866 864
1290.0 859 863 868 869 880 887 918 943 971 1001
1330.0 1023 1039 1089 1130 1162 1289 1464 1732 2064 2452
1370.0 2790 3152 3303 3345 3265 3129 3011 2927 2832 2667
1410.0 2488 2215 2021 1667 1357 1100 950 855 734 718
1450.0 739 836 1029 1233 1471 1680 1944 2335 3236 5250
1490.0 7382 7944 7374 5765 2932 1136 664 401 384 253
1530.0 250 184 224 244 215 184 202 265 236 233
1570.0 278 338 438 586 848 1252 1678 1934 1850 1555
1610.0 1095 684 497 389 392 341 371 361 323 319
1650.0 325 297 229 166 143 119 108 56 79 76
1690.0 48 36 93 92 74 54 126 228 197 190
1730.0 223 222 143 148 165 178 171 156 184 188
1770.0 280 304 298 265 207 128 86 41 46 23
1810.0 13 22 13 23 17 33 12 12 21 48
1850.0 31 23 44 65 106 158 199 248 320 372
1890.0 415 416 397 357 290 230 167 135 101 74
1930.0 58 48 48 51 55 35 44 40 44 38
1970.0 41 39 38 42 43 55 52 50 56 62
2010.0 64 74 83 87 85 86 82 81 86 74
2050.0 69 69 66 68 67 63 53 58 51 50
2090.0 45 43 40 37 25 20 18 15 19 15
2130.0 11 12 9 13 12 13 11 5 7 5
2170.0 0 0 0 0 3 2 8 7 6 4
2210.0 15 18 22 18 17 18 22 29 22 27
2250.0 32 38 39 46 54 69 81 95 103 111
2290.0 116 117 112 116 107 105 96 86 75 74
2330.0 57 55 52 56 68 78 74 76 66 62
2370.0 67 55 68 70 70 61 59 64 63 65
2410.0 64 59 51 45 38 33 32 30 31 31
2450.0 30 33 39 34 36 35 37 39 33 35
2490.0 41 44 44 42 43 45 45 48 47 43
2530.0 47 48 49 55 54 54 59 59 61 65
2570.0 64 68 69 72 71 68 69 65 59 57
2610.0 56 55 53 52 45 42 46 40 46 50
2650.0 50 53 52 63 71 80 86 91 96 95
2690.0 99 103 103 101 99 103 106 113 124 132
2730.0 133 133 141 142 151 157 169 178 186 204
2770.0 217 229 248 261 278 296 316 326 330 336
2810.0 355 371 397 425 470 527 591 662 762 889
2850.0 1016 1171 1334 1537 1772 2053 2386 2730 2977 3068
2890.0 3023 2825 2589 2406 2288 2204 2174 2161 2165 2190
2930.0 2185 2169 2130 2078 2009 1933 1826 1707 1563 1399
2970.0 1231 1084 963 861 777 701 621 566 531 509
3010.0 506 544 621 752 947 1161 1304 1356 1309 1183
3050.0 1030 923 842 741 660 611 610 660 744 816
3090.0 849 863 866 791 641 496 358 242 146 90
3130.0 67 44 40 37 41 33 33 32 31 33
3170.0 22 23 23 16 14 16 14 10 15 13
3210.0 11 11 7 17 7 7 10 7 11 20
3250.0 2 8 11 7 9 13 14 12 6 19
3290.0 15 12 12 16 18 17 18 13 18 21
3330.0 16 19 20 28 32 34 24 32 36 31
3370.0 41 39 30 43 50 49 44 48 58 69
3410.0 67 70 73 79 75 81 86 67 76 80
3450.0 80 82 91 79 89 88 89 82 87 72
3490.0 84 93 88 80 72 66 73 61 57 61
3530.0 72 67 66 77 77 67 75 50 79 87
3570.0 97 94 95 91 108 128 129 126 155 171
3610.0 223 238 291 375 470 634 740 927 1091 1310
3650.0 1583 1720 1838 1911 1861 1699 1473 1245 999 830
3690.0 682 559 448 379 324 273 238 232 196 185
3730.0 156 167 146 127 130 95 114 79 76 96
3770.0 68 81 73 77 72 83 58 74 66 63
3810.0 65 73 84 97 85 103 82 96 94 95
3850.0 100 146 151 124 151 144 132 129 143 157
3890.0 130 137 128 150 106 83 108 115 76 77
3930.0 94 77 79 58 71 64 52 52 40 50
##END=
