##TITLE=2-Bromo-4-chloroaniline
##JCAMP-DX=4.24
##DATA TYPE=INFRARED SPECTRUM
##ORIGIN=Sadtler Research Labs Under US-EPA Contract
##OWNER=NIST Standard Reference Data Program
##CAS REGISTRY NO=873-38-1
##MOLFORM=C 6 H 5 Br Cl N
##XUNITS=1/CM
##YUNITS=ABSORBANCE
##XFACTOR=1.0
##YFACTOR=0.000054642
##DELTAX=4.0
##FIRSTX=450.0
##LASTX=3966.0
##FIRSTY=0.008907
##MAXX=3966
##MINX=450
##MAXY=0.54642
##MINY=0
##NPOINTS=880
##XYDATA=(X++(Y..Y))
450.0 163 231 311 216 215 239 241 243 122 88
490.0 64 69 62 97 6 43 109 91 138 161
530.0 272 345 434 586 638 484 384 309 218 194
570.0 201 242 258 238 206 148 130 133 143 163
610.0 195 283 383 458 597 757 963 1218 1551 1685
650.0 1606 1436 1146 1059 1115 1136 1097 1114 1284 1612
690.0 2154 2810 3623 3812 3429 2535 1497 821 595 501
730.0 486 476 441 407 397 360 327 287 255 202
770.0 186 170 195 247 359 584 961 1382 1865 2251
810.0 2099 1591 1143 723 494 471 762 1135 1343 1281
850.0 1003 680 714 912 1121 1449 1009 680 477 203
890.0 93 53 55 40 38 53 49 63 55 59
930.0 60 67 49 51 59 51 56 50 54 58
970.0 62 52 52 47 47 39 27 27 28 37
1010.0 62 108 207 358 547 763 895 914 818 646
1050.0 498 432 497 698 904 983 924 741 607 568
1090.0 570 588 636 753 958 1226 1395 1406 1276 977
1130.0 640 436 388 512 708 728 773 689 449 304
1170.0 224 192 183 190 209 216 196 146 90 59
1210.0 47 45 58 80 125 185 272 360 464 515
1250.0 487 428 301 229 262 390 627 1015 1497 1884
1290.0 2191 2339 2214 1980 1534 994 532 276 155 83
1330.0 65 61 91 100 111 134 149 165 161 159
1370.0 139 156 190 305 508 796 1013 1051 1062 943
1410.0 778 672 608 445 311 243 245 257 280 354
1450.0 492 680 1077 1691 2839 4471 6251 8526 9742 10000
1490.0 8697 6371 4190 2688 1649 979 629 438 402 361
1530.0 397 407 455 467 452 447 506 631 741 822
1570.0 857 826 756 725 754 800 841 958 1204 1721
1610.0 2559 3634 4644 5062 4909 3916 2866 1868 1218 840
1650.0 626 458 329 269 228 212 204 168 181 172
1690.0 142 132 166 162 165 156 190 244 256 282
1730.0 324 340 275 241 186 138 105 79 75 62
1770.0 77 66 53 53 56 56 69 63 71 58
1810.0 50 45 39 45 45 52 41 52 69 110
1850.0 137 171 202 187 156 112 58 38 30 28
1890.0 33 31 27 27 23 23 24 28 30 23
1930.0 25 26 25 30 31 29 31 31 26 26
1970.0 31 34 36 39 35 39 29 21 18 14
2010.0 9 9 10 12 12 15 12 14 18 13
2050.0 11 10 6 6 6 5 1 4 1 4
2090.0 6 5 1 5 7 7 6 3 7 11
2130.0 13 18 21 23 21 18 13 8 4 6
2170.0 5 5 5 7 8 11 8 6 2 3
2210.0 2 3 7 6 9 10 7 11 10 10
2250.0 6 8 4 8 12 13 13 13 14 24
2290.0 29 34 49 62 63 66 71 86 99 99
2330.0 89 91 78 65 40 63 85 69 34 1
2370.0 1 1 1 1 1 3 7 7 10 19
2410.0 17 23 23 26 25 25 15 15 12 13
2450.0 13 12 12 13 14 9 12 16 13 15
2490.0 14 14 12 8 11 16 15 15 20 26
2530.0 32 30 37 39 39 30 21 18 17 19
2570.0 29 32 41 50 60 58 54 47 32 29
2610.0 24 27 23 25 25 31 37 38 33 30
2650.0 29 25 26 24 22 22 24 23 27 34
2690.0 33 34 26 28 27 26 25 23 19 13
2730.0 13 19 17 18 20 20 24 23 21 26
2770.0 28 30 28 25 25 22 23 19 22 27
2810.0 25 30 30 26 28 35 33 41 43 54
2850.0 54 59 59 63 59 62 50 37 28 25
2890.0 22 21 24 22 24 28 33 29 27 30
2930.0 26 33 42 45 44 39 34 34 36 42
2970.0 39 43 38 40 42 48 49 49 57 66
3010.0 87 123 165 228 301 344 353 336 282 238
3050.0 225 238 282 317 332 326 289 250 219 193
3090.0 167 143 102 77 60 47 39 41 37 35
3130.0 37 35 44 41 38 41 38 40 46 58
3170.0 55 60 66 78 83 88 89 96 104 100
3210.0 86 70 58 52 46 41 41 32 33 32
3250.0 27 22 24 28 27 25 18 22 23 22
3290.0 18 27 18 20 22 20 27 18 26 21
3330.0 16 14 25 21 29 26 29 41 46 59
3370.0 65 90 96 135 200 299 475 767 1054 1216
3410.0 1281 1178 1027 884 668 465 259 151 107 83
3450.0 83 86 105 117 147 177 227 301 411 557
3490.0 737 875 936 961 891 803 755 728 629 519
3530.0 404 253 156 111 89 56 54 38 29 37
3570.0 29 23 26 25 30 26 28 12 11 12
3610.0 28 21 16 11 10 37 22 0 18 15
3650.0 19 12 13 26 28 27 26 29 10 22
3690.0 15 16 6 19 20 27 9 5 26 32
3730.0 25 29 24 15 51 14 28 26 24 1
3770.0 11 15 7 47 17 26 21 11 14 16
3810.0 22 24 8 24 28 49 44 58 65 67
3850.0 93 77 70 53 34 43 35 20 35 14
3890.0 13 25 34 49 31 18 17 37 27 30
3930.0 56 66 61 62 71 48 52 44 39 40
##END=
