##TITLE=Benzene, cyclopropyl-
##JCAMP-DX=4.24
##DATA TYPE=INFRARED SPECTRUM
##ORIGIN=Sadtler Research Labs Under US-EPA Contract
##OWNER=NIST Standard Reference Data Program
##CAS REGISTRY NO=873-49-4
##MOLFORM=C 9 H 10
##XUNITS=1/CM
##YUNITS=ABSORBANCE
##XFACTOR=1.0
##YFACTOR=0.000055731
##DELTAX=4.0
##FIRSTX=450.0
##LASTX=3966.0
##FIRSTY=0.017555
##MAXX=3966
##MINX=450
##MAXY=0.55731
##MINY=0
##NPOINTS=880
##XYDATA=(X++(Y..Y))
450.0 315 175 191 212 272 169 155 218 153 262
490.0 290 241 259 356 444 639 794 1038 1176 1539
530.0 1496 1363 1283 1144 1005 859 766 572 497 326
570.0 285 151 115 109 45 70 41 0 18 59
610.0 62 56 53 35 69 28 49 52 74 88
650.0 106 222 267 450 535 1173 1941 2832 4031 4922
690.0 6191 8337 8183 6342 5715 4391 3380 2432 1978 1969
730.0 2414 3198 4000 5026 6137 7694 6265 4773 4076 2827
770.0 1869 1108 733 587 609 690 840 1067 1278 1431
810.0 1601 1810 1480 1277 1113 911 737 624 560 511
850.0 497 484 516 571 667 773 934 1146 1437 1828
890.0 2437 3143 3489 3419 3286 2696 1806 1192 903 684
930.0 554 447 398 350 327 292 279 273 274 234
970.0 209 215 202 234 264 385 517 655 772 1000
1010.0 1299 1876 2984 3905 4168 4166 3873 2929 2116 1868
1050.0 1792 1697 1550 1430 1368 1381 1380 1303 1222 1135
1090.0 943 765 644 530 439 370 296 206 146 104
1130.0 76 63 61 72 89 116 132 168 203 273
1170.0 318 339 356 297 220 166 147 130 162 248
1210.0 498 862 1103 1195 1273 1183 842 591 471 347
1250.0 245 177 164 161 168 176 196 197 200 201
1290.0 191 195 204 216 212 208 200 202 199 185
1330.0 172 184 183 176 191 228 283 349 452 580
1370.0 636 612 567 479 339 238 199 198 197 222
1410.0 247 307 375 474 590 705 877 1078 1217 1305
1450.0 1397 1531 1700 1804 1830 1700 1552 1464 1482 1931
1490.0 2805 3681 4186 4378 3919 2832 1854 1068 602 427
1530.0 359 325 299 267 217 198 195 213 239 262
1570.0 316 387 463 555 686 1034 1689 2722 3693 4132
1610.0 3930 3372 2399 1213 558 373 327 287 257 240
1650.0 233 231 219 204 187 164 138 114 113 118
1690.0 111 124 134 147 149 151 167 199 196 200
1730.0 216 249 266 289 307 316 300 269 230 215
1770.0 233 267 328 441 563 643 666 658 581 456
1810.0 355 311 284 274 262 260 249 250 255 260
1850.0 264 268 273 294 322 344 375 413 434 423
1890.0 402 382 367 368 406 460 516 559 583 604
1930.0 618 610 599 637 674 640 536 441 341 217
1970.0 121 85 74 72 64 60 55 52 53 48
2010.0 47 47 51 54 60 66 84 101 121 136
2050.0 160 175 195 213 236 219 205 199 191 187
2090.0 183 181 167 145 112 93 77 66 64 56
2130.0 62 61 70 82 75 72 61 53 38 36
2170.0 38 45 45 54 55 54 53 56 60 57
2210.0 61 63 65 70 78 81 95 99 107 105
2250.0 100 98 91 81 82 80 75 68 60 53
2290.0 50 46 43 50 67 88 93 106 120 120
2330.0 123 128 117 119 126 112 114 88 99 87
2370.0 79 72 68 60 62 67 77 85 84 80
2410.0 60 42 30 29 25 26 34 35 36 41
2450.0 51 55 65 75 93 105 126 140 141 133
2490.0 126 109 91 76 68 68 57 53 44 45
2530.0 48 47 52 53 64 61 57 47 43 39
2570.0 37 37 48 54 64 71 69 88 89 85
2610.0 77 73 64 54 58 56 64 61 48 40
2650.0 31 26 27 25 18 22 21 20 19 17
2690.0 16 17 8 6 5 3 7 0 3 4
2730.0 1 4 10 10 15 17 16 19 17 24
2770.0 31 37 34 29 30 21 18 23 27 29
2810.0 30 32 46 50 59 60 73 76 93 113
2850.0 132 164 196 248 287 323 351 372 373 372
2890.0 379 382 392 399 400 390 388 371 368 374
2930.0 365 385 380 359 363 370 352 372 402 442
2970.0 510 604 727 911 1138 1426 1814 2291 2913 3770
3010.0 4846 5979 6930 7912 9034 9786 10000 9894 9492 8651
3050.0 7137 5767 5334 5839 6721 7311 7736 8065 8863 9297
3090.0 9015 8268 8182 6087 3776 2549 1964 1483 1156 815
3130.0 555 342 233 171 137 130 112 128 118 123
3170.0 105 91 67 54 34 31 29 26 39 35
3210.0 38 31 42 39 39 41 40 38 26 36
3250.0 29 33 21 33 22 23 18 10 26 16
3290.0 17 13 21 20 24 10 13 6 10 8
3330.0 14 23 7 1 15 3 3 7 17 11
3370.0 14 13 19 16 28 24 31 22 24 17
3410.0 24 17 24 24 18 19 23 22 26 34
3450.0 26 19 25 18 15 20 20 14 10 24
3490.0 10 16 18 23 13 11 17 12 13 18
3530.0 13 21 20 25 29 20 22 25 16 9
3570.0 1 15 24 19 8 20 18 37 19 33
3610.0 44 46 45 32 25 32 28 27 44 48
3650.0 59 66 60 42 46 29 23 17 25 18
3690.0 17 30 26 29 36 20 36 29 23 19
3730.0 25 24 23 14 22 18 24 17 20 31
3770.0 28 23 27 36 34 37 45 42 58 79
3810.0 70 61 68 80 73 85 73 69 38 12
3850.0 17 8 36 26 40 38 31 23 43 46
3890.0 48 59 60 46 49 44 59 48 42 47
3930.0 51 55 50 35 49 17 28 2 2 16
##END=
