##TITLE=Benzonitrile, 3-hydroxy-
##JCAMP-DX=4.24
##DATA TYPE=INFRARED SPECTRUM
##ORIGIN=Sadtler Research Labs Under US-EPA Contract
##OWNER=NIST Standard Reference Data Program
##CAS REGISTRY NO=873-62-1
##MOLFORM=C 7 H 5 N O
##XUNITS=1/CM
##YUNITS=ABSORBANCE
##XFACTOR=1.0
##YFACTOR=0.000052631
##DELTAX=4.0
##FIRSTX=450.0
##LASTX=3966.0
##FIRSTY=0.105524
##MAXX=3966
##MINX=450
##MAXY=0.52631
##MINY=0
##NPOINTS=880
##XYDATA=(X++(Y..Y))
450.0 2005 1696 1121 2172 2461 1982 1541 1392 1219 912
490.0 857 739 615 689 738 708 764 878 1146 1021
530.0 1123 1016 979 1006 455 624 674 835 11 659
570.0 610 575 498 510 554 532 645 737 696 631
610.0 559 485 459 407 324 381 398 362 347 396
650.0 497 599 897 1231 1786 2056 2770 4043 3966 2547
690.0 2045 1842 1322 903 741 751 899 959 826 680
730.0 851 539 537 580 555 638 898 1194 1549 2076
770.0 2620 3348 4416 4804 4811 4823 3548 2927 2434 1789
810.0 1372 1092 945 922 882 867 896 1026 1299 1408
850.0 1555 1969 2208 1898 1916 1975 1831 1862 1860 1615
890.0 1484 1336 1139 1044 1110 1212 1493 1944 2816 3745
930.0 4021 3924 3741 2983 1797 921 573 453 416 428
970.0 484 500 526 595 674 876 1221 1379 1370 1431
1010.0 1422 1253 1040 954 905 841 851 831 847 886
1050.0 943 959 1003 1030 1171 1278 1397 1511 1700 1728
1090.0 1829 1852 1831 1776 1747 1861 2035 2195 2445 2872
1130.0 3571 4611 5617 6509 7384 8285 8446 8053 7528 7410
1170.0 7077 7012 7462 8158 8938 9406 9625 8853 7577 6393
1210.0 5198 3911 3096 2730 2507 2440 2428 2436 2517 2635
1250.0 2784 3070 3566 4399 5625 7162 8655 9388 9617 10000
1290.0 9313 7329 5737 5435 5147 4264 3404 2811 2120 1591
1330.0 1319 1141 1065 1009 935 916 895 912 913 849
1370.0 799 762 728 668 654 647 681 670 656 677
1410.0 792 1045 1416 1939 2369 2860 3397 4206 4548 4179
1450.0 3872 3929 3463 2862 2659 2948 3361 3616 3573 3467
1490.0 3399 3012 2423 2043 1867 1695 1177 788 562 533
1530.0 484 546 645 746 811 847 1013 1245 1659 2031
1570.0 2850 3991 5259 6855 7299 8242 9558 8820 8433 7210
1610.0 5797 4418 3213 2367 1611 1024 613 443 349 307
1650.0 390 441 518 490 707 876 1085 1310 1545 1765
1690.0 1890 1989 2179 2244 2172 2123 2088 2087 1971 1933
1730.0 1999 2062 2230 2318 2460 2593 2573 2515 2372 2232
1770.0 2121 1966 1804 1616 1457 1264 1062 919 766 662
1810.0 547 472 415 360 350 330 336 335 314 355
1850.0 327 323 341 326 325 300 267 225 182 174
1890.0 159 154 161 158 163 187 193 245 254 294
1930.0 294 301 267 237 227 186 140 132 109 101
1970.0 74 89 70 77 91 100 102 85 86 99
2010.0 90 85 81 81 68 70 63 70 69 77
2050.0 73 62 80 83 84 91 84 101 110 100
2090.0 103 91 88 75 68 60 52 69 43 45
2130.0 44 21 29 7 0 13 25 12 26 27
2170.0 24 53 39 37 56 66 103 143 171 219
2210.0 272 343 416 514 690 858 921 896 797 671
2250.0 477 254 118 83 85 90 94 112 123 128
2290.0 164 162 186 199 226 225 221 190 211 183
2330.0 160 126 141 155 260 237 215 193 191 222
2370.0 257 220 255 275 219 150 124 106 100 102
2410.0 95 92 104 107 113 109 114 134 135 136
2450.0 140 143 144 172 188 182 171 169 164 140
2490.0 123 129 121 123 142 122 131 110 115 106
2530.0 115 127 131 146 140 145 149 129 113 119
2570.0 124 123 120 128 119 110 114 112 111 109
2610.0 122 118 111 97 77 79 67 66 50 44
2650.0 41 32 61 42 46 28 33 53 21 47
2690.0 54 57 90 53 60 56 47 42 59 58
2730.0 82 72 58 68 67 74 61 47 57 69
2770.0 60 50 51 57 57 49 58 58 66 69
2810.0 65 66 62 65 78 93 107 128 179 209
2850.0 252 294 302 306 310 317 278 287 298 292
2890.0 324 359 396 449 489 527 576 613 654 694
2930.0 723 729 691 652 604 591 591 610 602 568
2970.0 503 409 357 314 274 258 238 243 260 262
3010.0 299 351 408 487 524 573 613 634 643 685
3050.0 749 818 831 831 819 814 780 760 750 738
3090.0 715 656 594 540 489 415 348 297 242 227
3130.0 198 165 135 130 116 111 104 100 102 96
3170.0 102 98 93 107 101 82 80 79 91 98
3210.0 90 76 74 94 76 94 89 74 85 81
3250.0 104 90 92 101 101 102 71 88 84 83
3290.0 56 56 40 51 28 33 39 41 48 58
3330.0 76 101 113 134 111 96 113 94 129 131
3370.0 132 115 110 118 111 87 79 80 84 88
3410.0 64 72 49 94 93 75 68 82 74 71
3450.0 67 73 64 70 40 46 55 41 29 36
3490.0 97 92 111 86 94 91 83 83 116 108
3530.0 88 96 99 87 110 123 131 90 149 166
3570.0 251 193 226 240 230 235 241 204 235 219
3610.0 293 361 408 588 839 1314 2151 3481 5503 7174
3650.0 7805 7414 7105 5704 3418 1499 735 450 259 218
3690.0 218 204 183 216 185 165 159 146 157 178
3730.0 147 178 193 181 161 230 174 176 128 154
3770.0 127 173 164 173 167 166 168 212 180 236
3810.0 296 385 420 531 469 413 330 340 190 88
3850.0 53 163 169 149 139 134 72 183 149 118
3890.0 179 78 83 176 158 144 117 103 99 186
3930.0 186 84 124 114 142 91 73 189 175 148
##END=
