##TITLE=Benzenemethanol, 4-bromo-
##JCAMP-DX=4.24
##DATA TYPE=INFRARED SPECTRUM
##ORIGIN=Sadtler Research Labs Under US-EPA Contract
##OWNER=NIST Standard Reference Data Program
##CAS REGISTRY NO=873-75-6
##MOLFORM=C 7 H 7 Br O
##XUNITS=1/CM
##YUNITS=ABSORBANCE
##XFACTOR=1.0
##YFACTOR=0.000042462
##DELTAX=4.0
##FIRSTX=450.0
##LASTX=3966.0
##FIRSTY=0.045604
##MAXX=3966
##MINX=450
##MAXY=0.42462
##MINY=0
##NPOINTS=880
##XYDATA=(X++(Y..Y))
450.0 1074 668 272 724 234 382 300 205 669 732
490.0 525 943 812 737 741 792 665 449 626 267
530.0 296 338 4 171 79 19 393 260 35 111
570.0 187 278 294 327 138 170 97 176 351 13
610.0 133 329 391 379 439 405 562 346 368 203
650.0 275 140 145 206 205 271 310 136 206 167
690.0 307 166 217 228 54 170 188 231 296 209
730.0 193 167 235 209 250 308 350 393 492 678
770.0 779 1198 1681 2200 2772 3465 3838 4066 4144 4009
810.0 3971 3867 3674 3691 3370 3146 2684 1933 1594 1148
850.0 904 744 514 508 343 382 352 299 510 273
890.0 367 408 203 351 393 477 497 497 474 537
930.0 582 640 646 682 853 729 935 916 922 1130
970.0 1205 1479 1468 1565 1756 2002 2495 2980 4369 6985
1010.0 9609 10000 8029 5177 3952 4403 4592 4456 3983 3436
1050.0 3150 2858 2908 3331 4626 6219 7002 6313 4661 3157
1090.0 2508 2274 1948 1789 1570 1366 1239 1106 990 896
1130.0 803 720 688 655 663 743 713 726 920 994
1170.0 1075 1153 1183 1209 1242 1361 1535 1561 1544 1404
1210.0 1135 992 832 842 783 706 846 695 709 622
1250.0 727 736 753 756 762 798 736 681 734 813
1290.0 750 815 735 800 691 754 726 714 839 830
1330.0 887 926 961 1079 1136 1263 1443 1688 1876 2012
1370.0 2222 2419 2482 2538 2477 2310 2253 2153 2081 2048
1410.0 1835 1678 1456 1285 1081 955 859 766 662 686
1450.0 729 797 910 1084 1306 1537 1821 2346 3429 5004
1490.0 5721 5121 3334 1551 893 540 420 358 252 244
1530.0 227 227 219 150 176 197 126 206 329 327
1570.0 469 535 718 1066 1294 1663 1851 1606 1280 845
1610.0 627 391 320 385 345 319 306 234 245 288
1650.0 223 250 169 141 50 117 88 115 97 160
1690.0 113 220 151 233 177 246 434 833 1016 1076
1730.0 974 487 168 123 82 152 68 76 125 72
1770.0 198 238 259 271 212 167 113 90 75 66
1810.0 69 60 66 60 71 90 53 27 60 75
1850.0 67 47 65 88 135 153 169 203 246 304
1890.0 339 338 321 290 251 192 162 131 109 86
1930.0 73 61 61 74 60 56 60 54 42 38
1970.0 55 63 54 52 53 68 84 72 68 76
2010.0 68 79 80 83 92 82 81 94 84 73
2050.0 63 74 68 62 65 71 67 56 57 76
2090.0 70 67 60 67 39 29 38 37 30 41
2130.0 33 28 33 29 23 7 23 21 15 18
2170.0 12 22 14 20 10 24 31 33 28 29
2210.0 8 24 33 30 33 22 23 11 26 28
2250.0 29 37 36 47 44 46 57 69 73 88
2290.0 81 85 95 95 75 75 87 76 72 97
2330.0 97 108 90 75 52 96 114 128 106 112
2370.0 112 68 72 64 57 55 62 47 44 54
2410.0 38 50 50 39 32 28 35 19 17 16
2450.0 15 21 17 21 28 14 22 34 27 33
2490.0 31 28 28 22 47 33 27 29 36 45
2530.0 39 31 34 37 51 47 52 54 44 48
2570.0 29 46 58 59 61 53 46 65 70 50
2610.0 54 43 29 24 19 23 29 35 28 33
2650.0 36 48 37 54 71 72 72 74 74 82
2690.0 73 97 95 101 117 123 140 168 180 200
2730.0 198 196 171 153 148 141 146 150 158 174
2770.0 194 208 223 233 245 271 286 319 310 345
2810.0 373 386 427 447 475 480 505 541 607 703
2850.0 822 977 1158 1321 1514 1657 1780 1940 2080 2119
2890.0 2039 1874 1716 1605 1549 1509 1486 1473 1464 1476
2930.0 1456 1432 1428 1417 1420 1388 1314 1211 1091 979
2970.0 859 765 683 597 544 469 432 391 370 366
3010.0 371 414 477 575 739 891 953 916 837 742
3050.0 675 624 586 535 491 463 464 497 578 635
3090.0 660 642 614 483 370 261 166 124 61 50
3130.0 62 48 43 14 24 25 31 43 33 24
3170.0 27 45 49 40 53 36 48 48 35 58
3210.0 52 50 65 53 27 30 29 10 40 29
3250.0 20 21 27 5 34 30 53 39 41 40
3290.0 38 42 41 34 26 57 45 51 32 21
3330.0 59 32 24 30 36 11 34 30 26 51
3370.0 26 32 44 39 56 48 71 61 72 49
3410.0 66 54 66 70 81 67 53 61 80 69
3450.0 34 73 75 95 58 33 40 86 78 23
3490.0 38 81 64 72 67 85 32 48 52 85
3530.0 73 18 42 40 62 70 56 41 30 89
3570.0 119 104 96 81 95 148 112 136 149 154
3610.0 191 183 224 252 321 364 511 571 678 784
3650.0 916 1048 1177 1172 1157 1016 928 782 631 535
3690.0 420 371 334 288 225 180 150 165 154 140
3730.0 68 69 68 4 24 24 38 9 30 17
3770.0 28 15 37 17 27 31 71 4 4 33
3810.0 21 4 26 4 91 70 18 27 51 59
3850.0 46 111 44 118 44 146 57 158 44 10
3890.0 37 77 65 171 106 113 95 129 145 4
3930.0 92 23 12 139 10 2 91 3 23 0
##END=
