##TITLE=Cyclohexanone, 2-acetyl-
##JCAMP-DX=4.24
##DATA TYPE=INFRARED SPECTRUM
##ORIGIN=Sadtler Research Labs Under US-EPA Contract
##OWNER=NIST Standard Reference Data Program
##CAS REGISTRY NO=874-23-7
##MOLFORM=C 8 H 12 O 2
##XUNITS=1/CM
##YUNITS=ABSORBANCE
##XFACTOR=1.0
##YFACTOR=0.000057816
##DELTAX=4.0
##FIRSTX=450.0
##LASTX=3966.0
##FIRSTY=0.010465
##MAXX=3966
##MINX=450
##MAXY=0.57816
##MINY=0
##NPOINTS=880
##XYDATA=(X++(Y..Y))
450.0 181 224 135 73 12 55 28 86 86 182
490.0 215 235 227 225 211 179 127 105 77 70
530.0 51 74 104 114 132 208 281 330 370 327
570.0 300 198 136 112 101 62 66 92 83 87
610.0 140 160 242 300 338 320 294 250 217 171
650.0 139 125 134 126 149 214 194 202 201 127
690.0 81 49 20 14 6 1 12 12 9 16
730.0 9 18 7 5 13 8 11 8 30 30
770.0 37 43 30 33 16 0 10 20 32 64
810.0 88 159 305 410 482 481 443 363 350 402
850.0 466 492 491 475 455 482 548 573 584 594
890.0 549 532 586 686 765 869 997 1113 1234 1351
930.0 1473 1599 1743 1918 2123 2248 2202 1993 1667 1263
970.0 966 870 878 857 799 689 555 423 360 330
1010.0 331 344 374 423 471 471 450 423 366 307
1050.0 267 245 238 257 302 351 400 427 434 421
1090.0 399 380 382 403 468 565 684 803 912 994
1130.0 1038 1056 1053 1035 1039 1065 1152 1313 1529 1750
1170.0 1900 1832 1649 1424 1134 918 845 885 979 1109
1210.0 1266 1488 1761 2122 2566 3077 3619 4115 4489 4688
1250.0 4710 4622 4419 4096 3727 3425 3104 2814 2671 2623
1290.0 2659 2774 3052 3488 3919 4176 4250 4074 3593 3148
1330.0 2862 2712 2652 2649 2687 2788 2962 3193 3403 3467
1370.0 3390 3202 2919 2672 2545 2545 2678 2919 3229 3588
1410.0 3923 4231 4497 4633 4448 4089 3679 3181 2789 2661
1450.0 2620 2615 2584 2374 2149 1933 1766 1607 1506 1458
1490.0 1454 1461 1485 1500 1557 1585 1631 1689 1772 1858
1530.0 1943 2060 2190 2362 2522 2724 2971 3263 3609 3983
1570.0 4437 4954 5561 6187 6870 7559 8204 8741 9117 9279
1610.0 9259 9109 8903 8721 8602 8480 8278 7915 7356 6661
1650.0 5852 5080 4297 3647 3109 2686 2333 2070 1873 1745
1690.0 1631 1594 1647 1825 2146 2611 3109 3564 3780 3728
1730.0 3496 3112 2658 2186 1737 1385 1124 978 928 915
1770.0 932 924 870 795 696 612 593 572 524 477
1810.0 412 337 271 217 178 150 130 113 108 103
1850.0 89 84 75 71 63 61 53 48 44 37
1890.0 34 29 23 22 19 17 16 21 24 22
1930.0 26 29 33 32 35 33 32 31 30 24
1970.0 29 31 27 26 25 24 22 13 15 10
2010.0 7 9 10 9 14 13 12 15 13 13
2050.0 13 11 13 14 17 17 15 15 21 24
2090.0 23 25 25 22 21 17 19 12 7 9
2130.0 7 9 7 4 3 0 2 2 1 0
2170.0 2 3 1 2 2 0 3 1 1 0
2210.0 5 6 14 15 19 20 28 33 34 38
2250.0 46 46 49 45 45 48 50 53 54 53
2290.0 55 64 65 66 72 74 71 66 79 73
2330.0 72 74 73 72 75 72 72 58 73 83
2370.0 88 90 89 91 84 73 73 72 73 76
2410.0 79 78 79 80 78 79 78 83 87 89
2450.0 90 92 100 103 112 122 132 140 151 157
2490.0 160 166 170 169 170 171 172 176 177 176
2530.0 172 171 165 162 158 156 160 160 156 164
2570.0 169 176 185 193 198 209 215 227 232 240
2610.0 247 252 262 266 272 274 276 282 287 299
2650.0 308 319 332 338 349 361 364 358 351 344
2690.0 333 326 326 322 316 317 318 318 309 312
2730.0 314 319 317 324 328 330 336 341 347 356
2770.0 362 364 368 368 371 381 389 396 409 412
2810.0 421 439 456 484 530 595 686 824 1042 1363
2850.0 1747 2078 2356 2602 2799 2941 2928 2800 2470 2153
2890.0 1865 1733 1757 1867 1943 2062 2161 2312 2635 3204
2930.0 4042 5202 6857 8120 8913 10000 9154 7510 5760 3668
2970.0 2109 1456 1158 973 811 690 608 576 578 593
3010.0 631 661 659 647 602 552 504 465 438 410
3050.0 389 369 354 336 325 317 301 293 278 275
3090.0 262 252 247 239 232 211 206 195 188 176
3130.0 167 165 164 155 152 148 139 135 134 124
3170.0 128 128 127 129 122 129 126 128 126 128
3210.0 124 128 127 125 118 123 115 114 113 112
3250.0 99 101 104 90 84 79 65 77 68 62
3290.0 63 64 53 36 43 50 35 37 46 40
3330.0 27 28 37 40 39 29 42 36 37 31
3370.0 37 38 33 35 39 40 44 28 35 35
3410.0 51 44 46 47 47 60 71 73 73 66
3450.0 61 63 70 76 64 74 80 96 105 93
3490.0 84 76 54 48 41 45 35 25 32 24
3530.0 12 26 25 27 36 34 46 55 74 83
3570.0 100 101 113 127 92 66 58 55 62 40
3610.0 27 39 23 20 11 36 1 7 10 3
3650.0 19 9 11 20 19 18 19 28 19 21
3690.0 21 6 19 26 19 19 24 14 27 29
3730.0 29 38 29 15 34 31 40 23 33 44
3770.0 48 39 26 44 39 38 33 41 46 41
3810.0 41 49 52 52 29 42 32 31 41 35
3850.0 49 47 32 33 31 34 41 43 31 30
3890.0 34 27 32 60 55 37 30 49 41 30
3930.0 40 46 38 27 47 55 42 36 31 40
##END=
