##TITLE=4-Hydroxy-2-methylacetophenone
##JCAMP-DX=4.24
##DATA TYPE=INFRARED SPECTRUM
##ORIGIN=Sadtler Research Labs Under US-EPA Contract
##OWNER=NIST Standard Reference Data Program
##CAS REGISTRY NO=875-59-2
##MOLFORM=C 9 H 10 O 2
##XUNITS=1/CM
##YUNITS=ABSORBANCE
##XFACTOR=1.0
##YFACTOR=0.000049512
##DELTAX=4.0
##FIRSTX=450.0
##LASTX=3966.0
##FIRSTY=0.011784
##MAXX=3966
##MINX=450
##MAXY=0.49512
##MINY=0
##NPOINTS=880
##XYDATA=(X++(Y..Y))
450.0 238 328 114 4 129 270 309 342 293 174
490.0 208 216 288 152 183 63 12 113 362 461
530.0 566 724 837 984 1021 1138 1129 803 632 584
570.0 531 669 808 831 979 1021 1043 1203 1210 1074
610.0 881 639 472 366 441 473 512 481 379 240
650.0 216 202 212 268 246 205 241 291 452 469
690.0 369 336 194 205 231 230 278 175 255 337
730.0 386 415 315 313 266 232 225 344 415 475
770.0 520 477 583 757 949 1179 1411 1801 1658 1732
810.0 1595 1606 1358 979 808 671 755 822 946 1163
850.0 978 978 948 878 959 927 775 607 528 519
890.0 462 465 419 388 295 325 384 521 574 634
930.0 686 697 703 630 726 815 1061 1416 1968 2299
970.0 2366 2132 1756 1234 983 894 997 1143 1238 1337
1010.0 1423 1570 1725 1466 1212 1069 914 961 922 955
1050.0 957 982 906 822 918 893 918 932 927 964
1090.0 953 1033 915 1129 1326 1367 1845 2668 3485 3769
1130.0 3622 3023 2259 2009 2269 2946 3859 4654 4963 5029
1170.0 4725 4338 4500 5177 6254 7334 8258 8634 7704 6288
1210.0 4663 3276 2519 2364 2667 3393 4672 6456 8332 9889
1250.0 10000 8856 6927 4909 3384 2412 2002 1937 2171 2714
1290.0 3503 4082 4222 3857 3048 2039 1323 948 782 696
1330.0 630 656 767 981 1383 1943 2489 2783 2767 2484
1370.0 1963 1521 1275 1153 1034 958 872 733 738 767
1410.0 906 1068 1234 1452 1676 1750 1778 1686 1761 1759
1450.0 1757 1703 1434 1418 1171 1005 748 785 868 1004
1490.0 1091 1305 1271 1253 952 791 732 625 523 571
1530.0 621 574 642 564 780 950 1084 1191 1651 2378
1570.0 3140 4026 4556 4953 4934 4736 4777 5136 5576 5806
1610.0 5754 5336 4495 3708 2825 2083 1457 1005 912 732
1650.0 744 558 825 876 963 1015 1255 1596 2238 3421
1690.0 5551 7555 8514 8651 7397 4948 3033 1874 1492 1307
1730.0 1159 888 788 614 541 436 424 412 389 437
1770.0 434 470 629 697 769 802 723 715 590 505
1810.0 379 266 195 146 94 73 103 98 90 40
1850.0 107 130 131 130 119 61 111 121 132 131
1890.0 108 106 89 90 99 101 110 80 91 83
1930.0 93 89 86 66 45 40 38 50 50 50
1970.0 40 40 40 41 62 46 34 23 20 18
2010.0 31 47 49 49 50 50 50 53 48 46
2050.0 30 19 19 19 19 31 20 9 11 12
2090.0 20 32 31 31 21 10 17 19 32 21
2130.0 10 1 10 23 19 28 17 10 22 27
2170.0 38 40 41 30 21 21 29 32 31 20
2210.0 10 15 19 32 39 31 20 11 10 22
2250.0 21 31 20 10 16 14 37 40 40 32
2290.0 40 50 72 93 101 102 87 81 91 118
2330.0 126 131 104 63 71 122 143 141 123 81
2370.0 94 85 96 96 75 53 40 50 61 62
2410.0 82 80 70 50 50 63 67 71 66 59
2450.0 50 71 71 81 70 62 62 62 66 71
2490.0 71 64 54 40 40 41 51 29 29 30
2530.0 23 44 63 67 72 62 58 61 62 62
2570.0 50 41 30 18 43 45 56 43 34 30
2610.0 40 61 61 61 39 30 11 34 25 33
2650.0 21 11 0 10 21 30 31 20 11 1
2690.0 21 21 24 25 8 12 10 21 43 55
2730.0 46 46 57 83 91 109 92 77 63 44
2770.0 53 74 57 57 56 48 62 73 81 83
2810.0 66 75 82 92 115 118 128 129 120 151
2850.0 185 231 256 264 275 286 309 332 331 332
2890.0 313 314 337 359 399 425 444 503 605 753
2930.0 936 1094 1199 1205 1166 1061 947 879 838 808
2970.0 799 835 919 999 985 937 885 832 863 960
3010.0 1088 1171 1169 1130 1051 982 955 909 869 791
3050.0 724 661 631 611 580 558 530 513 498 486
3090.0 438 382 321 288 276 277 288 268 216 184
3130.0 146 129 137 125 113 98 77 75 76 98
3170.0 97 85 80 46 73 89 94 84 68 64
3210.0 46 56 78 57 55 39 23 32 61 59
3250.0 66 37 32 18 36 68 70 58 51 38
3290.0 45 67 87 75 79 56 74 87 99 112
3330.0 101 83 63 84 103 120 115 119 115 114
3370.0 148 190 204 204 171 133 114 127 107 111
3410.0 77 58 59 59 90 92 73 32 43 42
3450.0 48 77 74 52 33 18 37 50 45 52
3490.0 23 24 26 27 29 48 40 29 19 18
3530.0 41 51 44 45 25 39 48 86 88 67
3570.0 5 46 68 103 97 43 68 45 46 79
3610.0 63 110 131 156 291 469 1085 2056 3304 4204
3650.0 4076 3606 2616 1400 691 326 141 51 90 113
3690.0 59 99 119 90 99 89 75 148 150 133
3730.0 132 83 92 141 87 105 95 141 162 184
3770.0 215 239 239 210 216 229 256 240 188 202
3810.0 200 214 195 206 238 233 205 182 215 258
3850.0 265 196 230 225 205 216 247 268 248 236
3890.0 217 251 272 280 280 273 275 265 296 297
3930.0 299 286 278 270 292 348 57 81 83 84
##END=
