##TITLE=Benzene, 1,2,3,4-tetrachloro-5-nitro-
##JCAMP-DX=4.24
##DATA TYPE=INFRARED SPECTRUM
##ORIGIN=Sadtler Research Labs Under US-EPA Contract
##OWNER=NIST Standard Reference Data Program
##CAS REGISTRY NO=879-39-0
##MOLFORM=C 6 H Cl 4 N O 2
##XUNITS=1/CM
##YUNITS=ABSORBANCE
##XFACTOR=1.0
##YFACTOR=0.000062347
##DELTAX=4.0
##FIRSTX=450.0
##LASTX=3966.0
##FIRSTY=0.000125
##MAXX=3966
##MINX=450
##MAXY=0.62347
##MINY=0
##NPOINTS=880
##XYDATA=(X++(Y..Y))
450.0 2 518 558 544 674 309 324 633 118 357
490.0 381 311 152 607 420 456 451 114 308 333
530.0 207 303 468 312 577 949 1133 1149 1204 689
570.0 422 303 243 301 270 178 105 227 178 71
610.0 197 69 68 123 172 154 253 293 372 576
650.0 1437 2824 4267 4207 3401 1814 1312 964 535 284
690.0 249 108 129 125 122 138 203 164 164 202
730.0 194 263 215 225 303 538 511 473 314 249
770.0 378 537 1066 1994 2751 2552 1729 706 347 241
810.0 196 234 181 233 303 422 809 1286 1737 1689
850.0 1316 743 508 514 666 923 1107 1028 823 573
890.0 379 285 265 319 380 511 823 1343 1864 1896
930.0 1454 802 373 188 88 92 85 43 44 17
970.0 31 11 12 30 32 36 29 28 65 67
1010.0 125 120 145 152 130 157 103 81 89 55
1050.0 56 51 54 80 73 97 107 180 251 323
1090.0 543 878 1132 1166 835 487 266 194 157 142
1130.0 136 133 151 185 252 382 572 831 1108 1371
1170.0 1558 1568 1395 1207 1100 1136 1199 1135 946 620
1210.0 376 246 224 251 298 424 511 526 486 357
1250.0 339 417 470 519 522 478 424 371 365 374
1290.0 453 496 521 594 638 789 1087 1677 2920 5037
1330.0 7841 10000 9835 7583 5194 4380 5009 5772 6025 5348
1370.0 3734 2303 1643 1746 2209 3118 4294 5304 5903 5701
1410.0 4410 2872 1369 746 481 393 350 306 356 304
1450.0 334 298 263 252 274 260 293 298 393 383
1490.0 431 542 568 787 818 1130 1474 1751 2419 2859
1530.0 3448 4107 4339 4889 5107 5880 6855 7884 8957 8382
1570.0 7736 6604 5260 4336 3445 2779 2200 1765 1325 974
1610.0 773 544 501 383 316 302 225 207 173 144
1650.0 116 110 121 92 83 119 39 139 28 99
1690.0 70 80 68 59 84 65 62 51 74 95
1730.0 92 117 149 182 149 152 135 129 107 96
1770.0 68 44 72 31 33 46 11 56 9 46
1810.0 45 26 61 28 53 21 46 53 40 50
1850.0 53 62 71 44 40 33 48 48 48 48
1890.0 50 36 48 41 51 44 41 40 32 39
1930.0 48 47 49 43 40 61 51 51 60 47
1970.0 55 40 52 51 50 46 40 52 49 47
2010.0 52 45 47 45 45 49 43 45 37 36
2050.0 39 35 43 37 30 42 38 44 38 43
2090.0 35 33 38 39 39 43 39 51 43 44
2130.0 43 36 45 43 40 45 41 41 44 44
2170.0 47 41 44 42 41 45 41 45 40 43
2210.0 50 37 41 44 48 48 46 46 43 50
2250.0 46 46 47 42 41 38 32 35 43 42
2290.0 40 37 29 30 21 10 13 3 10 2
2330.0 3 11 2 51 2 66 2 27 2 2
2370.0 2 2 3 28 38 44 49 51 53 58
2410.0 53 49 50 40 38 43 39 40 42 43
2450.0 50 60 66 74 81 97 104 110 102 95
2490.0 81 73 65 62 59 58 51 48 50 41
2530.0 44 46 47 50 54 49 52 54 62 61
2570.0 58 63 59 60 59 52 54 50 53 49
2610.0 52 46 49 48 51 50 51 50 60 54
2650.0 56 65 74 76 79 84 89 95 101 104
2690.0 116 110 104 103 95 91 86 90 89 83
2730.0 82 84 82 85 77 87 92 93 95 99
2770.0 100 100 92 85 79 69 67 73 69 62
2810.0 66 70 65 72 71 74 77 82 87 93
2850.0 98 106 116 122 127 136 147 155 179 189
2890.0 199 207 205 209 218 204 199 197 197 182
2930.0 174 158 153 146 127 114 110 103 104 101
2970.0 90 88 84 82 71 72 64 61 66 61
3010.0 61 68 58 56 55 58 56 54 63 68
3050.0 65 69 84 108 119 152 207 278 338 343
3090.0 299 248 195 169 152 141 137 138 133 145
3130.0 145 142 138 118 110 93 87 71 74 65
3170.0 62 65 61 66 53 54 63 58 60 56
3210.0 49 53 53 50 60 61 53 62 54 52
3250.0 63 50 55 59 56 49 48 64 48 46
3290.0 53 54 49 47 61 70 67 47 61 65
3330.0 63 70 54 46 50 58 69 71 53 53
3370.0 55 60 70 51 52 63 71 62 63 66
3410.0 61 56 48 63 70 68 65 60 66 60
3450.0 75 53 62 69 72 60 64 74 63 69
3490.0 58 74 49 73 69 89 45 77 68 73
3530.0 77 67 53 70 63 59 52 95 37 72
3570.0 54 83 58 51 72 64 76 30 68 38
3610.0 80 82 71 68 81 59 109 24 62 61
3650.0 103 87 43 101 28 118 0 146 25 63
3690.0 84 55 81 51 65 66 52 68 56 101
3730.0 68 85 130 30 160 26 117 6 53 83
3770.0 18 75 29 40 72 14 56 40 80 83
3810.0 0 93 7 93 2 74 63 78 117 30
3850.0 80 66 158 11 87 70 29 91 45 85
3890.0 52 106 59 78 95 79 89 2 79 83
3930.0 85 62 65 87 62 76 56 120 139 64
##END=
