##TITLE=Phenol, 2,4,6-trichloro-
##JCAMP-DX=4.24
##DATA TYPE=INFRARED SPECTRUM
##ORIGIN=Sadtler Research Labs Under US-EPA Contract
##OWNER=NIST Standard Reference Data Program
##CAS REGISTRY NO=88-06-2
##MOLFORM=C 6 H 3 Cl 3 O
##XUNITS=1/CM
##YUNITS=ABSORBANCE
##XFACTOR=1.0
##YFACTOR=0.000132056
##DELTAX=4.0
##FIRSTX=450.0
##LASTX=3966.0
##FIRSTY=0.026939
##MAXX=3966
##MINX=450
##MAXY=1.32056
##MINY=0
##NPOINTS=880
##XYDATA=(X++(Y..Y))
450.0 204 109 185 151 205 117 148 74 79 148
490.0 142 114 120 99 98 111 139 126 72 101
530.0 68 64 140 158 140 126 259 394 478 895
570.0 850 760 594 379 206 103 127 91 138 192
610.0 166 161 176 75 79 59 73 58 6 57
650.0 27 70 70 36 90 202 208 306 312 314
690.0 355 259 304 377 477 670 964 1380 2415 3566
730.0 3940 3635 2349 1035 557 537 428 421 352 286
770.0 304 341 451 734 1186 1655 2004 2143 2168 2349
810.0 2471 2420 1999 1129 491 179 106 136 288 652
850.0 1062 1586 2502 2007 1925 1607 1014 456 199 121
890.0 98 84 98 117 138 142 127 125 108 84
930.0 73 56 44 39 47 53 52 56 66 74
970.0 91 81 68 57 42 45 44 44 55 54
1010.0 64 57 75 63 64 61 40 53 60 60
1050.0 71 66 106 124 152 204 210 215 175 117
1090.0 125 134 202 280 410 491 495 440 346 254
1130.0 235 262 331 460 638 957 1454 2346 3529 4311
1170.0 4253 3414 2038 1033 636 572 699 973 1389 1837
1210.0 2060 2286 2718 2957 2895 2425 1420 600 320 334
1250.0 353 471 731 1221 1821 2137 2191 1824 1202 767
1290.0 468 255 233 332 606 1281 2570 3923 4184 3632
1330.0 2117 682 192 112 105 166 250 374 418 403
1370.0 384 335 474 800 1360 2249 2881 2924 2421 1513
1410.0 833 763 883 993 1011 939 837 1007 1329 1762
1450.0 2346 2916 3755 5340 7536 10000 9577 7841 4313 1710
1490.0 682 432 317 327 284 235 210 141 84 99
1530.0 73 68 55 44 95 197 318 499 915 1292
1570.0 1696 1890 1698 1331 918 595 404 240 159 109
1610.0 78 69 34 50 23 47 22 17 29 32
1650.0 9 5 53 36 52 32 20 46 18 5
1690.0 29 48 29 66 116 169 158 139 178 186
1730.0 182 125 137 90 52 17 20 16 15 26
1770.0 5 2 16 7 14 7 1 10 0 28
1810.0 20 17 27 18 13 12 16 29 12 7
1850.0 16 27 25 20 18 8 30 33 34 32
1890.0 26 26 28 28 20 20 17 19 11 27
1930.0 31 31 36 31 41 46 41 42 37 36
1970.0 35 39 38 38 44 42 52 62 64 58
2010.0 49 37 28 27 24 19 20 15 14 14
2050.0 15 12 16 14 12 15 16 17 16 16
2090.0 13 15 14 14 12 13 15 15 14 18
2130.0 21 21 19 18 18 17 15 12 11 11
2170.0 15 14 17 20 22 24 27 28 30 29
2210.0 24 21 21 20 21 21 24 28 31 34
2250.0 34 30 28 26 24 25 24 29 29 36
2290.0 45 50 61 64 69 83 73 70 65 58
2330.0 54 46 62 18 75 33 59 23 41 47
2370.0 44 44 51 53 48 38 28 27 27 20
2410.0 24 22 24 26 27 32 35 34 35 33
2450.0 31 30 32 33 36 47 52 61 67 68
2490.0 68 63 55 42 32 22 19 22 27 30
2530.0 32 38 41 43 41 36 31 20 18 12
2570.0 15 10 12 12 14 19 16 18 19 21
2610.0 22 23 25 29 29 34 34 35 33 25
2650.0 22 17 17 20 19 20 16 18 18 18
2690.0 22 18 24 21 19 22 24 25 26 30
2730.0 32 32 34 33 33 30 29 23 24 20
2770.0 22 26 27 30 30 28 30 28 27 28
2810.0 27 21 21 26 27 31 31 39 40 43
2850.0 46 48 48 45 41 37 39 39 40 44
2890.0 43 38 33 28 24 22 21 18 19 23
2930.0 23 27 25 25 28 23 23 21 21 19
2970.0 24 25 21 26 19 24 25 24 28 25
3010.0 26 24 20 23 25 29 23 24 27 24
3050.0 24 25 19 21 22 21 24 29 43 64
3090.0 80 86 76 54 33 22 22 16 22 15
3130.0 24 22 25 25 22 30 38 43 50 54
3170.0 55 47 36 31 33 28 22 24 30 28
3210.0 33 36 36 39 32 33 31 28 27 24
3250.0 29 30 27 34 38 62 67 63 58 45
3290.0 39 27 26 23 23 23 24 21 22 29
3330.0 23 25 20 24 20 21 23 24 24 28
3370.0 25 30 25 32 23 26 21 19 26 18
3410.0 14 19 24 32 20 27 29 25 28 18
3450.0 14 26 19 22 25 30 31 19 26 23
3490.0 30 34 20 26 21 23 35 34 41 32
3530.0 47 61 71 104 122 196 347 705 1887 3935
3570.0 5653 6010 5238 3043 1547 705 320 195 131 87
3610.0 69 54 48 57 35 45 42 66 46 54
3650.0 18 50 40 53 37 25 35 18 42 32
3690.0 39 29 50 38 47 35 30 34 38 26
3730.0 56 37 26 69 17 62 41 67 52 54
3770.0 56 60 65 61 61 69 53 60 42 71
3810.0 56 70 40 69 63 64 51 60 42 60
3850.0 54 43 94 104 116 90 109 83 53 47
3890.0 61 47 53 34 47 82 44 57 56 75
3930.0 42 43 81 80 84 63 71 51 64 73
##END=
