##TITLE=Butanoic acid, 2-ethyl-
##JCAMP-DX=4.24
##DATA TYPE=INFRARED SPECTRUM
##ORIGIN=Sadtler Research Labs Under US-EPA Contract
##OWNER=NIST Standard Reference Data Program
##CAS REGISTRY NO=88-09-5
##MOLFORM=C 6 H 12 O 2
##XUNITS=1/CM
##YUNITS=ABSORBANCE
##XFACTOR=1.0
##YFACTOR=0.000155661
##DELTAX=4.0
##FIRSTX=450.0
##LASTX=3966.0
##FIRSTY=0.025373
##MAXX=3966
##MINX=450
##MAXY=1.55661
##MINY=0
##NPOINTS=880
##XYDATA=(X++(Y..Y))
450.0 163 53 27 26 101 105 157 152 237 241
490.0 269 294 281 317 238 227 217 279 274 356
530.0 333 412 444 501 610 674 831 875 1005 1187
570.0 1430 1617 1815 1947 1920 1978 1760 1632 1509 1391
610.0 1331 1221 1128 994 927 781 613 472 331 253
650.0 217 158 146 131 116 59 69 119 36 98
690.0 87 101 119 131 174 174 247 254 334 511
730.0 619 700 845 922 887 861 716 609 496 470
770.0 427 447 421 397 370 277 243 192 165 94
810.0 79 52 49 40 37 64 59 81 94 111
850.0 103 116 104 85 82 59 56 37 68 68
890.0 94 117 138 151 173 199 190 207 199 183
930.0 147 130 102 74 66 50 50 34 50 35
970.0 42 30 31 27 34 47 53 72 85 122
1010.0 153 195 239 284 326 368 446 494 583 719
1050.0 889 1061 1230 1461 1582 1582 1647 1811 2050 2490
1090.0 3003 3532 4032 4333 4395 4214 4026 3698 3428 3120
1130.0 2862 2547 2220 1984 1838 1839 1952 2203 2418 2594
1170.0 2643 2570 2378 1945 1477 1112 828 594 460 374
1210.0 333 309 294 285 263 257 242 257 274 307
1250.0 330 354 379 410 455 507 584 642 704 715
1290.0 711 677 630 545 485 429 382 359 355 365
1330.0 371 389 388 411 437 444 462 466 495 518
1370.0 556 614 714 828 915 1024 1006 936 844 712
1410.0 557 441 317 273 228 216 217 243 324 422
1450.0 590 752 908 1011 1015 997 818 632 485 334
1490.0 207 158 107 86 55 31 50 34 22 37
1530.0 40 44 34 15 22 42 36 14 34 46
1570.0 40 36 37 32 43 31 38 28 38 30
1610.0 31 36 22 37 22 49 30 40 48 53
1650.0 29 44 60 59 69 67 62 86 70 73
1690.0 99 123 114 156 207 318 429 609 817 971
1730.0 1041 1061 1177 1357 1692 2309 3426 4828 6423 7748
1770.0 9558 10000 7768 6368 4797 3156 2019 1452 1152 975
1810.0 811 661 529 403 303 222 177 136 106 80
1850.0 80 76 67 63 52 44 51 51 46 44
1890.0 35 33 32 31 29 27 27 24 15 20
1930.0 19 18 17 11 12 18 16 16 14 12
1970.0 10 12 14 15 15 10 11 16 19 18
2010.0 18 15 10 16 12 10 5 10 7 14
2050.0 17 10 10 3 2 4 7 10 12 12
2090.0 10 11 8 7 6 5 5 5 6 7
2130.0 6 8 9 9 11 9 6 10 11 9
2170.0 12 18 19 24 25 30 30 34 33 32
2210.0 31 31 34 30 28 29 27 25 23 21
2250.0 20 18 16 18 14 16 12 16 12 15
2290.0 15 12 15 15 15 16 16 14 18 12
2330.0 11 10 11 17 4 16 20 21 9 5
2370.0 8 3 5 12 17 15 19 19 20 23
2410.0 21 19 24 22 18 16 15 12 10 7
2450.0 5 10 14 9 14 11 17 16 20 16
2490.0 19 16 16 16 15 15 11 14 14 14
2530.0 11 11 16 8 12 11 15 18 19 20
2570.0 21 20 21 17 15 20 16 21 22 24
2610.0 29 30 33 33 32 37 37 32 26 28
2650.0 32 36 38 44 48 48 38 38 37 32
2690.0 34 38 41 41 48 50 46 44 50 52
2730.0 52 58 63 78 82 91 100 101 100 99
2770.0 101 93 93 91 99 105 115 115 123 125
2810.0 129 128 128 134 136 154 164 185 206 232
2850.0 264 307 369 471 617 795 1032 1343 1633 1779
2890.0 1879 1773 1613 1451 1273 1205 1212 1283 1410 1573
2930.0 1853 2224 2639 2960 3173 3245 3170 3055 3276 3797
2970.0 4460 5300 5259 4533 3817 2760 1771 1072 697 500
3010.0 399 332 291 267 255 235 229 224 216 210
3050.0 206 201 204 193 187 189 187 185 176 165
3090.0 169 156 154 155 151 152 145 139 139 151
3130.0 143 148 145 147 146 146 147 152 149 147
3170.0 153 138 138 126 127 107 107 102 100 101
3210.0 99 98 100 90 94 95 99 83 82 82
3250.0 76 80 81 76 66 69 78 62 67 69
3290.0 56 56 57 61 67 56 58 62 63 51
3330.0 56 45 47 49 52 52 57 51 48 54
3370.0 36 52 49 59 44 52 44 31 47 48
3410.0 42 32 37 40 27 42 40 34 36 43
3450.0 36 33 26 17 30 26 44 31 28 37
3490.0 41 46 50 50 55 77 75 93 112 113
3530.0 89 103 105 108 148 247 468 913 1549 2139
3570.0 2572 2765 2561 2119 1460 784 357 168 93 60
3610.0 68 48 45 45 49 35 43 14 16 35
3650.0 23 28 35 21 15 23 35 14 6 12
3690.0 25 31 17 2 15 7 12 19 35 35
3730.0 17 20 21 21 21 18 8 16 21 37
3770.0 22 18 31 12 27 8 18 25 26 17
3810.0 5 11 25 4 14 24 18 6 8 2
3850.0 4 27 22 31 28 21 49 49 30 28
3890.0 2 12 6 47 33 40 36 14 6 40
3930.0 17 37 27 33 0 28 20 26 51 59
##END=
