##TITLE=Benzenamine, 2,4,6-trimethyl-
##JCAMP-DX=4.24
##DATA TYPE=INFRARED SPECTRUM
##ORIGIN=Sadtler Research Labs Under US-EPA Contract
##OWNER=NIST Standard Reference Data Program
##CAS REGISTRY NO=88-05-1
##MOLFORM=C 9 H 13 N
##XUNITS=1/CM
##YUNITS=ABSORBANCE
##XFACTOR=1.0
##YFACTOR=0.000072589
##DELTAX=4.0
##FIRSTX=450.0
##LASTX=3966.0
##FIRSTY=0.120135
##MAXX=3966
##MINX=450
##MAXY=0.72589
##MINY=0
##NPOINTS=880
##XYDATA=(X++(Y..Y))
450.0 1655 1502 1381 1273 1256 1225 1116 1149 1305 1339
490.0 1179 1139 1336 1346 1424 1458 1493 1537 1612 1567
530.0 1577 1537 1497 1646 1764 1730 1768 1813 1839 1709
570.0 1593 1567 1441 1408 1391 1436 1524 1407 1469 1474
610.0 1499 1502 1498 1510 1471 1538 1441 1443 1443 1553
650.0 1650 1703 1811 1934 1993 1918 1835 1692 1498 1324
690.0 1200 1114 1060 1065 1069 1155 1245 1407 1465 1586
730.0 1619 1625 1445 1327 1136 949 815 659 541 427
770.0 369 339 317 297 265 295 342 357 277 304
810.0 275 294 230 261 286 283 501 831 1507 1490
850.0 2837 3534 1902 1597 1141 525 308 97 139 70
890.0 111 53 89 73 83 84 63 70 20 51
930.0 18 16 18 47 36 26 52 45 78 83
970.0 114 129 181 233 302 388 532 776 1095 1363
1010.0 1463 1454 1229 869 522 391 323 283 290 259
1050.0 266 254 248 235 241 255 271 288 278 284
1090.0 281 286 254 246 230 197 178 163 167 169
1130.0 215 279 391 566 823 1126 1220 1137 877 594
1170.0 212 51 12 9 9 27 37 49 66 102
1210.0 152 193 268 327 415 551 873 1535 2456 3172
1250.0 3476 3441 2931 1928 1178 908 601 358 295 368
1290.0 585 957 1486 1854 1926 1746 1286 682 270 139
1330.0 98 83 102 93 50 61 58 85 134 174
1370.0 246 387 471 470 560 495 407 387 361 411
1410.0 464 468 545 562 642 852 1330 1891 2311 2586
1450.0 2802 2678 2460 2358 2396 2595 3168 4034 5601 7885
1490.0 9613 10000 9139 7419 4751 2719 1792 1379 1186 961
1530.0 854 749 693 667 569 491 478 547 491 477
1570.0 503 544 578 627 679 823 1043 1444 1953 2381
1610.0 2565 2616 2756 2949 3389 3722 3901 3643 2995 2200
1650.0 1596 1148 772 564 441 375 345 256 279 283
1690.0 223 210 285 281 257 255 335 473 480 463
1730.0 468 486 340 268 270 295 258 247 211 152
1770.0 140 116 63 67 55 59 71 47 69 33
1810.0 40 41 27 35 47 54 36 27 47 67
1850.0 44 27 38 43 68 94 74 78 93 102
1890.0 110 110 106 107 110 111 113 114 117 91
1930.0 79 72 66 82 76 67 67 69 55 52
1970.0 50 48 40 39 37 45 48 36 38 47
2010.0 43 51 45 34 25 22 12 19 24 26
2050.0 35 37 34 44 47 35 37 24 27 37
2090.0 39 38 40 33 30 29 34 27 33 32
2130.0 27 40 37 48 49 59 50 46 46 47
2170.0 50 40 36 35 33 38 35 42 44 48
2210.0 45 43 41 37 39 30 30 32 34 36
2250.0 37 44 53 48 44 36 30 32 36 41
2290.0 43 52 44 52 48 46 50 58 64 53
2330.0 63 60 55 66 49 36 61 58 28 25
2370.0 4 7 6 25 49 54 66 71 63 64
2410.0 64 57 47 43 51 37 41 41 38 44
2450.0 34 29 43 35 38 40 47 57 65 57
2490.0 60 56 63 64 62 52 46 48 51 42
2530.0 41 44 49 50 48 48 48 52 52 37
2570.0 29 22 17 14 21 20 39 48 56 59
2610.0 77 71 74 68 54 48 46 53 48 46
2650.0 40 44 46 46 39 26 27 29 34 28
2690.0 29 34 36 57 64 60 62 76 98 138
2730.0 232 354 479 540 563 477 332 206 149 130
2770.0 124 121 109 126 121 133 149 179 194 213
2810.0 259 309 345 394 426 476 540 652 834 1095
2850.0 1515 2117 2905 3770 4587 5141 5338 5152 4717 4158
2890.0 3644 3368 3385 3697 4190 4828 5596 6356 7117 7674
2930.0 7833 7646 6983 5889 4714 3761 3050 2600 2373 2429
2970.0 2808 3332 3653 3727 3665 3314 2960 2899 3134 3645
3010.0 4209 4539 4508 4199 3580 2892 2319 1933 1659 1412
3050.0 1229 1055 898 776 665 598 534 486 458 422
3090.0 391 378 353 322 315 255 252 239 197 187
3130.0 166 138 127 129 127 115 109 113 108 101
3170.0 95 84 80 74 55 66 67 92 95 102
3210.0 111 119 128 116 123 109 115 97 78 73
3250.0 50 49 60 58 52 41 53 61 62 60
3290.0 44 52 44 38 65 49 40 54 30 45
3330.0 35 20 35 33 19 31 37 15 23 22
3370.0 25 64 30 42 80 89 113 193 278 392
3410.0 499 529 488 409 307 231 175 125 129 129
3450.0 120 126 163 163 192 264 390 555 780 961
3490.0 1100 1126 1063 879 700 514 402 315 214 185
3530.0 161 130 107 110 80 83 82 65 88 71
3570.0 87 73 73 58 54 59 41 53 45 37
3610.0 29 31 42 54 53 80 59 54 76 41
3650.0 26 71 40 56 44 60 51 26 32 33
3690.0 7 22 21 74 76 52 65 31 36 55
3730.0 35 65 22 12 26 4 53 38 31 23
3770.0 41 55 46 36 58 74 39 54 37 11
3810.0 19 32 29 21 3 30 13 2 27 0
3850.0 23 39 29 45 34 75 73 41 44 58
3890.0 34 59 18 7 27 60 62 40 48 36
3930.0 58 35 27 26 33 15 26 40 90 41
##END=
