##TITLE=Benzenesulfonamide, 2-methyl-
##JCAMP-DX=4.24
##DATA TYPE=INFRARED SPECTRUM
##ORIGIN=Sadtler Research Labs Under US-EPA Contract
##OWNER=NIST Standard Reference Data Program
##CAS REGISTRY NO=88-19-7
##MOLFORM=C 7 H 9 N O 2 S
##XUNITS=1/CM
##YUNITS=ABSORBANCE
##XFACTOR=1.0
##YFACTOR=0.000058890
##DELTAX=4.0
##FIRSTX=450.0
##LASTX=3966.0
##FIRSTY=0.033449
##MAXX=3966
##MINX=450
##MAXY=0.5889
##MINY=0
##NPOINTS=880
##XYDATA=(X++(Y..Y))
450.0 568 710 532 750 509 773 724 918 855 1064
490.0 1126 1144 1245 1129 1113 988 1034 1006 1054 1185
530.0 1451 1803 2136 2487 2540 2651 2349 2132 1880 1817
570.0 1839 2177 2892 3938 5412 5891 6132 5451 4516 3288
610.0 2289 1754 1373 1178 1076 1026 940 917 875 876
650.0 837 819 795 777 811 910 1106 1516 1855 2004
690.0 2112 1844 1555 1367 1464 1633 1512 1367 1287 1203
730.0 1159 1314 1624 2195 2717 3457 4201 3605 2561 2064
770.0 1422 1010 827 815 798 809 858 922 1009 1091
810.0 1219 1353 1519 1748 2046 2452 2901 3436 3893 4183
850.0 4228 3957 3498 2907 2355 1901 1547 1280 1070 919
890.0 809 700 621 551 498 421 371 305 268 220
930.0 195 184 151 142 141 142 121 125 107 93
970.0 79 74 63 54 57 40 51 41 46 43
1010.0 53 66 63 87 100 146 170 222 259 323
1050.0 405 498 641 776 893 897 795 635 470 331
1090.0 254 210 184 174 154 174 197 263 372 539
1130.0 725 883 975 955 976 1158 1681 2673 4284 6477
1170.0 8602 9993 10000 8502 6228 3990 2472 1595 1096 807
1210.0 605 447 349 297 273 244 239 229 226 218
1250.0 233 254 293 342 429 601 769 876 879 821
1290.0 633 451 335 284 279 283 326 364 430 477
1330.0 584 711 932 1236 1713 2481 3536 5098 6894 8745
1370.0 9665 9502 8425 6660 4691 3122 2088 1438 1009 784
1410.0 630 602 589 608 623 703 780 841 920 991
1450.0 1102 1167 1287 1368 1436 1502 1444 1340 1162 952
1490.0 728 539 477 422 431 479 466 526 547 674
1530.0 775 952 1183 1410 1687 1810 1798 1682 1361 1147
1570.0 852 740 592 496 495 494 507 493 474 409
1610.0 343 279 204 175 115 120 58 66 24 55
1650.0 0 59 11 30 21 25 17 39 32 52
1690.0 63 65 84 94 79 75 70 55 38 43
1730.0 49 54 65 45 60 71 61 63 56 51
1770.0 46 30 21 39 26 49 32 67 69 81
1810.0 91 105 99 91 85 64 79 61 92 77
1850.0 85 58 48 36 36 34 25 34 25 43
1890.0 36 55 53 63 70 73 85 94 120 138
1930.0 149 141 128 116 94 98 97 107 105 101
1970.0 75 61 42 35 28 30 32 29 29 32
2010.0 30 29 32 30 32 30 28 32 31 33
2050.0 26 31 33 39 35 32 35 36 41 41
2090.0 44 41 43 47 51 54 57 62 59 57
2130.0 51 54 49 48 45 46 43 43 42 39
2170.0 43 39 44 46 46 47 48 52 49 55
2210.0 50 54 53 53 55 58 65 69 68 67
2250.0 65 59 59 58 59 56 56 65 62 65
2290.0 67 77 73 81 76 85 83 71 87 75
2330.0 80 86 78 76 104 75 83 73 76 72
2370.0 77 84 84 87 81 73 70 69 70 73
2410.0 74 71 72 66 69 65 64 65 65 67
2450.0 62 62 60 59 61 53 60 61 63 58
2490.0 66 64 72 76 75 78 81 86 89 96
2530.0 102 110 114 111 105 102 96 99 95 90
2570.0 86 78 83 83 81 84 85 78 78 78
2610.0 81 83 74 78 79 81 80 81 83 86
2650.0 79 75 78 74 71 67 64 60 55 52
2690.0 50 49 39 42 40 41 44 44 52 46
2730.0 50 59 59 65 73 74 73 77 78 73
2770.0 74 75 65 63 68 67 66 68 65 68
2810.0 68 73 74 76 84 87 92 101 113 123
2850.0 132 151 166 188 210 232 243 255 254 256
2890.0 250 239 235 232 238 245 266 288 321 380
2930.0 449 532 607 664 688 672 623 562 511 475
2970.0 469 486 501 505 498 474 440 414 366 345
3010.0 342 353 402 453 486 494 488 445 412 413
3050.0 469 592 798 1044 1288 1460 1475 1303 1034 763
3090.0 505 354 304 267 239 210 182 169 150 143
3130.0 148 138 142 133 130 119 116 106 112 102
3170.0 99 97 97 91 89 90 88 85 84 80
3210.0 85 83 88 89 85 81 100 103 103 96
3250.0 99 110 107 115 127 132 132 134 135 145
3290.0 136 130 130 122 132 133 125 132 148 157
3330.0 173 205 253 334 449 625 846 1103 1340 1474
3370.0 1513 1431 1260 1045 836 642 488 374 300 256
3410.0 229 224 199 205 224 238 285 324 421 527
3450.0 667 827 952 1073 1104 1118 1056 970 880 767
3490.0 664 570 467 384 325 274 232 208 183 165
3530.0 157 160 147 129 120 115 118 99 111 93
3570.0 120 113 117 119 100 115 100 109 80 108
3610.0 88 97 91 106 114 75 108 111 111 109
3650.0 47 73 84 85 118 51 92 31 103 68
3690.0 74 73 92 64 78 66 68 75 83 68
3730.0 74 53 62 45 50 65 24 81 43 62
3770.0 74 73 72 45 81 70 61 67 69 59
3810.0 76 44 61 35 73 77 45 66 80 47
3850.0 58 35 61 88 69 55 73 90 69 81
3890.0 65 76 46 55 54 90 84 75 106 75
3930.0 106 97 102 99 97 85 107 72 98 113
##END=
