##TITLE=Benzene, 1-chloro-2-(trifluoromethyl)-
##JCAMP-DX=4.24
##DATA TYPE=INFRARED SPECTRUM
##ORIGIN=Sadtler Research Labs Under US-EPA Contract
##OWNER=NIST Standard Reference Data Program
##CAS REGISTRY NO=88-16-4
##MOLFORM=C 7 H 4 Cl F 3
##XUNITS=1/CM
##YUNITS=ABSORBANCE
##XFACTOR=1.0
##YFACTOR=0.000139978
##DELTAX=4.0
##FIRSTX=450.0
##LASTX=3966.0
##FIRSTY=0.027156
##MAXX=3966
##MINX=450
##MAXY=1.39978
##MINY=0
##NPOINTS=880
##XYDATA=(X++(Y..Y))
450.0 194 345 362 265 156 76 58 87 31 117
490.0 58 62 84 51 75 149 44 100 14 26
530.0 85 30 95 68 48 38 29 63 36 51
570.0 31 55 56 39 75 88 120 237 99 121
610.0 79 50 54 49 66 39 136 277 550 568
650.0 674 513 253 61 42 29 28 38 2 46
690.0 35 75 110 259 496 517 598 530 452 266
730.0 506 530 322 384 525 1007 1288 2129 2575 1420
770.0 1224 660 356 336 233 240 158 94 31 52
810.0 33 37 29 37 46 31 62 38 48 39
850.0 41 28 41 51 57 63 52 46 30 29
890.0 21 36 31 34 42 41 45 34 47 37
930.0 43 49 69 101 118 174 174 123 81 63
970.0 35 38 24 43 38 50 54 75 92 113
1010.0 163 204 280 440 976 1684 2244 2550 2511 1822
1050.0 1233 826 476 270 174 155 145 157 203 333
1090.0 558 861 1337 1964 2565 2760 2895 2248 1448 1415
1130.0 1320 1213 1330 1575 2051 2771 3996 5437 7388 9183
1170.0 8434 8042 8587 6501 4907 3401 1823 1073 855 771
1210.0 711 629 523 398 306 250 218 205 210 285
1250.0 578 1117 1531 1615 1458 1038 562 493 557 616
1290.0 706 776 908 1355 2604 5112 8158 10000 9374 7271
1330.0 3443 1137 395 280 261 275 244 223 171 147
1370.0 115 103 97 89 75 60 54 41 62 59
1410.0 68 99 137 257 403 541 677 920 1246 1436
1450.0 1396 1268 856 452 332 362 466 545 590 558
1490.0 438 318 218 149 82 40 41 40 24 39
1530.0 27 36 32 31 47 65 74 63 102 151
1570.0 223 322 456 566 673 765 779 800 775 671
1610.0 508 337 216 186 182 192 165 117 79 46
1650.0 25 18 28 30 28 24 17 34 18 22
1690.0 31 35 19 36 55 69 58 35 43 41
1730.0 38 30 53 57 51 44 45 45 42 45
1770.0 35 31 35 31 29 21 20 26 37 64
1810.0 89 103 110 97 73 46 32 41 40 39
1850.0 44 46 36 27 23 20 31 30 35 34
1890.0 36 46 51 53 51 48 46 55 66 94
1930.0 105 103 87 70 59 60 66 77 81 71
1970.0 56 41 30 22 20 16 15 20 16 16
2010.0 17 18 18 18 23 20 20 19 25 25
2050.0 25 25 26 24 19 24 19 22 21 25
2090.0 25 32 37 43 42 35 30 20 19 15
2130.0 17 15 16 16 18 21 17 20 17 17
2170.0 20 21 21 23 24 23 26 28 26 27
2210.0 27 27 30 28 31 27 26 28 27 27
2250.0 27 29 27 31 33 36 35 39 44 46
2290.0 51 51 47 48 48 53 58 64 65 65
2330.0 61 66 51 42 37 46 63 55 29 0
2370.0 1 1 1 1 5 14 14 16 16 16
2410.0 18 14 14 14 18 17 21 23 21 19
2450.0 19 18 14 15 15 16 19 19 19 21
2490.0 18 17 12 10 10 6 11 8 10 7
2530.0 11 9 10 12 13 16 14 11 14 16
2570.0 16 14 16 16 14 8 12 13 16 11
2610.0 12 17 9 10 14 21 19 18 13 11
2650.0 5 5 6 7 10 10 8 3 8 8
2690.0 13 11 11 12 8 12 4 11 5 8
2730.0 6 8 9 10 3 2 1 2 3 2
2770.0 3 5 7 10 6 5 7 8 5 6
2810.0 5 9 11 6 5 10 4 3 10 8
2850.0 10 9 8 12 10 8 6 8 7 12
2890.0 1 20 13 17 16 20 28 23 17 16
2930.0 14 16 7 13 15 10 13 10 10 9
2970.0 7 5 14 7 23 22 28 30 35 39
3010.0 31 36 28 28 33 37 35 44 45 51
3050.0 49 60 56 78 111 173 241 302 339 340
3090.0 300 241 182 113 71 49 40 33 32 23
3130.0 20 18 13 19 32 22 38 37 32 24
3170.0 24 24 22 17 14 24 18 26 13 16
3210.0 15 15 10 15 14 19 14 15 23 21
3250.0 17 14 15 28 27 17 9 24 22 21
3290.0 20 19 27 20 18 21 29 28 19 24
3330.0 20 33 25 28 11 17 31 26 22 26
3370.0 16 24 26 21 11 23 41 27 22 12
3410.0 23 23 29 46 25 35 43 30 24 29
3450.0 41 31 21 18 25 26 29 33 29 36
3490.0 28 34 33 30 23 32 28 26 27 28
3530.0 20 30 31 29 26 24 32 25 31 32
3570.0 27 37 36 26 42 24 19 26 26 27
3610.0 24 37 30 31 29 34 25 30 21 33
3650.0 8 17 30 25 33 22 27 34 38 41
3690.0 50 18 25 8 33 24 30 34 31 38
3730.0 24 22 33 29 36 19 14 24 36 44
3770.0 29 25 15 37 26 15 18 32 39 46
3810.0 20 29 47 33 38 45 16 6 43 30
3850.0 43 50 33 21 39 36 31 28 11 14
3890.0 47 47 42 35 37 33 45 55 38 42
3930.0 51 37 62 63 64 48 46 36 41 81
##END=
