##TITLE=Phenol, 2-(1,1-dimethylethyl)-
##JCAMP-DX=4.24
##DATA TYPE=INFRARED SPECTRUM
##ORIGIN=Sadtler Research Labs Under US-EPA Contract
##OWNER=NIST Standard Reference Data Program
##CAS REGISTRY NO=88-18-6
##MOLFORM=C 10 H 14 O
##XUNITS=1/CM
##YUNITS=ABSORBANCE
##XFACTOR=1.0
##YFACTOR=0.000086871
##DELTAX=4.0
##FIRSTX=450.0
##LASTX=3966.0
##FIRSTY=0.019199
##MAXX=3966
##MINX=450
##MAXY=0.86871
##MINY=0
##NPOINTS=880
##XYDATA=(X++(Y..Y))
450.0 221 124 144 39 64 201 329 344 715 896
490.0 1200 1154 967 689 416 281 249 205 187 342
530.0 391 539 641 689 526 318 264 261 97 190
570.0 297 255 224 227 232 292 215 227 140 62
610.0 64 63 21 17 75 106 46 101 119 53
650.0 32 78 63 20 53 112 172 169 270 259
690.0 206 149 132 93 56 145 123 156 287 693
730.0 1586 2762 4447 6070 7480 6934 4404 3107 1661 750
770.0 332 218 168 118 141 230 446 796 1135 1292
810.0 1314 1137 686 387 288 225 258 433 693 939
850.0 1076 1114 981 620 353 182 83 68 69 61
890.0 27 57 60 48 42 83 99 117 188 280
930.0 358 329 313 260 182 140 141 113 87 115
970.0 128 125 144 180 182 182 203 238 206 237
1010.0 315 358 391 433 502 490 569 826 1241 1715
1050.0 1935 1946 1577 1148 825 844 1110 1669 2135 2191
1090.0 2148 1711 1074 643 502 592 905 1433 2085 2406
1130.0 2414 2156 1651 1297 1310 1787 2256 2609 2818 3137
1170.0 3319 3931 5118 6257 6417 6265 5631 4371 3281 2535
1210.0 1959 1558 1384 1478 1777 2347 3283 4234 4565 4556
1250.0 4101 2999 2217 1911 1847 1791 1711 1725 1934 2200
1290.0 2281 2251 1959 1549 1393 1504 1735 2194 2881 3530
1330.0 3541 3230 2684 1575 843 638 798 1153 1720 2364
1370.0 2428 2209 1741 1156 835 830 993 1070 990 894
1410.0 677 559 582 669 858 1282 2121 3371 4540 4744
1450.0 4955 4332 3176 2433 1985 1738 1856 2117 2506 2904
1490.0 3112 3273 3174 2700 2238 1662 924 443 329 268
1530.0 244 226 240 231 171 166 193 255 319 477
1570.0 719 967 1195 1369 1323 1173 1030 961 986 1089
1610.0 1064 939 751 503 326 182 137 128 86 77
1650.0 104 142 119 152 213 235 242 208 211 173
1690.0 113 112 145 123 116 113 102 93 67 56
1730.0 49 70 62 49 54 88 112 128 158 187
1770.0 199 187 151 158 120 126 130 124 116 106
1810.0 113 100 77 83 84 55 51 59 76 77
1850.0 84 93 85 77 92 109 107 156 212 243
1890.0 248 250 201 137 108 109 114 145 191 199
1930.0 178 142 109 67 35 37 45 38 28 37
1970.0 24 11 17 29 12 19 27 23 6 14
2010.0 26 19 13 25 41 31 44 64 66 63
2050.0 60 67 40 22 36 37 24 31 42 33
2090.0 29 43 41 24 21 26 13 1 14 14
2130.0 3 10 20 16 5 11 14 3 3 21
2170.0 23 12 24 29 21 7 14 16 7 10
2210.0 26 18 13 25 31 20 18 32 32 24
2250.0 39 46 34 29 41 33 26 35 50 48
2290.0 56 81 92 79 93 120 107 98 115 108
2330.0 64 59 68 55 12 79 114 79 16 25
2370.0 4 1 9 41 54 63 83 89 80 88
2410.0 103 94 94 105 106 89 77 81 69 57
2450.0 62 73 66 60 75 75 62 66 80 65
2490.0 53 59 52 34 41 54 53 45 61 69
2530.0 54 49 59 43 27 33 50 42 49 67
2570.0 70 52 51 58 41 35 49 50 36 39
2610.0 59 57 49 63 70 47 44 58 57 43
2650.0 49 56 43 34 52 59 42 44 49 47
2690.0 25 44 47 29 36 70 89 96 123 152
2730.0 132 112 123 106 85 101 114 101 88 103
2770.0 101 88 97 129 126 120 137 130 115 117
2810.0 152 159 163 189 219 213 219 254 281 316
2850.0 390 525 700 990 1412 1905 2404 2863 3119 3154
2890.0 3078 2965 2863 2800 2906 3187 3535 3849 4059 4074
2930.0 3902 3733 3743 3952 4399 5281 6524 7897 9134 9844
2970.0 10000 9340 7685 5560 3705 2477 1944 1835 1940 2006
3010.0 2014 1995 1826 1690 1584 1498 1386 1267 1151 1067
3050.0 1080 1126 1262 1542 1866 2029 1998 1826 1596 1388
3090.0 1263 1165 1022 846 670 555 466 396 360 324
3130.0 251 196 200 191 170 183 203 194 180 194
3170.0 189 153 150 169 144 127 144 153 133 119
3210.0 127 117 97 112 127 104 98 114 118 94
3250.0 104 120 97 87 113 112 83 95 112 110
3290.0 100 134 147 127 124 159 136 110 121 125
3330.0 122 117 160 159 136 135 152 128 94 135
3370.0 123 84 78 115 101 78 107 108 88 95
3410.0 104 101 72 79 107 67 67 92 96 51
3450.0 58 92 62 52 54 61 23 31 49 36
3490.0 17 30 70 31 25 64 53 21 32 48
3530.0 15 6 37 45 5 29 45 40 28 29
3570.0 42 21 19 54 36 10 60 65 55 35
3610.0 91 134 129 227 408 810 1578 2836 3863 3818
3650.0 3837 3108 2000 1376 1304 1406 1443 1382 1208 911
3690.0 590 420 330 180 128 104 89 51 36 45
3730.0 16 1 17 26 1 0 31 1 1 5
3770.0 41 27 4 29 18 0 34 53 4 1
3810.0 28 61 1 2 62 63 7 50 56 18
3850.0 29 53 38 1 28 84 47 40 81 125
3890.0 17 85 71 93 90 149 157 44 115 113
3930.0 84 33 68 94 62 17 73 122 33 40
##END=
