##TITLE=Benzenamine, 2-(trifluoromethyl)-
##JCAMP-DX=4.24
##DATA TYPE=INFRARED SPECTRUM
##ORIGIN=Sadtler Research Labs Under US-EPA Contract
##OWNER=NIST Standard Reference Data Program
##CAS REGISTRY NO=88-17-5
##MOLFORM=C 7 H 6 F 3 N
##XUNITS=1/CM
##YUNITS=ABSORBANCE
##XFACTOR=1.0
##YFACTOR=0.000182050
##DELTAX=4.0
##FIRSTX=450.0
##LASTX=3966.0
##FIRSTY=0.050428
##MAXX=3966
##MINX=450
##MAXY=1.8205
##MINY=0
##NPOINTS=880
##XYDATA=(X++(Y..Y))
450.0 277 394 413 352 315 237 189 141 73 72
490.0 42 71 48 78 64 109 121 152 188 197
530.0 156 128 107 84 104 87 84 55 72 66
570.0 18 55 71 83 82 105 99 113 98 101
610.0 107 110 125 125 153 152 181 213 377 648
650.0 776 902 922 706 511 468 451 458 427 416
690.0 398 382 358 331 329 302 299 307 361 386
730.0 544 755 1120 1428 1848 2275 1847 1335 1050 666
770.0 433 311 268 241 224 207 194 191 169 161
810.0 157 147 132 123 113 111 108 90 72 55
850.0 52 46 37 36 44 37 23 21 13 12
890.0 5 4 2 1 1 3 6 6 10 23
930.0 50 66 103 163 126 90 76 44 29 21
970.0 19 14 8 10 13 10 13 15 16 35
1010.0 77 201 467 741 906 1013 931 722 603 660
1050.0 834 1146 1470 1704 1861 1818 1627 1525 1473 1342
1090.0 1133 908 806 811 975 1336 1996 3112 4900 7531
1130.0 9630 10000 7137 4339 2253 1259 915 859 904 1115
1170.0 1482 1860 2074 1811 1603 1235 714 425 281 230
1210.0 195 182 161 150 139 139 153 171 205 251
1250.0 322 425 555 673 772 823 815 814 919 1286
1290.0 2081 3119 3882 4235 3957 3188 2573 2912 4106 5316
1330.0 5488 4790 3272 1642 787 489 324 209 139 103
1370.0 86 86 78 67 65 59 61 70 64 60
1410.0 60 48 69 60 76 85 123 143 170 228
1450.0 375 659 1132 1594 1766 1806 1660 1076 675 616
1490.0 727 944 1232 1357 1310 1196 889 534 301 169
1530.0 125 110 112 124 106 90 100 134 151 187
1570.0 265 356 482 625 744 828 859 844 787 863
1610.0 1045 1258 1483 1715 2008 2277 2472 2444 2259 1804
1650.0 1285 850 533 346 239 191 161 130 129 128
1690.0 102 88 103 89 75 61 70 78 61 50
1730.0 55 63 45 36 37 43 33 27 28 25
1770.0 35 45 42 57 61 64 57 43 34 18
1810.0 19 24 23 20 18 18 9 1 6 10
1850.0 4 2 4 5 12 28 28 35 38 34
1890.0 29 26 30 41 55 61 57 47 38 28
1930.0 31 43 43 44 35 21 8 6 5 6
1970.0 5 4 4 3 4 8 7 7 9 10
2010.0 10 18 21 23 26 28 29 31 38 40
2050.0 42 46 43 39 44 46 47 49 44 34
2090.0 29 18 12 13 16 15 13 16 12 10
2130.0 7 10 8 10 9 10 13 12 14 14
2170.0 17 18 19 22 25 25 30 29 26 27
2210.0 28 30 28 31 29 30 33 33 35 29
2250.0 33 29 26 27 21 21 20 20 18 22
2290.0 22 18 18 17 15 9 7 3 1 1
2330.0 1 2 12 4 25 2 1 1 4 38
2370.0 50 46 44 36 31 28 29 26 26 27
2410.0 25 23 26 29 28 33 30 28 31 33
2450.0 30 31 35 38 38 43 36 39 39 39
2490.0 34 34 36 35 33 33 30 33 35 38
2530.0 36 36 37 34 33 43 44 45 42 46
2570.0 45 49 46 44 49 49 48 43 42 35
2610.0 30 26 26 20 21 25 29 33 33 24
2650.0 25 24 22 21 29 36 39 45 46 46
2690.0 46 50 49 48 48 48 45 47 50 47
2730.0 51 55 48 49 51 55 49 54 54 49
2770.0 52 56 58 55 65 59 62 61 61 58
2810.0 52 52 50 52 50 50 50 52 50 49
2850.0 54 51 49 46 50 48 47 59 55 54
2890.0 62 61 54 60 58 57 61 61 59 61
2930.0 66 71 79 73 76 70 70 65 58 54
2970.0 58 55 52 57 56 55 59 57 58 62
3010.0 67 76 91 117 138 174 233 285 335 360
3050.0 390 376 343 316 288 269 246 241 246 261
3090.0 275 279 270 236 185 139 103 72 66 57
3130.0 60 57 57 47 38 33 36 35 30 39
3170.0 26 16 27 34 28 33 35 35 37 44
3210.0 36 44 56 48 52 55 48 47 50 50
3250.0 41 44 33 31 24 29 25 22 19 17
3290.0 17 18 23 14 22 17 23 20 22 9
3330.0 30 30 23 1 5 15 1 9 3 2
3370.0 18 27 12 16 21 28 26 39 50 47
3410.0 66 92 114 165 238 324 419 540 598 598
3450.0 526 439 315 205 135 113 84 71 66 73
3490.0 68 83 80 91 122 154 209 275 350 421
3530.0 502 547 568 516 453 344 262 185 125 89
3570.0 79 58 49 61 24 23 38 33 16 38
3610.0 37 34 12 29 28 20 44 66 30 48
3650.0 62 57 48 64 43 44 59 49 40 65
3690.0 58 65 46 52 66 67 68 63 64 76
3730.0 85 65 78 83 59 59 65 57 61 81
3770.0 82 57 71 77 69 72 78 73 81 131
3810.0 90 108 107 101 112 90 58 61 55 89
3850.0 91 109 105 120 82 115 131 79 127 75
3890.0 86 111 90 112 107 82 120 75 55 0
3930.0 49 87 68 119 87 98 63 54 105 78
##END=
