##TITLE=Ethanone, 1-(2-thienyl)-
##JCAMP-DX=4.24
##DATA TYPE=INFRARED SPECTRUM
##ORIGIN=Sadtler Research Labs Under US-EPA Contract
##OWNER=NIST Standard Reference Data Program
##CAS REGISTRY NO=88-15-3
##MOLFORM=C 6 H 6 O S
##XUNITS=1/CM
##YUNITS=ABSORBANCE
##XFACTOR=1.0
##YFACTOR=0.000313452
##DELTAX=4.0
##FIRSTX=450.0
##LASTX=3966.0
##FIRSTY=0.000000
##MAXX=3966
##MINX=450
##MAXY=3.13452
##MINY=0
##NPOINTS=880
##XYDATA=(X++(Y..Y))
450.0 0 107 95 71 10 44 27 58 32 41
490.0 43 39 44 37 36 31 46 56 49 37
530.0 39 44 61 66 77 97 114 160 282 519
570.0 689 837 1167 1535 1662 1525 1457 1429 1014 735
610.0 638 502 352 315 237 175 128 97 88 85
650.0 78 92 109 184 250 318 330 345 334 361
690.0 461 803 1411 1982 2627 3189 5362 4613 2840 2551
730.0 1899 1177 590 265 223 194 208 197 204 162
770.0 111 111 90 97 87 94 73 73 73 75
810.0 78 117 165 226 262 442 614 543 585 890
850.0 1150 1337 1150 1063 1191 871 413 221 131 94
890.0 104 100 112 117 151 182 306 499 720 820
930.0 841 871 771 548 432 499 575 640 630 592
970.0 487 342 248 189 197 189 216 233 267 286
1010.0 313 351 395 483 543 585 580 635 681 728
1050.0 847 949 949 912 844 648 470 405 403 339
1090.0 354 357 235 153 105 104 94 99 92 92
1130.0 82 65 61 48 54 49 66 70 94 116
1170.0 145 174 194 233 259 327 402 488 514 568
1210.0 636 613 543 570 762 934 1310 2107 3427 4480
1250.0 5248 6449 7848 7485 6845 6195 5302 3332 1499 602
1290.0 281 177 141 116 124 107 129 134 163 175
1330.0 238 339 497 767 1115 1615 2025 2503 2808 2923
1370.0 2644 2316 1953 1479 1120 856 808 955 1390 2219
1410.0 3352 4022 4453 4322 4254 2860 1805 1251 880 602
1450.0 449 403 308 254 204 187 199 177 168 179
1490.0 238 264 408 653 987 1581 1940 2124 2154 1810
1530.0 1535 921 635 568 517 483 456 449 320 259
1570.0 221 180 165 148 136 145 155 179 184 231
1610.0 248 265 299 301 328 264 308 282 305 293
1650.0 395 381 493 567 810 1215 2083 3178 5528 7002
1690.0 8858 8785 10000 9912 5928 5132 2959 1763 943 730
1730.0 415 362 247 243 216 219 260 233 294 233
1770.0 237 172 163 141 129 138 155 160 133 143
1810.0 126 126 100 111 102 102 100 80 90 100
1850.0 114 102 121 124 128 124 94 87 65 61
1890.0 48 49 32 34 32 36 39 44 58 44
1930.0 61 60 68 70 73 58 44 37 26 31
1970.0 19 27 20 24 20 24 24 17 26 17
2010.0 26 24 32 26 31 32 29 34 31 34
2050.0 22 27 20 24 22 22 26 22 32 36
2090.0 44 39 48 43 39 34 31 27 19 20
2130.0 12 19 15 20 17 19 20 20 29 32
2170.0 39 34 41 36 29 24 26 24 20 24
2210.0 19 20 15 19 14 14 14 10 12 12
2250.0 17 15 20 20 29 31 36 41 41 43
2290.0 39 37 27 27 22 17 17 15 14 10
2330.0 14 10 14 10 10 14 12 19 10 12
2370.0 10 19 14 22 22 29 27 27 32 31
2410.0 37 37 44 41 46 44 46 46 48 51
2450.0 48 53 48 44 37 34 29 27 24 20
2490.0 22 19 22 19 20 19 20 20 19 20
2530.0 19 20 19 20 17 22 24 26 27 26
2570.0 29 26 27 26 29 29 36 37 36 41
2610.0 44 49 49 58 54 51 44 39 32 27
2650.0 29 26 31 29 34 34 41 43 44 44
2690.0 41 37 29 29 26 27 27 27 31 27
2730.0 29 27 29 27 32 29 32 36 37 43
2770.0 44 51 48 48 46 48 41 39 39 39
2810.0 44 49 61 63 68 70 71 68 61 58
2850.0 54 56 53 56 49 53 53 49 53 54
2890.0 60 60 66 68 77 82 97 112 134 162
2930.0 185 197 196 199 191 175 158 157 162 175
2970.0 194 201 218 199 182 170 167 167 191 247
3010.0 310 347 351 347 310 247 189 163 145 136
3050.0 129 123 121 124 141 165 221 306 385 412
3090.0 442 459 391 311 289 262 216 170 143 129
3130.0 94 68 53 46 41 34 37 34 34 29
3170.0 31 27 29 29 27 31 26 29 26 27
3210.0 26 26 27 26 26 24 24 20 24 22
3250.0 22 24 24 24 20 29 24 29 24 27
3290.0 26 27 29 27 29 27 27 22 26 29
3330.0 29 27 37 48 54 83 104 129 151 179
3370.0 180 174 157 133 112 97 71 53 44 26
3410.0 27 14 15 17 19 24 22 22 19 24
3450.0 19 22 20 22 24 20 22 20 27 19
3490.0 20 24 19 17 19 22 20 26 22 15
3530.0 20 20 22 22 19 17 26 19 29 19
3570.0 22 24 20 24 20 27 19 14 22 14
3610.0 14 15 20 12 17 31 10 19 17 20
3650.0 22 10 27 10 24 14 24 31 20 27
3690.0 17 26 17 24 20 19 26 17 14 22
3730.0 19 22 19 34 9 37 22 27 22 26
3770.0 27 32 34 34 29 29 34 26 39 12
3810.0 37 15 29 36 29 37 48 53 51 58
3850.0 44 60 39 41 37 27 20 24 32 14
3890.0 31 12 20 20 22 19 27 29 22 32
3930.0 22 41 41 58 54 63 56 56 53 49
##END=
