##TITLE=3,5-di-tert-Butyl-4-hydroxybenzyl alcohol
##JCAMP-DX=4.24
##DATA TYPE=INFRARED SPECTRUM
##ORIGIN=Sadtler Research Labs Under US-EPA Contract
##OWNER=NIST Standard Reference Data Program
##CAS REGISTRY NO=88-26-6
##MOLFORM=C 15 H 24 O 2
##XUNITS=1/CM
##YUNITS=ABSORBANCE
##XFACTOR=1.0
##YFACTOR=0.000075125
##DELTAX=4.0
##FIRSTX=450.0
##LASTX=3966.0
##FIRSTY=0.030576
##MAXX=3966
##MINX=450
##MAXY=0.75125
##MINY=0
##NPOINTS=880
##XYDATA=(X++(Y..Y))
450.0 407 384 224 58 331 28 433 233 298 159
490.0 138 283 387 310 440 528 277 206 260 322
530.0 36 164 145 37 114 133 61 135 33 100
570.0 169 40 156 56 123 125 88 205 190 118
610.0 243 212 249 230 193 184 147 137 145 170
650.0 222 240 243 209 109 328 160 155 56 108
690.0 203 114 150 93 92 52 141 42 91 109
730.0 169 228 241 390 395 159 183 225 270 475
770.0 399 378 301 271 320 290 263 356 457 586
810.0 632 653 659 561 451 304 292 312 213 240
850.0 240 284 395 483 754 1109 1501 1617 1499 1162
890.0 876 600 496 531 693 1094 1504 1330 1060 951
930.0 894 869 705 562 457 331 265 305 266 302
970.0 285 292 326 362 404 458 527 586 679 792
1010.0 940 1059 1202 1314 1337 1232 1056 922 779 694
1050.0 656 622 619 614 633 651 682 789 823 847
1090.0 797 733 695 655 641 661 794 945 937 797
1130.0 655 618 666 795 980 1232 1570 1915 2132 2213
1170.0 2088 1884 1730 1595 1583 1676 1785 1818 1795 1860
1210.0 1869 1782 1689 1747 1995 2241 2360 2381 2476 2750
1250.0 2929 2751 2328 1841 1405 1040 815 711 657 668
1290.0 701 762 929 1140 1338 1378 1266 1063 839 680
1330.0 554 485 544 601 672 766 989 1457 2256 2959
1370.0 2917 2444 1942 1691 1678 1818 1939 1969 1668 1325
1410.0 1108 1083 1258 1528 1908 2316 2621 2666 2357 2017
1450.0 1636 1498 1479 1532 1478 1526 1423 1513 1581 1565
1490.0 1352 934 637 395 335 307 221 236 188 187
1530.0 206 132 187 102 190 184 126 214 137 221
1570.0 220 217 393 401 602 589 563 544 502 606
1610.0 653 792 854 1041 1295 1740 2200 2692 3049 3077
1650.0 2828 2240 1304 898 534 372 413 248 309 221
1690.0 230 221 221 415 591 819 784 527 273 167
1730.0 134 105 120 121 167 132 149 164 162 173
1770.0 201 207 246 267 258 187 193 145 190 193
1810.0 153 166 125 152 157 173 149 108 85 68
1850.0 66 42 48 46 37 42 41 34 31 40
1890.0 24 42 31 39 30 39 19 39 22 32
1930.0 24 22 29 22 43 14 38 15 20 27
1970.0 26 28 22 24 30 31 41 28 31 30
2010.0 27 31 30 25 25 16 25 13 22 22
2050.0 13 25 14 16 20 15 18 17 18 16
2090.0 14 13 10 13 16 11 20 19 13 11
2130.0 18 14 11 11 9 12 7 17 13 13
2170.0 14 12 15 17 19 15 11 13 13 23
2210.0 15 18 21 16 20 22 22 26 25 25
2250.0 22 22 31 31 28 33 40 53 64 87
2290.0 102 134 152 160 174 206 170 158 143 123
2330.0 110 85 81 67 143 114 121 117 120 104
2370.0 89 126 101 118 103 57 42 37 26 34
2410.0 31 33 35 27 29 26 21 28 29 31
2450.0 26 32 23 35 34 27 38 34 26 30
2490.0 28 31 30 33 35 33 37 35 25 34
2530.0 25 32 27 29 35 42 49 56 55 57
2570.0 48 43 38 48 39 40 40 40 39 42
2610.0 41 41 40 45 51 48 49 49 55 59
2650.0 59 69 72 75 73 71 68 67 69 83
2690.0 85 90 105 125 167 211 230 245 217 195
2730.0 162 146 151 143 158 162 167 168 162 170
2770.0 179 191 215 245 254 271 273 268 266 274
2810.0 295 325 356 375 394 413 443 480 537 624
2850.0 733 861 1062 1351 1767 2263 2808 3255 3496 3496
2890.0 3338 3193 3076 3062 3200 3468 3815 4129 4300 4310
2930.0 4212 4129 4114 4294 4737 5580 6811 8036 9097 9902
2970.0 10000 8930 6703 4415 2796 1877 1471 1356 1436 1574
3010.0 1546 1302 981 702 531 439 392 366 360 369
3050.0 407 466 488 469 419 384 352 364 361 342
3090.0 360 402 417 338 229 154 120 109 108 111
3130.0 109 97 101 106 110 111 105 105 105 98
3170.0 101 84 85 82 84 83 76 73 69 73
3210.0 61 70 67 57 62 67 65 68 63 78
3250.0 73 82 87 80 81 95 85 88 66 71
3290.0 57 48 53 57 42 37 34 38 41 45
3330.0 38 41 52 24 27 37 36 37 54 44
3370.0 54 45 45 47 54 62 64 68 59 54
3410.0 55 59 50 52 45 50 41 48 45 32
3450.0 49 26 42 22 34 39 53 41 42 23
3490.0 36 13 40 44 45 49 50 16 44 57
3530.0 37 40 29 62 50 57 57 50 40 69
3570.0 67 60 36 87 12 141 37 93 62 102
3610.0 114 145 203 168 283 280 454 509 782 952
3650.0 1407 1575 2093 2336 2558 2293 1742 1320 757 597
3690.0 318 271 164 146 78 53 38 59 5 84
3730.0 5 3 36 0 76 0 45 7 33 7
3770.0 7 12 7 7 7 6 13 7 13 7
3810.0 64 8 82 8 11 16 19 2 13 9
3850.0 33 12 36 47 7 95 8 24 10 76
3890.0 14 59 2 69 47 54 12 38 52 7
3930.0 53 8 25 23 76 90 0 62 46 9
##END=
