##TITLE=4-Nitro-3-(trifluoromethyl)phenol
##JCAMP-DX=4.24
##DATA TYPE=INFRARED SPECTRUM
##ORIGIN=Sadtler Research Labs Under US-EPA Contract
##OWNER=NIST Standard Reference Data Program
##CAS REGISTRY NO=88-30-2
##MOLFORM=C 7 H 4 F 3 N O 3
##XUNITS=1/CM
##YUNITS=ABSORBANCE
##XFACTOR=1.0
##YFACTOR=0.000085547
##DELTAX=4.0
##FIRSTX=450.0
##LASTX=3966.0
##FIRSTY=0.014201
##MAXX=3966
##MINX=450
##MAXY=0.85547
##MINY=0
##NPOINTS=880
##XYDATA=(X++(Y..Y))
450.0 166 174 125 101 74 76 75 68 33 57
490.0 32 38 66 80 98 130 136 176 203 146
530.0 133 171 186 229 240 264 282 290 301 275
570.0 329 331 387 391 383 392 308 250 197 174
610.0 225 215 223 251 342 517 717 838 809 627
650.0 406 338 388 423 395 328 257 177 195 203
690.0 210 207 191 185 213 248 258 221 215 173
730.0 198 200 218 334 535 726 801 733 469 301
770.0 231 218 213 198 176 152 120 138 162 206
810.0 257 358 438 554 720 903 1034 1033 875 582
850.0 360 298 347 435 540 592 518 500 493 541
890.0 592 568 535 633 868 1294 1588 1600 1309 829
930.0 467 316 285 284 279 279 260 244 229 208
970.0 194 190 180 169 146 157 158 157 165 178
1010.0 187 189 207 239 292 414 704 1182 1591 1653
1050.0 1419 866 440 286 264 273 284 301 329 336
1090.0 365 395 438 469 506 600 748 931 1106 1306
1130.0 1566 1914 2253 2521 2636 2639 2840 3465 4610 6169
1170.0 7731 9011 10000 9743 9362 7490 5673 4069 3024 2361
1210.0 1883 1539 1293 1125 1065 1133 1392 1937 2523 2758
1250.0 2629 2238 1896 1923 2185 2303 2104 1649 1236 1011
1290.0 946 1035 1321 1867 2741 3880 4956 5587 5535 4969
1330.0 4230 3501 2866 2466 2597 3294 4118 4392 3862 2721
1370.0 1527 901 657 579 551 531 512 484 461 469
1410.0 498 557 672 812 1040 1382 1787 2010 1868 1461
1450.0 963 673 594 505 469 464 545 658 835 986
1490.0 1084 1070 994 867 802 722 709 787 898 1000
1530.0 1162 1413 1793 2409 3172 3999 4580 4519 3822 3109
1570.0 2516 2117 1846 1644 1545 1556 1666 1794 1873 1842
1610.0 1667 1394 1094 799 606 470 370 272 201 190
1650.0 164 182 120 120 116 128 120 122 134 149
1690.0 121 127 132 139 116 110 113 131 107 111
1730.0 114 139 113 107 106 118 112 119 126 123
1770.0 139 141 133 128 127 113 110 98 91 85
1810.0 79 79 73 66 74 73 59 57 57 60
1850.0 47 47 46 47 48 59 59 65 66 66
1890.0 66 66 66 71 67 73 66 62 61 54
1930.0 51 49 45 45 45 46 44 46 39 41
1970.0 40 34 36 34 30 29 34 30 31 24
2010.0 25 25 24 25 26 26 19 25 21 21
2050.0 21 20 20 20 28 28 34 34 35 29
2090.0 33 27 23 25 13 17 18 12 12 13
2130.0 13 14 14 14 19 21 25 35 39 31
2170.0 28 22 15 15 15 15 15 14 18 11
2210.0 19 19 13 15 14 16 16 17 18 13
2250.0 14 8 14 12 13 17 17 17 18 24
2290.0 26 27 33 34 34 29 28 25 15 6
2330.0 5 4 0 11 11 30 19 1 17 16
2370.0 8 15 33 45 41 38 31 31 32 33
2410.0 33 34 36 36 39 36 37 35 29 27
2450.0 28 23 24 24 26 27 28 26 34 34
2490.0 37 43 36 38 31 27 32 27 29 23
2530.0 24 23 20 17 21 19 22 23 23 24
2570.0 19 20 25 26 22 16 18 18 19 24
2610.0 20 26 28 22 29 29 41 37 37 38
2650.0 29 28 27 24 24 25 30 26 26 32
2690.0 29 34 34 35 39 33 32 25 21 22
2730.0 17 22 30 24 25 18 26 30 28 33
2770.0 29 28 26 25 20 21 20 16 19 16
2810.0 17 17 26 19 19 20 16 22 22 28
2850.0 31 28 35 37 43 39 49 50 51 58
2890.0 64 71 84 84 85 78 78 68 65 57
2930.0 46 47 37 43 32 32 20 22 26 22
2970.0 30 20 22 18 19 15 15 15 9 11
3010.0 17 24 19 27 35 49 56 56 56 56
3050.0 70 82 101 101 107 97 92 78 84 81
3090.0 75 72 56 49 42 37 26 32 28 21
3130.0 20 17 18 16 18 10 14 9 9 16
3170.0 4 16 12 5 20 14 5 12 11 10
3210.0 10 11 11 18 23 24 13 17 12 24
3250.0 19 3 12 13 12 13 13 15 15 15
3290.0 14 13 10 18 18 29 32 26 33 27
3330.0 33 33 29 28 31 33 31 28 22 15
3370.0 31 27 17 24 17 19 22 22 20 20
3410.0 25 16 23 17 17 31 19 7 21 4
3450.0 9 23 15 11 12 16 15 7 15 15
3490.0 9 16 18 11 8 14 23 17 12 10
3530.0 14 11 12 0 13 17 18 14 9 21
3570.0 24 27 24 26 34 25 13 14 19 28
3610.0 45 57 51 96 160 315 556 1027 1709 2245
3650.0 2236 1764 1045 421 170 95 52 39 25 22
3690.0 31 17 16 17 17 29 18 30 29 24
3730.0 29 36 47 39 42 52 42 25 19 26
3770.0 38 26 25 29 28 30 35 27 37 25
3810.0 37 45 44 45 28 30 51 54 48 50
3850.0 45 55 35 31 47 41 41 37 36 43
3890.0 43 53 53 48 47 36 25 23 37 38
3930.0 31 33 26 20 16 24 17 18 19 19
##END=
