##TITLE=Benzoic acid, 2-iodo-
##JCAMP-DX=4.24
##DATA TYPE=INFRARED SPECTRUM
##ORIGIN=Sadtler Research Labs Under US-EPA Contract
##OWNER=NIST Standard Reference Data Program
##CAS REGISTRY NO=88-67-5
##MOLFORM=C 7 H 5 I O 2
##XUNITS=1/CM
##YUNITS=ABSORBANCE
##XFACTOR=1.0
##YFACTOR=0.000066553
##DELTAX=4.0
##FIRSTX=450.0
##LASTX=3966.0
##FIRSTY=0.002130
##MAXX=3966
##MINX=450
##MAXY=0.66553
##MINY=0
##NPOINTS=880
##XYDATA=(X++(Y..Y))
450.0 32 66 75 68 18 33 120 162 262 184
490.0 229 340 311 259 214 207 281 392 455 665
530.0 684 748 865 913 849 876 923 865 1242 1466
570.0 1395 1361 1138 1080 950 744 786 667 660 552
610.0 532 558 1029 1612 1930 1810 1703 929 675 1007
650.0 1447 1396 1238 858 443 361 311 352 345 381
690.0 457 559 521 372 373 294 266 356 623 1177
730.0 2006 2825 3946 3720 2734 1975 1366 1091 1078 1032
770.0 990 873 651 540 341 249 169 113 109 162
810.0 115 155 140 117 93 101 104 136 142 138
850.0 183 136 158 11 147 162 92 68 49 12
890.0 81 71 24 45 53 60 40 43 18 27
930.0 48 37 28 60 58 95 97 129 42 64
970.0 68 63 66 71 88 129 177 248 409 771
1010.0 1462 2211 2503 2481 1984 1381 1331 1387 1251 1070
1050.0 757 669 691 882 1184 1633 2320 3051 3503 3759
1090.0 3589 3249 3055 2978 2657 2226 1878 1753 1901 2071
1130.0 2058 1830 1482 1113 1014 1176 1367 1583 1848 2024
1170.0 2328 2862 3496 4000 4210 3787 3033 2183 1487 1114
1210.0 911 818 754 708 657 692 773 868 945 1005
1250.0 1053 1033 1001 994 978 928 930 939 936 959
1290.0 981 1054 1188 1315 1478 1530 1558 1505 1466 1466
1330.0 1564 1690 1789 1684 1569 1349 1128 1038 1014 1003
1370.0 980 911 742 574 440 360 314 316 280 323
1410.0 318 401 541 685 867 1050 1114 1027 755 511
1450.0 356 330 551 680 839 832 793 514 327 239
1490.0 246 200 243 234 349 339 288 278 249 168
1530.0 138 165 145 245 174 184 280 462 554 564
1570.0 631 643 786 922 1039 1032 930 741 579 513
1610.0 446 372 366 238 189 150 150 186 114 160
1650.0 148 272 129 135 143 191 174 190 211 303
1690.0 248 280 388 462 424 483 588 803 945 1180
1730.0 1504 1902 2192 2588 3138 4038 5220 6728 8660 10000
1770.0 9316 7778 5525 3607 2823 2558 2272 1770 1311 903
1810.0 650 499 388 313 260 209 175 148 144 161
1850.0 130 108 101 71 71 71 56 57 57 55
1890.0 64 64 64 72 78 79 79 109 116 137
1930.0 147 133 114 96 87 93 99 116 117 115
1970.0 64 41 35 41 22 21 24 16 26 14
2010.0 22 5 21 12 13 21 25 22 18 13
2050.0 22 13 14 19 13 7 13 6 21 21
2090.0 13 21 10 17 16 17 18 19 22 21
2130.0 20 21 20 28 34 37 36 34 34 34
2170.0 44 28 21 34 20 27 28 28 29 34
2210.0 39 34 25 14 20 19 27 19 18 18
2250.0 27 17 27 30 28 27 42 41 41 47
2290.0 56 70 63 84 87 120 103 126 134 134
2330.0 174 153 161 178 166 128 198 223 240 221
2370.0 166 133 111 79 51 40 33 24 32 25
2410.0 24 39 34 39 34 28 36 33 34 32
2450.0 31 31 39 39 33 29 33 34 27 19
2490.0 25 16 27 30 32 30 30 38 32 36
2530.0 29 28 37 38 34 38 30 44 37 30
2570.0 44 32 31 28 38 34 35 29 34 47
2610.0 36 28 22 29 21 23 14 23 26 25
2650.0 26 14 28 20 15 14 13 13 13 30
2690.0 14 20 25 24 10 23 25 7 13 21
2730.0 13 28 13 28 31 17 24 35 34 38
2770.0 26 31 22 29 30 28 29 22 31 31
2810.0 34 38 35 36 29 46 31 45 45 53
2850.0 48 52 71 58 63 54 49 55 57 41
2890.0 61 47 47 46 61 58 56 73 71 89
2930.0 113 107 98 107 91 78 75 74 82 65
2970.0 79 86 85 86 84 74 78 77 78 86
3010.0 95 84 82 88 89 100 84 102 108 113
3050.0 159 234 334 434 528 646 698 683 613 506
3090.0 335 242 174 142 103 102 102 103 113 107
3130.0 138 127 102 85 58 51 46 45 30 45
3170.0 32 52 48 44 56 40 37 34 54 41
3210.0 35 30 32 23 38 51 54 35 45 38
3250.0 38 42 24 41 40 25 55 26 31 30
3290.0 42 35 31 42 32 43 24 41 40 27
3330.0 26 35 47 29 46 31 40 45 36 43
3370.0 29 34 58 6 29 29 10 27 47 28
3410.0 31 18 30 10 39 23 13 53 24 37
3450.0 46 32 56 37 57 66 67 67 64 82
3490.0 81 76 102 109 91 109 97 124 131 133
3530.0 133 136 148 163 187 264 423 808 1548 2460
3570.0 3046 3496 3446 2786 2136 1489 865 425 213 155
3610.0 158 114 103 119 98 131 71 64 72 60
3650.0 121 84 57 41 43 74 68 89 42 49
3690.0 77 53 34 49 41 65 99 48 80 105
3730.0 80 103 120 92 123 120 96 51 42 43
3770.0 50 50 36 45 32 41 37 68 92 58
3810.0 53 51 96 109 89 98 98 112 104 83
3850.0 90 153 123 110 110 96 75 73 70 84
3890.0 79 94 79 72 71 60 35 31 17 24
3930.0 54 45 55 67 74 71 0 6 6 6
##END=
