##TITLE=Benzoic acid, 2-bromo-
##JCAMP-DX=4.24
##DATA TYPE=INFRARED SPECTRUM
##ORIGIN=Sadtler Research Labs Under US-EPA Contract
##OWNER=NIST Standard Reference Data Program
##CAS REGISTRY NO=88-65-3
##MOLFORM=C 7 H 5 Br O 2
##XUNITS=1/CM
##YUNITS=ABSORBANCE
##XFACTOR=1.0
##YFACTOR=0.000050391
##DELTAX=4.0
##FIRSTX=450.0
##LASTX=3966.0
##FIRSTY=0.000000
##MAXX=3966
##MINX=450
##MAXY=0.50391
##MINY=0
##NPOINTS=880
##XYDATA=(X++(Y..Y))
450.0 0 74 89 143 122 118 170 155 184 202
490.0 209 225 262 290 380 309 399 561 615 795
530.0 906 1034 1064 1139 1129 1198 1156 1331 1458 1698
570.0 1548 1741 1457 1264 1094 935 939 773 832 651
610.0 794 807 1495 2163 2498 2425 2200 1248 590 452
650.0 578 791 1179 1578 1598 1476 1104 726 505 520
690.0 608 715 743 615 500 399 366 378 541 994
730.0 1783 2733 3727 4851 3977 2884 2216 1509 1251 1203
770.0 1208 1150 987 786 514 397 335 304 269 244
810.0 231 256 245 205 148 137 120 134 127 113
850.0 156 149 135 106 134 169 141 156 148 138
890.0 176 155 149 159 101 140 133 116 126 102
930.0 109 121 129 140 190 200 208 185 174 146
970.0 146 150 158 140 137 168 219 241 293 413
1010.0 551 841 1358 2303 3218 3712 3868 3448 2334 1609
1050.0 1053 818 795 904 1090 1368 1728 2274 2999 3654
1090.0 4063 4479 4493 4379 4110 3578 2943 2343 2152 2245
1130.0 2264 2090 1842 1503 1223 1205 1413 1698 2028 2461
1170.0 2870 3262 3780 4203 4341 4075 3534 2768 1965 1469
1210.0 1211 1070 960 859 791 734 701 701 716 772
1250.0 846 949 1013 1065 1105 1135 1157 1200 1232 1249
1290.0 1282 1338 1445 1589 1798 1987 2123 2194 2193 2133
1330.0 2105 2128 2116 2012 1890 1652 1409 1255 1161 1135
1370.0 1126 1085 964 817 632 493 416 371 349 361
1410.0 389 469 584 800 1114 1389 1553 1532 1375 1065
1450.0 779 610 567 756 1005 1216 1219 1065 781 459
1490.0 296 249 193 197 145 136 151 136 116 135
1530.0 157 155 155 139 170 220 275 319 435 563
1570.0 626 693 743 870 1082 1257 1243 1113 851 562
1610.0 375 300 248 218 191 176 161 154 167 147
1650.0 149 118 169 166 178 163 185 189 220 227
1690.0 293 324 344 386 458 562 681 843 1110 1399
1730.0 1742 2094 2478 2922 3628 4646 5896 7182 8626 9915
1770.0 10000 9308 8162 6456 4421 3455 3035 2562 1998 1517
1810.0 1132 871 673 526 398 319 272 247 222 209
1850.0 202 190 170 149 149 130 130 131 131 119
1890.0 120 119 131 130 122 131 130 151 180 204
1930.0 210 208 187 165 161 167 177 193 182 161
1970.0 131 111 101 93 81 79 83 78 80 74
2010.0 74 74 74 74 74 74 74 74 74 74
2050.0 79 73 74 74 74 74 75 74 75 76
2090.0 74 82 74 84 84 84 84 92 83 83
2130.0 83 84 84 84 92 90 83 93 93 92
2170.0 91 103 102 93 93 92 91 94 93 92
2210.0 91 103 90 85 83 81 81 81 82 82
2250.0 82 82 85 80 80 86 92 99 89 100
2290.0 111 111 110 121 102 113 108 109 105 99
2330.0 111 84 98 100 100 100 100 109 112 104
2370.0 122 103 110 116 107 101 99 80 99 89
2410.0 89 99 90 98 99 104 97 98 91 89
2450.0 96 97 98 98 97 96 88 92 86 81
2490.0 89 88 88 96 97 97 97 97 88 96
2530.0 96 95 103 103 94 98 99 105 96 96
2570.0 95 96 86 89 96 85 86 91 95 95
2610.0 87 95 96 96 96 86 94 94 91 86
2650.0 86 85 93 85 83 84 84 84 84 94
2690.0 76 85 77 84 84 84 84 75 85 85
2730.0 84 84 84 84 84 84 83 91 91 96
2770.0 92 95 84 94 85 93 95 92 96 95
2810.0 94 88 96 103 94 94 95 104 105 106
2850.0 114 115 125 124 137 131 118 122 117 107
2890.0 115 106 115 116 117 122 115 131 134 145
2930.0 174 164 164 166 155 155 144 137 143 136
2970.0 134 140 147 146 154 136 146 146 146 146
3010.0 147 155 153 150 155 155 155 154 166 165
3050.0 193 245 346 456 558 655 778 800 766 704
3090.0 545 384 273 218 198 166 167 158 164 155
3130.0 175 184 176 166 149 133 127 108 99 109
3170.0 90 106 121 108 109 110 103 108 100 109
3210.0 101 98 98 98 99 99 102 97 98 98
3250.0 97 108 93 100 99 90 109 90 90 90
3290.0 98 108 94 103 115 107 90 100 99 91
3330.0 91 99 97 96 89 86 98 112 99 105
3370.0 99 90 101 90 100 114 97 83 91 85
3410.0 89 103 98 82 92 92 91 92 99 101
3450.0 101 103 121 127 122 136 144 149 160 190
3490.0 191 201 210 229 229 227 251 242 271 275
3530.0 281 297 309 308 338 401 580 1036 1949 3044
3570.0 3748 4234 4027 3028 2098 1331 739 398 258 218
3610.0 203 177 153 150 129 101 96 100 114 103
3650.0 84 102 84 84 85 79 75 78 94 94
3690.0 76 92 92 94 94 84 104 96 92 95
3730.0 83 83 112 91 73 85 93 95 94 95
3770.0 83 94 88 83 89 94 88 94 89 96
3810.0 103 86 86 105 117 113 122 114 125 119
3850.0 109 95 104 114 115 95 95 104 88 106
3890.0 106 110 116 105 107 95 96 86 86 87
3930.0 106 117 105 105 106 114 70 74 74 74
##END=
