##TITLE=Phenol, 2-(1-methylethyl)-
##JCAMP-DX=4.24
##DATA TYPE=INFRARED SPECTRUM
##ORIGIN=Sadtler Research Labs Under US-EPA Contract
##OWNER=NIST Standard Reference Data Program
##CAS REGISTRY NO=88-69-7
##MOLFORM=C 9 H 12 O
##XUNITS=1/CM
##YUNITS=ABSORBANCE
##XFACTOR=1.0
##YFACTOR=0.000077066
##DELTAX=4.0
##FIRSTX=450.0
##LASTX=3966.0
##FIRSTY=0.060034
##MAXX=3966
##MINX=450
##MAXY=0.77066
##MINY=0
##NPOINTS=880
##XYDATA=(X++(Y..Y))
450.0 779 434 347 522 584 699 1018 943 1084 976
490.0 1000 612 544 778 823 978 942 890 730 646
530.0 389 330 260 258 280 195 236 172 296 286
570.0 314 225 348 289 357 352 337 342 211 202
610.0 92 123 66 142 75 181 111 62 80 59
650.0 142 25 30 29 53 81 58 87 53 95
690.0 113 185 110 234 266 390 428 598 859 1202
730.0 1954 3150 4702 5861 7626 7814 5191 3854 2490 1252
770.0 570 302 259 238 204 226 194 154 215 267
810.0 517 901 1582 1904 1934 1938 1534 905 469 292
850.0 212 216 168 144 116 112 117 145 224 285
890.0 317 295 294 210 140 109 121 161 185 288
930.0 291 300 255 199 152 127 116 113 115 103
970.0 115 93 108 90 67 114 131 113 112 137
1010.0 163 229 325 535 892 1285 1494 1635 1579 1359
1050.0 1107 965 892 845 928 1103 1469 1802 1894 1924
1090.0 1767 1508 1302 1331 1507 1628 1647 1624 1437 1223
1130.0 1212 1399 1797 2318 2888 3155 3167 3236 3398 4197
1170.0 5352 6065 6341 6268 5214 4050 3516 3533 3722 3751
1210.0 3705 3335 2780 2310 2046 1935 2082 2585 3367 4026
1250.0 4166 4135 3493 2448 1699 1496 1812 2450 3026 3215
1290.0 3098 2706 2103 1669 1692 2036 2614 3218 3445 3257
1330.0 2954 2235 1384 856 598 572 618 739 824 940
1370.0 1058 986 895 924 902 840 781 673 511 438
1410.0 413 412 448 484 548 699 956 1355 1960 2744
1450.0 3679 4435 4576 4469 3976 3019 2456 2344 2682 3276
1490.0 3833 4263 4373 3882 3088 2340 1469 860 597 438
1530.0 350 300 258 237 212 209 236 324 430 547
1570.0 797 1082 1390 1667 1861 1954 1890 1777 1649 1578
1610.0 1421 1213 995 730 471 266 164 127 102 111
1650.0 124 165 150 180 203 229 241 222 214 197
1690.0 157 123 152 144 143 118 129 122 91 68
1730.0 72 89 66 60 70 96 113 153 169 192
1770.0 212 223 195 181 176 176 173 149 150 126
1810.0 120 113 95 90 79 69 63 62 80 94
1850.0 95 83 96 84 85 99 119 162 201 236
1890.0 268 254 212 174 133 126 130 161 188 196
1930.0 187 159 112 72 49 34 29 32 40 43
1970.0 36 37 31 29 22 29 23 22 18 15
2010.0 10 6 14 8 14 16 22 18 21 17
2050.0 19 21 31 49 76 88 91 87 60 40
2090.0 32 21 21 17 25 21 30 23 19 14
2130.0 5 9 2 9 10 12 6 9 1 6
2170.0 5 7 3 9 17 6 5 16 8 18
2210.0 21 16 25 32 22 23 27 27 30 36
2250.0 36 37 40 41 49 47 50 55 55 52
2290.0 47 39 32 33 19 22 31 35 36 49
2330.0 43 50 53 80 84 41 0 10 38 94
2370.0 121 127 109 100 93 97 92 99 99 101
2410.0 108 119 122 121 131 134 126 110 90 82
2450.0 82 82 80 88 77 95 107 109 112 135
2490.0 129 140 113 116 99 78 74 63 71 73
2530.0 71 65 46 51 41 41 43 46 46 48
2570.0 54 53 61 53 57 62 75 78 82 81
2610.0 84 72 62 65 47 53 54 60 67 68
2650.0 55 40 45 40 55 64 92 109 113 110
2690.0 102 96 90 84 78 87 90 92 99 107
2730.0 118 120 127 129 116 103 98 96 103 107
2770.0 118 118 119 113 97 122 127 142 145 172
2810.0 208 231 254 271 290 298 293 313 337 393
2850.0 447 527 632 821 1120 1576 2100 2608 2943 2981
2890.0 2812 2568 2360 2222 2183 2192 2218 2256 2368 2552
2930.0 2842 3175 3494 3739 3792 3870 4197 5133 6800 8578
2970.0 9803 10000 8828 6520 4371 2857 1899 1385 1072 924
3010.0 898 979 1116 1308 1522 1715 1871 1982 2012 1939
3050.0 1827 1697 1587 1594 1744 1985 2121 2185 2064 1816
3090.0 1470 1178 944 733 602 475 421 338 284 248
3130.0 213 172 168 156 147 137 155 153 155 162
3170.0 168 160 174 173 178 168 153 161 155 144
3210.0 144 131 131 127 141 121 118 131 111 104
3250.0 100 97 94 108 106 105 128 101 107 132
3290.0 118 92 86 80 85 61 55 50 50 13
3330.0 14 18 28 43 56 57 79 91 88 97
3370.0 104 114 113 91 118 115 111 99 108 87
3410.0 114 89 78 78 70 82 84 80 69 69
3450.0 68 71 67 67 51 44 65 64 49 55
3490.0 35 44 54 44 46 47 33 28 16 26
3530.0 48 35 54 56 37 36 50 45 68 40
3570.0 42 68 52 89 49 66 77 86 115 127
3610.0 119 120 145 251 359 552 1037 1887 3198 4641
3650.0 5435 5248 4838 3669 2199 1201 718 482 324 224
3690.0 142 141 136 103 120 95 63 107 73 101
3730.0 119 57 59 69 80 47 82 93 131 117
3770.0 86 92 89 89 124 91 142 121 56 89
3810.0 100 136 63 100 104 107 106 74 82 100
3850.0 107 71 90 115 64 134 97 118 74 106
3890.0 96 111 87 101 104 123 111 92 126 61
3930.0 55 19 120 39 80 82 174 210 206 209
##END=
