##TITLE=Phenol, 2-(1,1-dimethylethyl)-5-methyl-
##JCAMP-DX=4.24
##DATA TYPE=INFRARED SPECTRUM
##ORIGIN=Sadtler Research Labs Under US-EPA Contract
##OWNER=NIST Standard Reference Data Program
##CAS REGISTRY NO=88-60-8
##MOLFORM=C 11 H 16 O
##XUNITS=1/CM
##YUNITS=ABSORBANCE
##XFACTOR=1.0
##YFACTOR=0.000080396
##DELTAX=4.0
##FIRSTX=450.0
##LASTX=3966.0
##FIRSTY=0.029505
##MAXX=3966
##MINX=450
##MAXY=0.80396
##MINY=0
##NPOINTS=880
##XYDATA=(X++(Y..Y))
450.0 367 215 55 109 78 148 150 183 258 327
490.0 436 535 585 605 509 413 335 372 365 379
530.0 360 300 271 257 309 297 300 401 618 730
570.0 799 842 918 825 974 1156 1072 689 564 338
610.0 180 125 90 87 31 30 111 109 99 117
650.0 135 171 145 112 61 67 42 54 31 69
690.0 40 45 15 32 18 5 27 60 169 330
730.0 463 541 548 381 219 137 87 120 123 146
770.0 145 165 170 169 255 490 1021 1700 2385 3203
810.0 2627 1854 1251 693 513 518 581 668 691 550
850.0 419 348 276 289 296 301 232 176 121 84
890.0 76 66 81 73 84 99 113 155 202 297
930.0 403 612 908 1292 1472 1416 1161 700 367 237
970.0 202 207 241 287 360 427 505 543 573 561
1010.0 525 489 490 484 452 397 299 276 288 319
1050.0 333 326 355 439 648 991 1503 1743 1778 1619
1090.0 1090 706 487 397 384 431 548 822 1323 2178
1130.0 3280 3975 4183 3848 3124 2714 2508 2406 2318 2238
1170.0 2469 3154 4283 5572 6132 5948 5200 4022 3148 2565
1210.0 1944 1410 1070 932 894 929 1024 1181 1375 1614
1250.0 1896 2176 2455 2615 2564 2330 2011 1771 1836 2241
1290.0 2605 2703 2570 2274 2102 2209 2288 2080 1768 1316
1330.0 869 613 479 426 424 478 680 1039 1553 2026
1370.0 2126 1885 1524 1228 1307 1755 2244 2601 2854 2895
1410.0 3040 3355 3492 3439 3151 2752 2272 1869 1555 1363
1450.0 1273 1266 1355 1458 1562 1622 1664 1704 1829 1894
1490.0 1865 1833 1784 1914 2071 2177 2132 1978 1734 1509
1530.0 1276 1106 972 814 669 607 609 679 826 964
1570.0 1097 1180 1154 1054 926 806 768 806 913 1058
1610.0 1235 1513 1869 2182 2254 2024 1521 974 599 373
1650.0 259 231 201 216 230 252 241 240 194 179
1690.0 138 128 118 115 109 108 110 102 120 125
1730.0 130 143 174 170 151 133 108 85 72 77
1770.0 73 78 85 95 93 94 82 85 87 91
1810.0 86 83 83 79 76 75 82 86 89 90
1850.0 101 104 104 119 136 160 190 205 201 186
1890.0 157 127 107 107 104 100 101 98 87 86
1930.0 84 80 66 66 66 63 59 69 70 67
1970.0 69 69 70 69 69 66 70 63 57 52
2010.0 46 41 35 33 31 28 28 17 13 9
2050.0 8 1 5 3 7 13 17 34 40 53
2090.0 53 60 63 64 75 74 71 74 71 79
2130.0 79 74 76 77 70 75 65 68 61 62
2170.0 68 69 71 71 75 74 82 83 77 75
2210.0 71 66 73 69 63 64 66 59 62 63
2250.0 60 60 60 51 52 56 57 55 59 67
2290.0 73 73 72 77 68 67 73 68 46 41
2330.0 51 46 26 24 37 51 21 30 22 47
2370.0 59 64 67 75 87 87 83 82 81 69
2410.0 69 71 68 67 65 70 79 82 93 106
2450.0 111 97 98 92 74 67 60 59 52 51
2490.0 52 61 62 52 42 40 37 29 24 29
2530.0 27 22 25 18 30 34 25 31 36 31
2570.0 19 11 5 3 9 5 10 15 2 9
2610.0 14 25 42 50 50 63 68 64 62 46
2650.0 53 57 57 61 63 59 56 57 36 29
2690.0 21 23 30 27 39 47 69 95 114 115
2730.0 108 115 138 150 177 140 112 85 86 71
2770.0 71 73 82 91 109 123 118 127 142 150
2810.0 161 187 214 231 252 269 295 323 366 438
2850.0 542 704 928 1287 1845 2520 3209 3748 3929 3875
2890.0 3647 3417 3237 3185 3299 3608 4067 4588 5016 5347
2930.0 5520 5488 5308 5162 5221 5561 6575 7867 9217 10000
2970.0 9996 9052 7162 5088 3601 2833 2655 2800 3029 3041
3010.0 2800 2407 1917 1660 1576 1628 1701 1735 1703 1564
3050.0 1345 1098 874 715 606 556 551 604 641 685
3090.0 717 699 622 519 431 340 266 216 189 168
3130.0 168 166 168 153 121 108 118 126 136 113
3170.0 110 104 111 107 121 125 102 108 98 90
3210.0 99 93 94 78 110 103 92 89 85 108
3250.0 91 77 89 93 86 90 102 85 89 97
3290.0 87 73 72 85 82 77 82 57 46 57
3330.0 48 47 57 47 50 26 32 29 50 53
3370.0 37 38 27 32 34 39 36 35 38 31
3410.0 38 24 46 47 28 24 11 28 58 48
3450.0 38 44 52 60 58 42 32 21 37 7
3490.0 31 17 37 21 18 9 31 17 1 8
3530.0 18 27 40 42 17 44 51 40 26 12
3570.0 15 41 44 52 44 40 34 32 45 59
3610.0 52 118 133 203 337 692 1394 2433 3415 3561
3650.0 3352 2630 1646 1279 1263 1417 1470 1355 1082 749
3690.0 479 364 270 191 146 115 69 80 21 47
3730.0 75 16 33 16 40 36 37 18 1 17
3770.0 12 34 38 27 17 27 62 58 25 15
3810.0 11 65 5 53 64 81 43 5 9 66
3850.0 73 3 72 52 43 2 38 45 0 24
3890.0 58 54 33 54 2 13 72 43 29 74
3930.0 79 60 45 79 127 107 178 121 90 94
##END=
