##TITLE=Benzene, 1-chloro-2-nitro-
##JCAMP-DX=4.24
##DATA TYPE=INFRARED SPECTRUM
##ORIGIN=Sadtler Research Labs Under US-EPA Contract
##OWNER=NIST Standard Reference Data Program
##CAS REGISTRY NO=88-73-3
##MOLFORM=C 6 H 4 Cl N O 2
##XUNITS=1/CM
##YUNITS=ABSORBANCE
##XFACTOR=1.0
##YFACTOR=0.000106662
##DELTAX=4.0
##FIRSTX=450.0
##LASTX=3966.0
##FIRSTY=0.056744
##MAXX=3966
##MINX=450
##MAXY=1.06662
##MINY=0
##NPOINTS=880
##XYDATA=(X++(Y..Y))
450.0 532 523 736 738 541 470 238 185 181 170
490.0 180 116 190 116 115 201 191 152 199 188
530.0 159 142 147 41 78 241 80 74 155 133
570.0 136 168 162 202 51 217 264 140 181 138
610.0 209 147 107 198 135 190 296 340 546 868
650.0 981 1057 1099 886 496 355 343 238 275 285
690.0 421 488 442 422 512 693 1074 1654 2465 3053
730.0 3740 3824 3343 2445 2128 1866 1665 1778 1974 1866
770.0 1979 1810 1216 885 642 414 305 246 229 241
810.0 253 270 260 260 256 300 362 552 1093 1800
850.0 2186 2411 2150 1814 961 421 271 215 216 190
890.0 176 173 170 170 141 132 148 145 136 180
930.0 205 227 235 246 286 294 252 225 202 171
970.0 187 188 166 163 153 168 164 165 185 171
1010.0 203 262 316 421 533 633 691 746 862 1083
1050.0 1413 1747 1949 1957 1801 1378 871 531 411 334
1090.0 316 292 295 316 302 334 388 457 626 758
1130.0 800 825 808 708 563 503 499 488 484 435
1170.0 428 405 362 353 327 315 305 278 282 280
1210.0 289 288 290 309 305 331 348 353 390 453
1250.0 537 592 584 592 528 469 436 453 508 571
1290.0 632 702 750 809 824 829 856 819 827 868
1330.0 1005 1312 1820 2601 3612 4723 5784 6290 6120 5295
1370.0 3990 2554 1482 1031 757 675 624 553 540 459
1410.0 450 412 423 462 542 659 810 840 959 908
1450.0 932 900 1114 1471 1919 2094 2181 1939 1654 1161
1490.0 894 903 898 1136 1246 1544 1958 2001 2608 2951
1530.0 3552 4611 5320 7069 8393 9452 10000 8589 7946 6399
1570.0 5263 4550 4036 4151 4105 4208 4068 3489 2948 2194
1610.0 1619 974 693 395 393 303 276 227 221 198
1650.0 118 95 91 160 83 115 54 129 66 84
1690.0 81 91 69 11 114 107 125 94 107 147
1730.0 75 147 55 133 102 95 81 81 61 74
1770.0 55 27 73 68 81 116 94 160 176 157
1810.0 161 127 120 82 69 55 92 80 92 68
1850.0 78 56 51 53 44 53 48 65 73 69
1890.0 82 72 85 78 94 97 136 138 169 151
1930.0 137 120 95 95 91 130 120 137 112 92
1970.0 66 32 30 30 23 36 27 30 25 25
2010.0 25 26 34 28 28 33 28 30 26 27
2050.0 24 26 24 23 25 23 15 23 18 17
2090.0 27 23 24 25 16 24 21 16 21 22
2130.0 23 16 19 17 15 17 16 14 15 11
2170.0 15 18 22 18 16 24 26 30 26 29
2210.0 28 22 21 19 13 14 17 15 16 16
2250.0 18 15 18 21 18 23 25 28 32 35
2290.0 38 44 42 40 31 29 24 1 0 0
2330.0 0 0 0 0 0 0 0 0 0 0
2370.0 3 7 37 52 57 58 53 56 59 53
2410.0 50 49 47 41 37 34 27 25 25 25
2450.0 27 22 23 24 18 24 28 27 31 34
2490.0 35 33 35 37 36 37 36 33 34 31
2530.0 29 36 36 39 33 37 36 34 37 32
2570.0 40 37 40 42 41 40 43 43 46 44
2610.0 50 52 53 54 54 58 51 58 59 61
2650.0 58 52 55 56 54 57 59 61 65 68
2690.0 78 86 89 96 107 110 109 108 99 91
2730.0 86 81 74 74 66 62 62 55 51 47
2770.0 45 48 44 51 48 52 54 54 53 57
2810.0 61 68 65 68 65 68 72 69 78 84
2850.0 89 89 106 113 122 130 137 147 163 178
2890.0 193 206 210 216 208 201 187 171 159 135
2930.0 125 113 108 105 91 78 79 75 66 63
2970.0 64 70 66 69 67 69 75 78 89 88
3010.0 90 96 107 102 96 93 101 99 107 115
3050.0 121 125 138 162 198 289 441 587 691 706
3090.0 646 506 316 166 101 74 59 53 51 41
3130.0 44 47 51 47 48 58 49 50 51 48
3170.0 52 50 47 48 45 50 44 33 41 31
3210.0 33 38 32 30 32 24 29 36 34 30
3250.0 38 34 27 35 35 40 32 38 42 36
3290.0 44 38 37 42 42 46 40 48 47 46
3330.0 56 63 58 54 49 64 52 51 51 48
3370.0 56 65 65 65 71 72 65 65 78 58
3410.0 51 56 46 48 42 43 39 34 36 37
3450.0 50 48 50 56 36 48 53 51 58 58
3490.0 61 55 59 77 58 66 71 61 66 82
3530.0 82 47 67 64 79 78 63 77 52 93
3570.0 81 73 84 53 98 49 88 57 81 46
3610.0 79 83 54 94 45 77 74 92 69 96
3650.0 18 110 38 141 52 85 44 56 105 71
3690.0 118 50 140 79 102 94 119 92 117 102
3730.0 109 61 80 125 33 172 58 167 57 110
3770.0 108 114 95 118 108 124 86 143 71 140
3810.0 72 154 58 72 94 111 90 80 88 102
3850.0 122 71 124 95 92 65 92 125 125 89
3890.0 120 46 119 53 129 104 102 104 112 134
3930.0 106 125 113 86 89 123 113 110 79 102
##END=
