##TITLE=Phenol, 2-nitro-
##JCAMP-DX=4.24
##DATA TYPE=INFRARED SPECTRUM
##ORIGIN=Sadtler Research Labs Under US-EPA Contract
##OWNER=NIST Standard Reference Data Program
##CAS REGISTRY NO=88-75-5
##MOLFORM=C 6 H 5 N O 3
##XUNITS=1/CM
##YUNITS=ABSORBANCE
##XFACTOR=1.0
##YFACTOR=0.000083377
##DELTAX=4.0
##FIRSTX=450.0
##LASTX=3966.0
##FIRSTY=0.000000
##MAXX=3966
##MINX=450
##MAXY=0.83377
##MINY=0
##NPOINTS=880
##XYDATA=(X++(Y..Y))
450.0 0 236 432 383 376 378 357 261 375 369
490.0 480 409 455 386 431 419 575 554 666 1127
530.0 1170 1192 1084 1045 851 1000 826 521 622 562
570.0 464 480 499 564 446 600 569 439 600 663
610.0 618 573 657 698 737 720 919 928 1088 1347
650.0 1449 1727 2061 2288 2535 2750 3034 2939 2844 2972
690.0 2604 2134 1707 1501 1140 832 672 560 735 1009
730.0 1564 2165 2411 3685 4935 4404 2583 2674 1990 1333
770.0 1032 815 1077 751 587 592 511 525 537 699
810.0 933 992 1104 1081 1009 894 650 611 563 491
850.0 522 651 1143 1687 1960 1988 2015 1833 1234 522
890.0 341 302 259 297 272 269 293 331 321 341
930.0 323 318 361 368 381 456 434 375 384 353
970.0 343 370 341 347 375 402 416 430 456 515
1010.0 610 767 979 1306 1378 1293 1323 1196 866 630
1050.0 505 493 549 644 844 1020 1124 1147 1170 1064
1090.0 888 745 720 736 746 775 804 808 866 1020
1130.0 1293 1609 1676 1724 1923 1913 1754 1706 1757 1787
1170.0 1791 1819 1977 2309 2763 3269 3675 3918 3985 3904
1210.0 3607 3168 2777 2523 2416 2380 2423 2641 3145 3957
1250.0 4959 5726 6034 6282 6276 5744 5113 4650 4220 3917
1290.0 3642 3256 2926 2908 3168 3700 4548 5665 7014 8400
1330.0 9417 9952 10000 8911 7408 5936 4652 3660 3015 2762
1370.0 2665 2618 2561 2469 2290 2120 1915 1728 1564 1373
1410.0 1264 1131 1024 947 960 1011 1089 1228 1499 1822
1450.0 2488 3131 4168 5189 6287 7634 8436 7536 6595 5739
1490.0 4485 3146 2052 1725 1495 1376 1696 1563 1899 2454
1530.0 3248 4593 5504 6309 6403 6269 5783 4443 3186 2737
1570.0 2529 2547 2965 3469 3814 4437 4792 5145 5611 5506
1610.0 5831 6509 6705 6966 6337 5615 4523 2859 2078 1205
1650.0 707 540 337 529 347 374 359 464 417 462
1690.0 513 556 411 308 414 384 371 250 361 451
1730.0 330 415 298 440 389 345 372 351 313 335
1770.0 273 224 301 304 318 350 333 410 452 452
1810.0 446 437 422 385 356 307 369 338 349 285
1850.0 318 308 292 319 289 291 303 319 334 327
1890.0 336 342 363 351 357 338 364 341 386 380
1930.0 382 385 365 370 361 394 381 382 360 335
1970.0 302 278 269 271 265 275 275 280 274 273
2010.0 275 277 274 268 262 262 260 259 256 259
2050.0 259 263 265 270 267 264 263 268 271 270
2090.0 269 271 267 260 261 265 268 271 277 278
2130.0 278 276 274 268 268 271 269 265 262 255
2170.0 247 249 250 250 247 253 253 258 250 252
2210.0 252 251 249 247 245 237 244 240 235 237
2250.0 237 239 239 240 243 248 253 259 269 282
2290.0 293 303 307 307 307 303 295 265 259 237
2330.0 233 237 226 245 250 304 218 220 220 220
2370.0 220 228 260 286 287 272 261 268 275 284
2410.0 287 292 297 288 283 278 270 266 261 260
2450.0 262 257 256 256 256 256 257 257 259 259
2490.0 264 258 259 261 268 269 262 267 263 264
2530.0 261 261 263 261 265 265 269 275 278 280
2570.0 294 294 298 297 298 292 289 284 277 269
2610.0 269 266 262 264 265 257 257 264 267 273
2650.0 264 267 274 266 256 264 251 246 246 243
2690.0 245 249 250 250 255 266 268 270 268 274
2730.0 277 279 271 269 261 254 239 236 225 224
2770.0 225 231 236 241 249 263 266 273 273 283
2810.0 283 282 289 278 279 273 280 279 278 288
2850.0 299 292 303 304 310 309 309 316 318 318
2890.0 314 309 307 304 301 304 308 311 310 299
2930.0 301 300 306 305 308 296 296 300 300 308
2970.0 313 308 310 311 309 316 324 335 331 336
3010.0 329 335 339 329 320 323 333 350 379 422
3050.0 471 490 509 515 524 552 587 647 713 807
3090.0 846 803 714 633 498 376 299 261 241 225
3130.0 235 220 235 229 229 242 241 259 261 265
3170.0 286 294 299 325 345 369 395 429 476 503
3210.0 567 652 731 819 941 1069 1206 1346 1486 1606
3250.0 1698 1776 1815 1853 1874 1881 1868 1826 1799 1758
3290.0 1725 1681 1635 1561 1503 1439 1383 1326 1279 1240
3330.0 1215 1188 1165 1143 1110 1088 1057 1022 976 936
3370.0 906 873 834 793 766 716 671 634 607 564
3410.0 522 513 475 462 421 411 388 374 356 354
3450.0 357 356 336 338 300 301 294 290 298 292
3490.0 284 261 257 296 308 291 313 312 326 358
3530.0 372 328 335 343 356 336 296 336 305 354
3570.0 332 304 325 290 335 294 350 305 341 303
3610.0 320 352 299 371 298 325 311 343 333 360
3650.0 269 378 261 404 286 342 281 280 342 306
3690.0 366 254 387 321 352 329 362 354 388 380
3730.0 363 302 332 388 235 394 285 420 323 375
3770.0 368 370 355 380 372 382 336 393 287 371
3810.0 267 420 263 323 344 385 340 331 340 390
3850.0 361 291 354 375 384 349 362 400 404 322
3890.0 408 335 412 321 406 383 384 336 394 385
3930.0 330 390 324 362 399 402 371 348 385 360
##END=
