##TITLE=Benzene, 1-methyl-2-nitro-
##JCAMP-DX=4.24
##DATA TYPE=INFRARED SPECTRUM
##ORIGIN=Sadtler Research Labs Under US-EPA Contract
##OWNER=NIST Standard Reference Data Program
##CAS REGISTRY NO=88-72-2
##MOLFORM=C 7 H 7 N O 2
##XUNITS=1/CM
##YUNITS=ABSORBANCE
##XFACTOR=1.0
##YFACTOR=0.000177759
##DELTAX=4.0
##FIRSTX=450.0
##LASTX=3966.0
##FIRSTY=0.033952
##MAXX=3966
##MINX=450
##MAXY=1.77759
##MINY=0
##NPOINTS=880
##XYDATA=(X++(Y..Y))
450.0 191 106 107 133 228 226 271 179 162 66
490.0 63 36 31 29 11 35 1 35 11 31
530.0 16 34 30 36 48 40 53 21 41 38
570.0 37 31 32 32 30 27 1 41 36 50
610.0 41 38 56 34 52 34 53 39 57 71
650.0 119 265 437 627 706 737 662 382 226 206
690.0 192 213 195 224 320 573 1030 1506 1876 2910
730.0 3456 2049 1933 1413 890 536 406 373 401 533
770.0 670 854 1115 1515 1358 1146 966 718 446 180
810.0 118 79 80 76 87 81 83 129 199 541
850.0 1111 1602 1639 1637 1414 719 215 106 58 58
890.0 60 56 71 67 82 64 73 58 55 47
930.0 49 70 67 91 101 114 85 75 63 47
970.0 44 41 49 43 59 52 56 49 52 43
1010.0 40 51 50 68 76 114 143 218 297 330
1050.0 316 285 236 152 113 100 110 117 145 162
1090.0 163 159 156 136 101 94 77 78 69 84
1130.0 94 112 151 191 233 243 306 321 278 236
1170.0 198 143 97 90 80 97 108 140 154 167
1210.0 164 143 117 83 78 68 88 91 109 113
1250.0 129 136 143 168 187 231 231 255 279 333
1290.0 385 471 525 548 604 605 577 554 557 553
1330.0 615 761 1124 1825 2986 4601 5866 6651 6524 5411
1370.0 3348 1739 1036 854 854 815 823 789 639 528
1410.0 489 460 551 554 594 628 674 688 671 677
1450.0 677 719 830 823 836 856 985 1002 1025 1112
1490.0 1165 1113 1167 1229 1414 1771 2081 2592 3288 4186
1530.0 5767 6868 9176 8451 10000 8538 6604 5385 3606 3037
1570.0 2512 2345 1928 1716 1477 1289 1132 1009 1038 1073
1610.0 1197 1158 1139 933 818 514 406 315 239 233
1650.0 230 226 156 136 132 139 165 90 155 132
1690.0 96 66 139 116 96 70 94 154 90 85
1730.0 101 153 85 84 81 93 75 64 76 51
1770.0 87 75 56 56 61 68 102 108 133 119
1810.0 115 110 79 75 70 83 73 69 81 89
1850.0 61 29 26 19 31 46 22 24 28 40
1890.0 53 58 51 53 57 64 77 100 127 111
1930.0 106 92 75 67 68 74 91 98 86 79
1970.0 49 25 8 9 5 17 16 7 10 6
2010.0 7 7 14 6 6 4 3 5 5 7
2050.0 1 6 2 8 9 8 8 5 6 3
2090.0 6 2 5 0 3 1 2 2 1 4
2130.0 3 6 3 7 4 7 8 6 8 9
2170.0 14 12 18 15 17 13 11 8 6 8
2210.0 6 9 4 9 6 10 11 13 14 13
2250.0 13 10 8 5 7 3 6 3 4 3
2290.0 3 6 4 8 11 15 16 23 26 27
2330.0 29 21 25 11 6 9 0 11 4 6
2370.0 11 19 17 24 27 37 41 45 46 41
2410.0 38 34 36 35 37 36 39 40 41 41
2450.0 37 33 25 20 12 15 11 12 12 13
2490.0 14 13 18 17 21 19 20 14 12 10
2530.0 10 8 8 12 8 12 11 12 12 15
2570.0 16 18 24 28 30 28 30 28 26 23
2610.0 24 21 18 23 23 26 24 29 27 26
2650.0 25 24 29 28 33 35 37 37 38 37
2690.0 40 46 49 55 54 56 50 45 39 35
2730.0 30 31 35 36 43 50 59 62 63 62
2770.0 55 45 36 34 32 35 33 35 36 40
2810.0 43 47 53 58 64 72 80 86 99 108
2850.0 118 134 155 182 214 256 294 330 360 372
2890.0 369 349 320 282 257 242 243 250 270 302
2930.0 347 417 507 592 621 614 594 521 427 373
2970.0 359 385 438 525 610 638 602 552 465 360
3010.0 277 230 209 215 243 288 344 386 404 413
3050.0 402 390 419 510 641 765 893 986 952 830
3090.0 685 503 327 212 140 106 87 83 67 58
3130.0 49 45 38 32 32 31 34 30 32 28
3170.0 28 26 24 22 21 25 24 24 22 23
3210.0 19 20 19 20 19 18 19 15 14 13
3250.0 11 12 12 12 11 13 11 10 10 12
3290.0 11 13 11 11 11 11 11 11 13 11
3330.0 14 11 11 13 12 13 9 11 10 14
3370.0 10 12 9 10 12 11 13 13 13 12
3410.0 13 13 12 15 15 11 12 11 9 13
3450.0 11 13 13 12 10 11 10 9 11 13
3490.0 12 14 12 11 11 12 14 13 13 13
3530.0 10 12 11 12 16 12 13 8 13 16
3570.0 14 12 13 15 11 15 17 8 18 10
3610.0 14 16 20 20 9 29 13 13 17 12
3650.0 31 18 29 15 7 18 14 23 6 21
3690.0 13 24 12 20 13 14 21 15 14 24
3730.0 24 21 15 30 17 26 23 9 16 18
3770.0 17 16 14 23 13 17 14 6 22 16
3810.0 20 20 22 28 8 14 17 21 15 21
3850.0 6 32 25 22 24 28 24 19 30 13
3890.0 26 16 22 20 27 15 18 23 20 24
3930.0 20 24 25 27 30 31 22 20 13 21
##END=
