##TITLE=Phenol, 2-(1-methylpropyl)-4,6-dinitro-
##JCAMP-DX=4.24
##DATA TYPE=INFRARED SPECTRUM
##ORIGIN=Sadtler Research Labs Under US-EPA Contract
##OWNER=NIST Standard Reference Data Program
##CAS REGISTRY NO=88-85-7
##MOLFORM=C 10 H 12 N 2 O 5
##XUNITS=1/CM
##YUNITS=ABSORBANCE
##XFACTOR=1.0
##YFACTOR=0.000099695
##DELTAX=4.0
##FIRSTX=450.0
##LASTX=3966.0
##FIRSTY=0.000000
##MAXX=3966
##MINX=450
##MAXY=0.99695
##MINY=0
##NPOINTS=880
##XYDATA=(X++(Y..Y))
450.0 0 905 1523 1058 1162 1460 979 1308 1365 977
490.0 1432 1163 1279 1309 1222 1344 1262 1306 1320 1214
530.0 1463 1085 1186 1324 1045 1513 1458 1223 1427 1310
570.0 1342 1252 1279 1213 1220 1266 1219 1340 1257 1230
610.0 1324 1159 1261 1196 1201 1227 1228 1220 1259 1295
650.0 1388 1325 1362 1318 1353 1433 1452 1503 1533 1585
690.0 1689 1809 1916 2280 2673 3075 2936 2549 2172 2094
730.0 2259 2068 2027 1865 1782 1579 1478 1561 1670 1646
770.0 1629 1528 1572 1637 1526 1414 1385 1365 1291 1266
810.0 1264 1215 1229 1201 1169 1237 1226 1290 1302 1223
850.0 1157 1126 1133 1129 1123 1113 1071 1091 1105 1117
890.0 1142 1164 1241 1350 1457 1585 1676 1690 1740 1835
930.0 1868 1742 1465 1229 1136 1129 1121 1126 1136 1146
970.0 1138 1136 1111 1120 1096 1094 1109 1138 1134 1154
1010.0 1165 1167 1155 1153 1125 1128 1085 1097 1131 1170
1050.0 1174 1212 1289 1403 1541 1730 1878 2008 1989 1945
1090.0 1874 1780 1722 1679 1614 1565 1449 1374 1341 1315
1130.0 1348 1360 1436 1508 1587 1615 1552 1463 1396 1435
1170.0 1505 1512 1459 1379 1301 1301 1310 1360 1425 1428
1210.0 1379 1293 1278 1293 1340 1440 1562 1763 2080 2472
1250.0 2950 3387 3702 3913 4067 4137 3972 3560 3040 2631
1290.0 2383 2229 2165 2177 2261 2400 2497 2610 2799 3099
1330.0 3667 4613 6243 8409 10000 9983 7926 5608 4166 3384
1370.0 2903 2561 2343 2209 2077 1948 1814 1702 1699 1702
1410.0 1810 1933 2137 2374 2627 3016 3467 3919 4227 4169
1450.0 3976 3696 3380 3159 2914 2607 2337 2029 1852 1801
1490.0 1826 1853 1836 1799 1741 1742 1713 1672 1689 1654
1530.0 1719 2017 2423 3035 3423 3679 4334 5472 6655 6386
1570.0 4940 3357 2459 2147 2204 2368 2565 2863 3310 3893
1610.0 4561 4967 4364 3353 2318 1735 1495 1367 1295 1248
1650.0 1222 1194 1165 1156 1140 1109 1093 1062 1051 1068
1690.0 1040 1034 1061 1044 1025 1015 1025 1045 1034 1022
1730.0 1023 1047 1050 1062 1073 1088 1068 1047 1043 1036
1770.0 1035 1024 1020 1019 1033 1045 1044 1049 1060 1050
1810.0 1051 1064 1063 1052 1043 1038 1024 1016 1019 1018
1850.0 996 987 983 970 977 973 967 962 962 967
1890.0 967 965 963 965 962 963 957 953 954 956
1930.0 950 953 951 960 949 950 954 955 961 975
1970.0 959 956 952 953 952 951 958 956 957 958
2010.0 952 955 958 950 947 950 944 950 951 948
2050.0 950 956 950 953 960 968 963 963 957 955
2090.0 953 947 957 954 953 949 943 938 934 941
2130.0 940 946 939 945 945 938 942 943 941 941
2170.0 945 944 946 947 939 940 935 933 936 936
2210.0 938 937 946 941 937 941 940 939 946 945
2250.0 953 956 957 957 958 963 966 963 956 954
2290.0 957 955 951 950 947 942 959 941 949 955
2330.0 962 957 962 962 965 972 959 963 990 970
2370.0 962 960 965 969 961 957 959 959 967 965
2410.0 969 967 971 976 975 979 980 978 984 983
2450.0 979 980 985 985 984 981 981 977 980 983
2490.0 988 980 988 983 981 978 972 983 985 983
2530.0 981 986 985 984 985 981 975 979 978 985
2570.0 988 988 995 996 990 985 985 983 993 998
2610.0 1003 1003 1003 1013 1009 1015 1012 1007 1013 1007
2650.0 1009 1006 1010 1008 1006 1002 1008 1010 1011 1016
2690.0 1015 1022 1024 1020 1025 1021 1027 1024 1019 1015
2730.0 1021 1025 1028 1033 1033 1037 1037 1033 1033 1029
2770.0 1031 1045 1043 1050 1050 1052 1060 1060 1058 1067
2810.0 1075 1080 1083 1089 1095 1100 1106 1113 1116 1133
2850.0 1140 1151 1177 1221 1294 1390 1503 1618 1735 1830
2890.0 1826 1722 1589 1497 1467 1478 1509 1558 1625 1707
2930.0 1792 1912 2044 2134 2121 1972 1803 1725 1799 2170
2970.0 2857 3529 3650 3082 2360 1855 1551 1378 1278 1211
3010.0 1176 1153 1127 1117 1113 1105 1106 1102 1109 1114
3050.0 1111 1115 1127 1129 1142 1141 1164 1169 1181 1210
3090.0 1231 1271 1317 1383 1535 1730 1843 1779 1606 1476
3130.0 1453 1456 1484 1512 1553 1582 1621 1629 1632 1641
3170.0 1649 1649 1644 1644 1639 1634 1631 1629 1627 1612
3210.0 1604 1593 1585 1564 1543 1525 1508 1489 1471 1465
3250.0 1457 1442 1424 1427 1419 1403 1390 1379 1377 1370
3290.0 1349 1341 1330 1309 1302 1291 1284 1278 1262 1255
3330.0 1238 1229 1218 1213 1210 1205 1201 1192 1189 1183
3370.0 1168 1162 1160 1162 1151 1133 1126 1130 1123 1123
3410.0 1119 1117 1120 1101 1101 1100 1099 1104 1095 1082
3450.0 1094 1084 1085 1084 1088 1087 1077 1071 1066 1059
3490.0 1066 1065 1059 1057 1059 1048 1048 1045 1040 1030
3530.0 1026 1027 1023 1016 1012 1013 1007 1000 1018 1009
3570.0 1006 1000 997 992 1001 998 999 994 997 987
3610.0 987 984 969 976 998 992 981 972 969 974
3650.0 955 974 951 969 956 945 947 937 947 937
3690.0 946 965 952 937 941 943 938 936 939 937
3730.0 947 950 944 934 933 936 936 933 933 933
3770.0 933 933 933 933 933 933 933 933 933 933
3810.0 933 933 933 933 933 933 933 933 933 933
3850.0 933 936 933 933 933 933 933 933 933 933
3890.0 933 933 933 942 946 933 933 944 937 933
3930.0 934 933 933 935 943 955 956 933 933 941
##END=
