##TITLE=Benzaldehyde, 4-(acetyloxy)-3-methoxy-
##JCAMP-DX=4.24
##DATA TYPE=INFRARED SPECTRUM
##ORIGIN=Sadtler Research Labs Under US-EPA Contract
##OWNER=NIST Standard Reference Data Program
##CAS REGISTRY NO=881-68-5
##MOLFORM=C 10 H 10 O 4
##XUNITS=1/CM
##YUNITS=ABSORBANCE
##XFACTOR=1.0
##YFACTOR=0.000111334
##DELTAX=4.0
##FIRSTX=450.0
##LASTX=3966.0
##FIRSTY=0.009797
##MAXX=3966
##MINX=450
##MAXY=1.11334
##MINY=0
##NPOINTS=880
##XYDATA=(X++(Y..Y))
450.0 88 102 158 146 92 142 113 107 102 118
490.0 79 113 76 67 80 68 81 90 144 162
530.0 186 229 252 225 190 156 126 108 93 86
570.0 86 101 99 150 149 210 233 249 230 211
610.0 174 154 167 157 122 105 96 86 108 141
650.0 194 309 425 533 560 471 303 157 84 43
690.0 0 9 5 9 15 58 118 242 434 697
730.0 965 1056 958 712 472 314 228 204 228 312
770.0 425 533 569 532 436 318 226 161 121 100
810.0 113 164 254 358 449 471 385 290 212 148
850.0 140 144 169 203 262 335 413 462 548 681
890.0 835 965 949 764 514 318 209 176 190 245
930.0 280 286 280 236 221 237 253 237 195 143
970.0 117 134 167 222 292 372 486 651 870 1065
1010.0 1125 1041 901 860 984 1172 1310 1311 1160 924
1050.0 676 498 408 383 399 430 451 461 452 446
1090.0 460 511 638 884 1319 1941 2583 2928 2787 2316
1130.0 1851 1800 2376 3347 4140 4212 3518 2615 2078 2019
1170.0 2330 2973 4007 5454 7228 9017 10000 9736 8188 5997
1210.0 4005 2579 1696 1204 953 838 803 830 918 1099
1250.0 1419 1928 2618 3399 4273 5111 5604 5541 4771 3617
1290.0 2518 1763 1345 1135 1026 943 858 750 621 484
1330.0 365 275 210 192 204 245 323 483 797 1291
1370.0 1825 2173 2267 2149 1900 1555 1128 766 607 589
1410.0 726 1014 1359 1575 1524 1230 857 619 508 464
1450.0 483 577 711 864 968 965 888 783 721 804
1490.0 1072 1563 2158 2608 2605 2158 1500 942 596 392
1530.0 273 207 166 133 126 142 147 158 195 236
1570.0 300 394 547 776 1036 1317 1536 1698 1649 1452
1610.0 1094 696 406 250 165 121 96 79 85 81
1650.0 93 109 144 158 185 207 246 306 363 431
1690.0 490 588 708 982 1497 2587 4433 5956 6360 5104
1730.0 3052 1662 866 604 508 499 535 606 719 885
1770.0 1134 1501 1987 2530 3029 3356 3447 3326 2915 2349
1810.0 1726 1175 756 517 401 323 282 245 215 184
1850.0 173 163 153 140 134 123 115 99 83 68
1890.0 59 60 63 67 65 64 56 52 46 45
1930.0 41 37 37 33 37 40 45 49 57 63
1970.0 71 77 82 88 90 85 81 80 77 73
2010.0 69 67 63 61 67 65 70 69 68 72
2050.0 74 73 74 75 75 79 82 86 87 87
2090.0 85 81 78 71 67 59 53 49 47 49
2130.0 51 48 48 46 46 47 52 56 58 55
2170.0 49 43 37 32 26 25 25 25 26 24
2210.0 23 25 24 24 25 28 24 26 20 21
2250.0 18 19 19 20 22 24 23 24 27 29
2290.0 34 36 41 47 44 38 41 26 28 25
2330.0 7 12 9 16 8 60 2 15 2 2
2370.0 6 31 45 58 48 33 28 26 25 22
2410.0 22 17 20 12 10 7 8 9 7 7
2450.0 8 9 10 10 10 7 9 4 5 3
2490.0 2 2 3 5 6 9 14 18 18 23
2530.0 26 29 30 34 33 36 37 35 36 35
2570.0 35 37 39 40 41 42 44 44 46 49
2610.0 48 51 49 54 53 55 56 60 57 62
2650.0 63 64 63 60 61 58 60 62 71 84
2690.0 105 141 195 282 403 519 616 703 754 778
2730.0 740 626 472 343 259 214 196 196 218 247
2770.0 285 311 331 350 384 433 497 561 629 699
2810.0 772 844 860 796 679 545 451 408 398 396
2850.0 395 381 345 303 257 227 211 213 213 220
2890.0 217 205 201 192 197 209 232 257 281 298
2930.0 311 340 403 498 612 678 681 634 567 520
2970.0 490 452 390 332 285 261 258 272 315 378
3010.0 457 514 505 420 321 257 228 216 210 209
3050.0 213 213 221 224 233 246 250 241 211 177
3090.0 139 113 107 96 90 78 71 58 51 44
3130.0 40 41 38 32 30 27 27 27 22 19
3170.0 20 21 24 17 20 19 20 20 17 15
3210.0 13 16 12 16 11 13 12 13 11 11
3250.0 13 12 15 11 10 15 13 13 12 13
3290.0 16 15 15 15 15 14 13 13 21 17
3330.0 16 19 16 18 17 19 14 20 22 21
3370.0 21 24 24 26 25 33 37 46 58 64
3410.0 73 80 91 86 72 55 44 30 23 19
3450.0 17 19 17 17 19 18 13 17 22 16
3490.0 14 10 11 19 14 21 16 15 14 15
3530.0 20 22 23 32 47 64 76 100 129 141
3570.0 173 179 194 189 145 115 84 72 58 41
3610.0 37 29 26 13 17 18 17 24 18 21
3650.0 10 19 20 13 17 2 19 6 14 19
3690.0 20 14 21 20 23 23 21 20 14 19
3730.0 24 24 22 27 14 25 14 23 26 24
3770.0 16 16 17 13 15 15 18 14 24 11
3810.0 19 17 21 16 19 15 13 14 8 15
3850.0 10 23 26 19 17 26 21 19 21 23
3890.0 18 13 15 27 20 15 28 21 13 18
3930.0 30 23 26 23 16 25 18 15 22 20
##END=
