##TITLE=4'-Bromo-2'-nitroacetanilide
##JCAMP-DX=4.24
##DATA TYPE=INFRARED SPECTRUM
##ORIGIN=Sadtler Research Labs Under US-EPA Contract
##OWNER=NIST Standard Reference Data Program
##CAS REGISTRY NO=881-50-5
##MOLFORM=C 8 H 7 Br N 2 O 3
##XUNITS=1/CM
##YUNITS=ABSORBANCE
##XFACTOR=1.0
##YFACTOR=0.000046475
##DELTAX=4.0
##FIRSTX=450.0
##LASTX=3966.0
##FIRSTY=0.000000
##MAXX=3966
##MINX=450
##MAXY=0.46475
##MINY=0
##NPOINTS=880
##XYDATA=(X++(Y..Y))
450.0 0 144 195 153 97 103 137 148 62 91
490.0 165 132 109 188 188 208 260 347 410 591
530.0 636 592 523 427 240 233 186 233 204 211
570.0 224 208 271 301 299 314 279 237 212 197
610.0 172 191 178 193 221 236 243 260 274 297
650.0 326 383 416 454 472 478 461 368 309 272
690.0 255 257 262 318 398 502 620 756 804 744
730.0 602 467 378 286 249 220 249 290 297 258
770.0 188 145 96 93 122 114 72 87 77 95
810.0 120 182 319 512 781 977 914 636 441 275
850.0 220 226 255 331 509 773 915 863 608 448
890.0 368 262 189 127 106 103 93 68 78 67
930.0 63 67 66 84 111 132 148 153 158 176
970.0 190 233 259 294 371 445 495 454 363 264
1010.0 211 175 162 160 159 166 178 189 202 215
1050.0 217 226 241 284 338 391 456 486 476 470
1090.0 534 561 509 375 286 249 226 207 183 175
1130.0 172 190 215 277 412 578 678 645 518 377
1170.0 317 319 355 411 475 529 574 670 827 1121
1210.0 1538 2060 2460 2451 2012 1486 1207 1126 1219 1469
1250.0 1871 2341 2872 3357 3555 3261 2540 1910 1651 1706
1290.0 1760 1626 1361 1116 954 878 897 966 1132 1478
1330.0 2164 3320 4571 5013 4191 2884 1926 1497 1440 1629
1370.0 1820 1915 1904 1981 2042 1970 1754 1438 1141 899
1410.0 811 805 871 940 1005 1131 1283 1546 1813 2155
1450.0 2489 2684 2639 2340 2045 1906 2210 2977 4472 6601
1490.0 8678 10000 9763 8392 6525 4670 3559 2833 2555 2149
1530.0 1756 1447 1404 1682 2106 2255 1928 1411 1124 1228
1570.0 1621 2113 2587 2582 2126 1472 1091 1082 1417 1872
1610.0 2042 1756 1124 697 512 430 371 345 291 295
1650.0 276 302 270 251 267 251 263 254 254 262
1690.0 255 291 324 406 439 518 543 658 867 1424
1730.0 2476 3612 4009 3400 2092 1153 736 620 583 553
1770.0 514 433 375 343 311 307 314 317 295 251
1810.0 213 190 162 151 151 133 118 94 104 96
1850.0 88 74 80 73 80 83 71 63 68 72
1890.0 75 80 77 78 78 75 81 84 90 85
1930.0 84 80 80 79 78 69 63 61 56 55
1970.0 46 46 48 44 48 54 52 46 49 49
2010.0 50 48 50 46 49 44 44 47 47 50
2050.0 48 50 51 52 48 55 55 57 54 58
2090.0 58 61 62 58 62 55 58 60 55 54
2130.0 58 56 55 56 61 63 69 73 77 78
2170.0 76 69 62 56 52 55 55 53 49 50
2210.0 50 56 56 55 50 54 51 47 45 45
2250.0 46 51 50 47 47 45 41 50 53 57
2290.0 65 68 74 87 83 99 101 103 116 94
2330.0 88 94 69 81 84 80 96 82 40 41
2370.0 41 55 66 81 75 65 63 68 72 71
2410.0 74 76 82 80 80 75 80 83 77 75
2450.0 70 66 61 60 55 51 55 57 55 57
2490.0 59 58 58 59 56 51 52 53 50 51
2530.0 57 62 66 72 75 70 71 72 63 63
2570.0 63 59 60 61 59 61 57 59 63 66
2610.0 58 55 60 55 57 58 62 58 52 54
2650.0 55 58 62 63 68 69 72 75 75 68
2690.0 73 70 62 63 72 69 74 66 69 72
2730.0 70 66 69 67 67 74 78 78 75 81
2770.0 83 88 89 87 85 87 78 80 79 80
2810.0 78 86 86 91 98 101 108 111 114 114
2850.0 105 100 105 109 112 121 119 125 128 124
2890.0 123 112 102 99 96 104 110 110 121 125
2930.0 139 143 158 164 156 140 124 117 110 110
2970.0 115 110 109 109 103 104 105 100 100 100
3010.0 99 104 104 105 113 115 120 116 124 123
3050.0 119 120 123 125 127 127 125 127 126 127
3090.0 133 140 161 180 186 193 187 210 234 232
3130.0 207 160 114 86 79 78 80 75 79 80
3170.0 75 80 74 75 76 69 69 61 55 58
3210.0 63 68 69 73 72 77 75 62 70 69
3250.0 71 74 72 71 75 73 77 77 84 89
3290.0 82 76 82 82 89 93 101 107 115 118
3330.0 136 152 168 178 182 213 229 262 328 419
3370.0 530 657 802 918 1020 1062 1078 1056 990 888
3410.0 777 656 530 428 349 283 243 196 174 157
3450.0 144 143 124 107 99 90 77 67 67 66
3490.0 78 61 71 72 63 54 63 66 53 58
3530.0 73 54 52 63 57 66 72 66 68 67
3570.0 70 73 79 74 61 82 63 57 63 59
3610.0 62 55 55 54 52 67 53 46 49 53
3650.0 47 49 54 45 67 56 73 75 46 53
3690.0 57 69 62 61 56 46 60 69 61 71
3730.0 56 54 47 77 67 60 56 48 52 41
3770.0 65 54 51 53 54 57 50 52 54 66
3810.0 55 49 54 41 41 42 57 54 52 57
3850.0 49 60 53 48 41 48 55 43 75 81
3890.0 48 66 55 77 56 41 60 66 92 81
3930.0 61 70 83 68 66 76 72 72 41 78
##END=
