##TITLE=Quinoline, 2-methyl-8-nitro-
##JCAMP-DX=4.24
##DATA TYPE=INFRARED SPECTRUM
##ORIGIN=Sadtler Research Labs Under US-EPA Contract
##OWNER=NIST Standard Reference Data Program
##CAS REGISTRY NO=881-07-2
##MOLFORM=C 10 H 8 N 2 O 2
##XUNITS=1/CM
##YUNITS=ABSORBANCE
##XFACTOR=1.0
##YFACTOR=0.000054346
##DELTAX=4.0
##FIRSTX=450.0
##LASTX=3966.0
##FIRSTY=0.021738
##MAXX=3966
##MINX=450
##MAXY=0.54346
##MINY=0
##NPOINTS=880
##XYDATA=(X++(Y..Y))
450.0 400 472 597 390 246 282 231 193 121 155
490.0 99 117 59 62 101 17 73 93 85 32
530.0 17 11 50 65 56 34 13 43 33 27
570.0 47 55 39 38 99 119 122 105 100 66
610.0 52 79 71 71 52 75 86 104 198 414
650.0 874 1390 1680 1003 720 340 219 132 204 238
690.0 250 309 377 384 374 309 290 304 363 435
730.0 489 424 417 634 1041 1493 2225 2325 1741 1147
770.0 583 323 331 549 1072 1795 2451 2539 1762 1113
810.0 756 610 640 797 1073 1456 2108 1986 1339 870
850.0 551 508 647 960 1191 960 664 367 231 191
890.0 216 289 318 278 175 111 80 79 70 75
930.0 71 74 74 79 89 104 113 133 164 188
970.0 206 220 210 204 219 247 271 292 307 347
1010.0 427 516 629 724 811 822 752 629 522 443
1050.0 419 431 452 463 475 475 461 469 482 499
1090.0 477 452 416 376 345 322 305 294 308 329
1130.0 456 654 777 817 607 350 275 268 266 257
1170.0 238 238 235 248 268 324 395 525 722 900
1210.0 949 902 741 541 391 332 406 557 776 828
1250.0 734 585 482 522 551 522 468 428 428 440
1290.0 486 548 688 934 1310 1616 1681 1480 1247 1109
1330.0 1113 1191 1307 1509 1809 2214 2612 2910 3012 2971
1370.0 2892 2878 2844 2607 2152 1565 1081 750 630 599
1410.0 642 723 826 1007 1207 1387 1389 1309 1093 879
1450.0 755 741 732 734 723 731 733 781 904 1086
1490.0 1392 1837 2179 2318 2288 2296 2434 2699 3007 3292
1530.0 3471 3606 3960 4774 6303 8144 10000 9414 6916 4796
1570.0 2935 1924 1635 1641 1755 1831 2038 2350 2510 2351
1610.0 2083 1779 1637 1550 1387 1181 909 587 343 182
1650.0 89 107 146 141 152 137 121 101 101 86
1690.0 109 101 92 72 80 105 120 107 133 137
1730.0 119 117 110 109 85 80 90 87 84 84
1770.0 67 37 43 32 61 50 56 71 90 99
1810.0 98 89 87 68 51 31 36 31 20 10
1850.0 25 41 56 81 93 86 96 83 67 46
1890.0 45 43 40 38 41 49 74 106 127 153
1930.0 160 148 130 97 81 59 44 33 32 27
1970.0 18 19 20 19 16 10 9 16 16 19
2010.0 18 15 12 6 11 11 12 11 11 10
2050.0 14 15 15 17 20 32 35 39 36 37
2090.0 32 26 30 18 25 21 27 24 19 17
2130.0 17 24 21 14 16 15 18 18 18 18
2170.0 22 26 28 28 25 22 29 30 26 30
2210.0 26 24 24 20 17 20 21 17 16 17
2250.0 18 26 27 28 34 44 62 71 84 93
2290.0 108 131 159 186 200 227 199 162 177 118
2330.0 91 62 78 61 128 177 164 123 85 47
2370.0 67 78 138 153 110 53 35 33 31 31
2410.0 33 36 32 37 36 29 30 29 27 34
2450.0 35 34 32 25 25 19 19 18 25 19
2490.0 22 20 16 12 10 10 12 19 18 13
2530.0 16 15 13 15 18 16 18 16 16 16
2570.0 24 22 29 32 31 31 30 25 19 17
2610.0 20 22 25 30 25 26 28 20 24 28
2650.0 30 31 30 29 31 28 32 32 32 31
2690.0 36 38 42 38 39 40 44 49 47 50
2730.0 55 54 58 56 56 54 53 49 50 50
2770.0 53 57 52 47 52 53 55 50 54 54
2810.0 62 64 72 73 84 88 97 105 122 136
2850.0 154 170 184 197 206 209 205 203 215 220
2890.0 227 242 251 275 290 302 317 352 400 487
2930.0 584 634 624 543 444 368 343 330 350 355
2970.0 317 277 230 187 168 163 160 167 193 223
3010.0 272 306 331 344 349 357 354 356 384 458
3050.0 579 765 974 1128 1189 1127 959 742 541 380
3090.0 273 214 179 165 154 140 130 121 95 72
3130.0 58 48 42 39 37 37 43 32 35 29
3170.0 26 18 26 21 19 27 20 18 13 9
3210.0 19 26 10 21 24 21 15 20 18 17
3250.0 20 15 14 14 14 12 11 16 12 22
3290.0 17 8 0 8 4 10 8 7 1 4
3330.0 11 17 21 15 17 20 26 25 35 38
3370.0 30 38 36 41 25 39 40 39 36 34
3410.0 37 34 28 25 29 19 21 22 24 17
3450.0 21 18 30 28 20 32 22 21 20 15
3490.0 31 16 15 28 26 26 16 8 26 21
3530.0 29 22 30 29 41 24 26 46 30 34
3570.0 44 34 44 38 62 48 28 25 30 25
3610.0 37 19 42 12 32 50 33 26 32 42
3650.0 18 14 28 39 46 29 21 45 35 47
3690.0 40 26 54 38 48 48 48 61 52 58
3730.0 47 55 76 53 103 44 45 60 43 53
3770.0 52 78 40 47 54 61 51 52 45 63
3810.0 41 46 49 39 41 58 55 37 17 40
3850.0 51 80 72 77 73 64 57 77 66 92
3890.0 83 71 71 75 79 93 101 104 90 78
3930.0 75 102 110 105 90 105 106 91 97 78
##END=
