##TITLE=Disulfide, diphenyl
##JCAMP-DX=4.24
##DATA TYPE=INFRARED SPECTRUM
##ORIGIN=Sadtler Research Labs Under US-EPA Contract
##OWNER=NIST Standard Reference Data Program
##CAS REGISTRY NO=882-33-7
##MOLFORM=C 12 H 10 S 2
##XUNITS=1/CM
##YUNITS=ABSORBANCE
##XFACTOR=1.0
##YFACTOR=0.000045547
##DELTAX=4.0
##FIRSTX=450.0
##LASTX=3966.0
##FIRSTY=0.003507
##MAXX=3966
##MINX=450
##MAXY=0.45547
##MINY=0
##NPOINTS=880
##XYDATA=(X++(Y..Y))
450.0 77 109 302 729 1237 1511 1626 1533 1589 1501
490.0 1405 1427 1167 1098 857 727 562 592 467 370
530.0 401 391 372 268 254 211 231 199 196 151
570.0 177 167 150 98 41 168 8 43 94 102
610.0 89 91 119 77 148 174 184 163 224 323
650.0 435 642 789 1311 1527 2278 3055 3900 5296 6214
690.0 6904 6057 5605 4509 3393 2620 2441 2663 3384 4732
730.0 6618 9032 9944 10000 8217 6164 4367 3001 2003 1317
770.0 879 598 399 295 210 181 161 83 85 79
810.0 97 71 94 104 121 136 174 200 150 180
850.0 136 188 143 177 160 161 191 158 182 158
890.0 228 242 307 317 326 288 271 262 221 197
930.0 170 188 162 164 139 137 123 110 114 107
970.0 119 127 135 130 162 227 469 727 799 710
1010.0 547 824 2137 3316 3383 2438 953 386 389 397
1050.0 534 655 846 975 1134 1236 1266 1155 942 740
1090.0 604 590 528 498 428 384 311 225 192 147
1130.0 132 85 102 83 104 106 131 157 176 252
1170.0 324 536 702 713 502 275 148 111 101 113
1210.0 136 138 187 209 241 212 193 153 122 133
1250.0 107 141 120 163 156 178 182 203 240 291
1290.0 396 452 513 502 479 417 394 403 370 359
1330.0 299 283 209 201 147 167 165 213 266 248
1370.0 301 273 295 201 237 181 177 187 184 257
1410.0 227 422 480 796 1032 1555 1960 2290 2459 2259
1450.0 1943 1659 1572 1612 2146 3551 5128 6976 5656 4796
1490.0 2457 1084 738 448 528 328 359 318 312 276
1530.0 235 282 215 324 341 423 568 705 1213 1531
1570.0 2326 3261 4298 4658 3899 3024 1946 1342 903 676
1610.0 499 425 342 315 272 296 299 352 361 347
1650.0 329 283 209 192 179 147 152 123 140 146
1690.0 130 129 160 168 173 200 240 278 274 263
1730.0 267 275 254 250 253 260 250 256 261 296
1770.0 346 391 426 513 594 659 587 494 376 305
1810.0 270 222 200 164 160 135 153 161 202 252
1850.0 291 328 362 401 440 492 516 515 458 383
1890.0 290 214 157 132 134 140 180 217 271 320
1930.0 376 425 460 504 533 564 544 473 348 226
1970.0 141 98 74 58 60 47 48 37 41 28
2010.0 18 32 28 34 21 35 22 28 26 35
2050.0 30 36 42 35 40 38 40 32 37 32
2090.0 37 31 30 37 28 25 25 27 27 31
2130.0 25 21 25 23 29 31 43 37 37 36
2170.0 34 38 35 29 21 23 16 16 16 16
2210.0 23 17 20 25 25 31 32 36 37 39
2250.0 48 48 36 41 50 50 57 54 51 50
2290.0 50 55 68 69 102 145 172 158 157 114
2330.0 93 111 91 95 117 84 81 59 79 57
2370.0 54 54 78 87 77 60 64 59 49 50
2410.0 50 48 45 49 50 38 28 23 20 23
2450.0 18 19 24 28 27 19 18 18 25 21
2490.0 17 22 16 21 22 20 19 30 30 36
2530.0 38 42 45 46 45 37 50 48 54 60
2570.0 62 70 65 71 71 71 85 87 84 77
2610.0 80 72 69 58 54 55 66 63 67 73
2650.0 87 91 87 86 69 53 54 52 40 40
2690.0 29 23 22 14 23 13 12 2 9 11
2730.0 11 17 7 19 8 14 6 11 13 12
2770.0 19 14 7 12 13 12 12 12 16 16
2810.0 22 30 30 44 38 38 42 53 52 56
2850.0 51 47 53 54 65 74 87 88 85 74
2890.0 58 67 64 74 85 100 100 109 95 93
2930.0 105 97 101 105 103 87 95 85 87 106
2970.0 108 134 158 190 236 316 408 530 650 785
3010.0 932 1080 1248 1378 1384 1261 1097 1004 1015 1167
3050.0 1476 2087 3164 4941 7116 8380 8219 6970 5671 4853
3090.0 3787 2646 1638 989 625 409 297 214 177 155
3130.0 153 159 198 213 236 258 246 204 148 96
3170.0 76 72 42 45 43 34 34 23 28 24
3210.0 25 17 28 21 20 30 25 31 9 16
3250.0 35 29 13 15 16 21 6 17 22 15
3290.0 15 6 2 8 19 11 24 11 4 10
3330.0 3 9 20 8 31 34 24 15 25 14
3370.0 29 23 25 13 30 36 19 27 35 35
3410.0 22 40 29 32 28 32 45 20 41 41
3450.0 52 40 38 53 38 41 29 32 31 23
3490.0 25 23 21 25 19 8 9 19 25 29
3530.0 17 8 9 24 25 28 19 27 11 2
3570.0 17 25 41 20 51 63 22 15 32 1
3610.0 36 46 26 35 18 40 8 56 38 36
3650.0 45 26 48 36 19 26 26 60 92 83
3690.0 119 102 108 68 85 60 58 72 46 56
3730.0 55 74 37 34 58 53 116 93 71 103
3770.0 104 90 58 40 60 49 38 36 47 43
3810.0 24 41 39 82 54 36 48 43 17 16
3850.0 0 1 5 8 28 11 27 41 63 6
3890.0 16 18 24 42 9 21 22 19 3 40
3930.0 9 23 38 14 11 53 7 14 43 57
##END=
