##TITLE=Benzene, 1,1'-(1,3-butadiyne-1,4-diyl)bis-
##JCAMP-DX=4.24
##DATA TYPE=INFRARED SPECTRUM
##ORIGIN=Sadtler Research Labs Under US-EPA Contract
##OWNER=NIST Standard Reference Data Program
##CAS REGISTRY NO=886-66-8
##MOLFORM=C 16 H 10
##XUNITS=1/CM
##YUNITS=ABSORBANCE
##XFACTOR=1.0
##YFACTOR=0.000064743
##DELTAX=4.0
##FIRSTX=450.0
##LASTX=3966.0
##FIRSTY=0.024343
##MAXX=3966
##MINX=450
##MAXY=0.64743
##MINY=0
##NPOINTS=880
##XYDATA=(X++(Y..Y))
450.0 376 408 621 1100 1770 1730 937 492 342 445
490.0 468 577 751 801 666 684 898 1360 2173 2224
530.0 1384 903 645 533 517 591 681 778 571 388
570.0 208 187 177 177 186 261 345 411 513 449
610.0 387 271 319 356 451 576 602 559 486 600
650.0 679 998 1214 1684 1925 2497 3051 3722 5274 6906
690.0 6487 4399 3493 2605 1834 1368 1056 940 936 1039
730.0 1344 1840 2713 4166 6405 9539 10000 7136 5081 3774
770.0 2200 1271 771 467 332 289 247 176 115 110
810.0 120 155 219 274 318 334 335 363 355 319
850.0 256 210 192 196 208 230 234 224 221 222
890.0 234 249 305 432 614 915 999 683 427 367
930.0 300 248 191 139 107 91 77 48 75 57
970.0 91 62 104 100 128 129 239 518 489 237
1010.0 249 336 581 1374 2071 1277 405 247 260 345
1050.0 386 475 561 728 845 704 439 305 250 227
1090.0 228 242 233 153 91 63 46 28 14 10
1130.0 17 38 60 72 84 112 140 186 172 151
1170.0 189 357 366 205 172 234 474 878 878 448
1210.0 189 127 106 116 173 294 378 301 167 102
1250.0 83 88 112 154 185 230 243 232 207 152
1290.0 99 60 48 43 49 46 57 76 99 154
1330.0 161 117 96 85 59 64 72 115 147 149
1370.0 151 150 158 135 133 81 84 72 76 67
1410.0 91 129 187 281 375 622 844 1606 2187 1177
1450.0 631 525 407 363 335 386 650 1413 3899 6668
1490.0 5012 2459 1126 742 708 531 412 278 318 246
1530.0 246 164 153 152 132 135 140 230 274 399
1570.0 494 505 580 869 1385 2356 2954 2346 1354 617
1610.0 256 128 107 74 83 66 80 93 100 128
1650.0 163 229 320 439 567 473 286 137 137 111
1690.0 89 59 102 88 87 85 115 154 162 201
1730.0 259 337 299 300 309 312 276 217 188 165
1770.0 182 192 264 318 330 393 537 586 478 304
1810.0 242 271 323 373 328 217 122 98 106 114
1850.0 119 127 160 208 276 342 392 402 420 464
1890.0 535 499 342 180 114 106 110 138 181 226
1930.0 262 297 360 431 471 470 496 561 578 449
1970.0 248 127 72 51 38 38 25 18 13 13
2010.0 6 8 7 0 3 4 3 0 6 5
2050.0 4 9 15 17 13 16 10 14 17 25
2090.0 25 28 31 26 20 21 28 32 33 45
2130.0 63 86 125 154 155 129 85 67 58 57
2170.0 61 74 87 106 122 136 162 189 227 250
2210.0 265 239 189 142 121 110 103 107 104 103
2250.0 87 73 65 57 58 65 61 55 46 40
2290.0 40 40 39 49 63 83 144 198 183 140
2330.0 118 139 127 115 73 108 121 108 89 53
2370.0 59 35 37 28 19 16 10 9 10 13
2410.0 15 14 14 17 18 17 14 15 10 16
2450.0 15 13 15 14 15 18 20 17 17 25
2490.0 21 27 30 44 42 40 36 25 18 20
2530.0 25 25 33 29 26 17 22 18 29 32
2570.0 32 33 33 45 62 84 94 87 68 52
2610.0 41 45 46 37 35 35 37 30 37 35
2650.0 37 45 58 69 80 99 115 134 139 134
2690.0 113 94 70 54 46 48 45 24 25 23
2730.0 22 25 25 30 27 27 30 38 38 52
2770.0 53 47 50 55 62 72 75 69 60 52
2810.0 45 40 43 47 52 52 47 54 50 58
2850.0 67 79 83 87 85 87 103 109 129 115
2890.0 100 82 77 82 94 98 115 140 172 195
2930.0 193 180 154 140 132 136 139 150 157 169
2970.0 212 234 244 229 233 241 275 313 379 476
3010.0 595 739 845 899 1009 1246 1530 1782 1931 1835
3050.0 1701 1898 2382 3008 3615 4107 4394 3489 2578 2247
3090.0 2125 2048 1941 1700 1394 1011 657 403 285 241
3130.0 229 238 240 228 206 185 143 110 96 79
3170.0 75 67 61 60 58 61 48 44 38 44
3210.0 38 38 44 37 32 37 33 35 31 28
3250.0 31 28 30 37 33 26 23 26 15 21
3290.0 28 28 24 24 20 26 19 19 23 25
3330.0 21 25 21 22 20 24 21 31 22 27
3370.0 29 21 24 28 33 37 35 35 28 37
3410.0 39 33 35 32 31 32 28 32 24 29
3450.0 24 31 39 47 55 48 46 57 72 64
3490.0 59 46 47 37 31 24 33 26 29 26
3530.0 22 33 30 20 25 20 22 28 10 22
3570.0 18 29 43 18 29 28 33 22 35 27
3610.0 37 27 27 25 32 47 51 32 64 62
3650.0 65 65 69 71 52 55 38 51 39 47
3690.0 48 51 69 72 82 95 70 76 81 82
3730.0 66 81 80 43 61 38 48 36 45 42
3770.0 21 24 25 41 32 35 4 33 19 43
3810.0 28 28 44 52 58 70 25 30 24 36
3850.0 35 50 43 43 36 23 6 17 10 43
3890.0 26 37 12 26 47 61 28 27 39 19
3930.0 31 22 35 25 32 40 32 14 26 50
##END=
