##TITLE=Furan, tetrahydro-2,2-diphenyl-
##JCAMP-DX=4.24
##DATA TYPE=INFRARED SPECTRUM
##ORIGIN=Sadtler Research Labs Under US-EPA Contract
##OWNER=NIST Standard Reference Data Program
##CAS REGISTRY NO=887-15-0
##MOLFORM=C 16 H 16 O
##XUNITS=1/CM
##YUNITS=ABSORBANCE
##XFACTOR=1.0
##YFACTOR=0.000055951
##DELTAX=4.0
##FIRSTX=450.0
##LASTX=3966.0
##FIRSTY=0.006099
##MAXX=3966
##MINX=450
##MAXY=0.55951
##MINY=0
##NPOINTS=880
##XYDATA=(X++(Y..Y))
450.0 109 71 120 122 126 85 35 39 64 53
490.0 9 34 42 113 104 199 323 523 765 810
530.0 727 505 282 201 143 93 62 53 59 77
570.0 36 78 102 142 217 346 480 555 618 618
610.0 593 556 571 574 559 512 519 472 410 419
650.0 386 476 534 695 784 1023 1122 1222 1494 2054
690.0 3619 5532 7278 6945 5525 3657 2552 1958 1655 1458
730.0 1361 1408 1655 2226 2726 2863 2637 2530 2601 2500
770.0 2026 1349 777 463 291 217 184 182 177 201
810.0 205 183 162 165 153 147 173 186 203 234
850.0 283 322 346 374 371 384 365 360 348 354
890.0 383 460 613 815 961 991 969 960 975 962
930.0 945 892 789 683 671 743 862 923 844 693
970.0 588 583 685 821 884 824 716 667 648 653
1010.0 650 730 995 1566 2410 3075 3231 3144 3411 4530
1050.0 6427 8628 10000 9365 7099 4496 2723 1856 1480 1295
1090.0 1157 977 807 686 620 587 554 489 403 325
1130.0 264 242 237 236 239 264 305 357 398 457
1170.0 543 780 1134 1354 1322 1058 821 746 796 932
1210.0 1088 1237 1344 1382 1361 1308 1233 1169 1140 1119
1250.0 1066 964 846 749 685 626 568 532 531 561
1290.0 628 709 769 804 805 784 727 658 583 527
1330.0 465 371 273 200 163 152 142 136 133 126
1370.0 136 149 150 136 126 108 105 97 96 99
1410.0 114 141 181 235 280 366 491 739 1121 1542
1450.0 1814 1771 1570 1415 1234 1046 901 930 1263 1842
1490.0 2241 2140 1575 974 634 446 313 216 174 139
1530.0 137 146 141 130 108 94 73 81 82 93
1570.0 125 172 248 360 511 718 918 1027 940 725
1610.0 474 301 202 145 111 83 67 53 51 54
1650.0 72 86 93 92 98 91 90 69 66 55
1690.0 43 33 41 34 34 37 44 48 52 60
1730.0 72 91 105 112 117 117 91 80 71 73
1770.0 85 109 114 124 153 222 325 409 430 366
1810.0 279 214 173 131 98 67 55 46 46 50
1850.0 62 74 104 140 181 221 241 257 266 256
1890.0 222 170 122 90 78 74 78 84 95 120
1930.0 159 216 287 346 366 350 337 309 249 167
1970.0 94 61 53 57 58 53 58 57 67 75
2010.0 81 79 66 53 40 28 20 11 14 13
2050.0 9 8 10 7 10 6 4 10 10 11
2090.0 12 15 15 17 17 17 17 18 16 13
2130.0 10 7 2 5 4 7 5 5 6 5
2170.0 7 5 10 12 12 13 10 9 9 12
2210.0 11 11 10 13 8 9 11 10 8 13
2250.0 8 15 20 21 29 27 36 35 39 37
2290.0 40 38 45 50 57 76 90 86 74 61
2330.0 45 40 64 84 61 77 55 44 38 23
2370.0 45 51 44 43 29 20 15 14 8 9
2410.0 11 8 1 4 3 9 7 11 10 10
2450.0 9 8 7 7 5 1 2 1 4 7
2490.0 11 4 4 6 6 8 9 12 10 13
2530.0 18 10 17 20 19 20 20 25 23 25
2570.0 29 24 30 30 40 41 38 37 36 39
2610.0 34 32 29 33 39 44 42 44 42 43
2650.0 50 44 43 46 49 53 64 79 104 126
2690.0 130 119 93 73 57 50 46 43 39 42
2730.0 44 43 49 62 67 73 79 82 89 95
2770.0 99 100 100 111 113 120 133 142 160 180
2810.0 200 225 249 286 324 379 429 488 549 622
2850.0 702 812 960 1162 1433 1813 2288 2784 3160 3256
2890.0 3050 2683 2306 2024 1852 1756 1703 1690 1703 1731
2930.0 1792 1877 1955 2039 2118 2246 2423 2611 2792 3087
2970.0 3654 4371 4828 4862 4630 4247 3534 2589 1771 1312
3010.0 1143 1143 1306 1588 1989 2437 2793 2948 2794 2412
3050.0 2084 2093 2492 3302 4420 5169 4913 3914 2876 2496
3090.0 2390 2148 1761 1364 1056 820 643 481 345 257
3130.0 201 153 133 120 111 113 116 117 120 118
3170.0 100 82 64 48 40 40 34 26 26 24
3210.0 24 18 20 24 20 24 16 16 12 12
3250.0 9 18 19 12 12 15 11 15 13 11
3290.0 12 10 10 9 8 9 7 5 11 9
3330.0 14 16 11 12 15 10 12 7 9 17
3370.0 20 10 14 13 10 14 12 12 12 15
3410.0 9 14 9 12 19 16 15 15 7 6
3450.0 11 22 10 17 13 24 18 6 5 7
3490.0 16 8 7 11 1 9 8 15 17 8
3530.0 8 9 12 10 18 15 15 9 12 1
3570.0 20 21 14 7 18 23 10 8 18 11
3610.0 12 8 18 13 20 17 15 32 28 31
3650.0 30 33 40 28 28 13 32 33 30 23
3690.0 38 42 38 38 40 39 28 24 20 29
3730.0 35 25 34 24 23 9 11 2 11 1
3770.0 1 10 1 7 0 15 12 1 1 3
3810.0 1 1 4 1 8 9 6 13 2 1
3850.0 1 8 12 2 1 1 1 1 1 3
3890.0 10 5 8 1 1 1 4 1 2 1
3930.0 2 6 4 7 1 1 1 4 2 1
##END=
