##TITLE=Benzoic acid, 5-bromo-2-hydroxy-
##JCAMP-DX=4.24
##DATA TYPE=INFRARED SPECTRUM
##ORIGIN=Sadtler Research Labs Under US-EPA Contract
##OWNER=NIST Standard Reference Data Program
##CAS REGISTRY NO=89-55-4
##MOLFORM=C 7 H 5 Br O 3
##XUNITS=1/CM
##YUNITS=ABSORBANCE
##XFACTOR=1.0
##YFACTOR=0.000050732
##DELTAX=4.0
##FIRSTX=450.0
##LASTX=3966.0
##FIRSTY=0.000000
##MAXX=3966
##MINX=450
##MAXY=0.50732
##MINY=0
##NPOINTS=880
##XYDATA=(X++(Y..Y))
450.0 0 4 15 4 13 29 58 36 104 111
490.0 138 111 170 154 163 145 184 343 514 745
530.0 778 880 927 889 836 940 900 1191 1423 1782
570.0 1974 1935 1338 1075 706 384 406 361 392 336
610.0 392 560 783 1050 1278 1339 1114 853 558 537
650.0 809 1071 1665 2316 2477 2272 1562 1024 885 925
690.0 1079 1132 1260 1187 1019 710 490 376 254 256
730.0 321 363 502 540 627 727 963 1046 941 757
770.0 466 344 334 422 547 684 769 506 377 307
810.0 320 495 832 1208 1497 1824 1255 931 547 322
850.0 209 181 198 158 142 139 43 44 50 99
890.0 150 159 144 124 115 143 177 240 283 213
930.0 173 144 140 202 250 259 222 165 113 88
970.0 55 55 33 22 33 52 73 62 65 129
1010.0 166 226 249 242 229 232 234 267 280 309
1050.0 419 638 926 1382 1771 1885 2013 1876 1864 1883
1090.0 1799 1682 1374 1231 1253 1339 1513 1612 1689 1778
1130.0 1863 1973 1987 2040 2239 2597 3710 5601 8059 9208
1170.0 8715 7356 4574 2821 1956 1649 1530 1456 1372 1361
1210.0 1351 1483 1690 1876 1938 1787 1607 1470 1434 1581
1250.0 1807 1934 1941 1865 1833 2078 2511 2640 2396 1906
1290.0 1665 1679 1684 1586 1426 1274 1180 1098 1027 982
1330.0 1013 1101 1228 1331 1427 1514 1542 1552 1544 1466
1370.0 1377 1273 1124 1121 1320 1858 2693 3388 3547 3007
1410.0 2054 1358 1112 1063 1060 1092 1133 1203 1085 982
1450.0 951 1079 1557 2185 3018 3663 3928 3658 3282 2673
1490.0 2130 1474 1011 684 576 453 354 338 367 329
1530.0 300 317 289 322 243 221 271 401 477 537
1570.0 685 767 899 876 859 838 848 901 1008 1114
1610.0 1121 1009 894 634 464 334 284 294 259 321
1650.0 338 460 329 336 349 435 504 607 722 908
1690.0 1016 1360 1964 2872 4098 6081 8360 10000 9396 6966
1730.0 4167 2359 1349 1007 928 1031 1235 1543 1887 2095
1770.0 1979 1691 1286 929 736 633 562 417 327 215
1810.0 164 134 105 96 109 96 80 77 81 111
1850.0 88 77 77 68 67 76 46 39 38 49
1890.0 60 64 77 96 98 108 89 98 76 69
1930.0 66 57 40 33 27 25 21 21 21 30
1970.0 20 20 21 21 21 21 28 22 27 24
2010.0 22 22 31 22 32 33 31 20 19 12
2050.0 25 12 12 12 12 12 4 13 12 13
2090.0 14 14 6 14 8 12 24 23 14 24
2130.0 24 34 34 33 31 35 22 35 35 23
2170.0 25 25 14 15 15 14 11 9 7 4
2210.0 16 15 15 14 14 14 24 24 23 15
2250.0 16 21 25 27 33 33 51 61 70 91
2290.0 111 151 181 202 223 263 249 237 261 243
2330.0 271 244 229 257 279 250 299 338 338 311
2370.0 255 208 191 169 112 58 25 14 15 14
2410.0 15 23 23 24 24 29 28 32 37 34
2450.0 33 33 44 34 43 54 50 56 43 33
2490.0 35 31 30 32 35 34 43 34 35 34
2530.0 43 43 43 56 49 45 54 53 54 54
2570.0 53 53 51 55 53 48 50 44 50 54
2610.0 34 44 44 43 43 43 43 43 51 44
2650.0 44 43 43 36 34 34 33 34 34 44
2690.0 32 45 32 44 38 40 43 34 34 43
2730.0 54 63 53 65 65 45 52 59 54 55
2770.0 51 53 44 63 64 53 63 61 65 64
2810.0 69 61 72 84 73 71 82 82 73 73
2850.0 75 70 80 72 90 88 80 93 92 84
2890.0 92 83 72 74 82 83 71 83 76 89
2930.0 103 104 99 103 103 113 103 114 120 115
2970.0 134 138 148 152 142 135 131 123 132 133
3010.0 134 129 135 126 121 128 131 136 142 132
3050.0 123 122 143 172 184 213 232 263 285 275
3090.0 244 214 175 162 142 142 151 151 152 149
3130.0 153 157 151 147 150 155 161 151 152 152
3170.0 151 170 185 190 202 189 207 208 230 255
3210.0 268 296 338 378 420 484 555 621 724 829
3250.0 947 1049 1115 1197 1227 1249 1278 1248 1195 1134
3290.0 1082 998 947 905 859 821 784 743 710 681
3330.0 631 623 598 557 553 522 514 501 474 458
3370.0 437 409 397 367 347 327 309 292 296 285
3410.0 274 272 270 241 249 222 210 211 199 189
3450.0 167 142 139 121 135 123 126 124 113 113
3490.0 112 123 121 127 135 149 156 187 231 301
3530.0 352 369 370 319 308 277 271 327 462 807
3570.0 1434 2462 3734 3956 3617 2274 1005 446 195 98
3610.0 101 80 64 92 64 113 66 72 83 119
3650.0 190 142 122 82 49 48 34 46 5 17
3690.0 55 25 6 23 4 24 62 15 33 52
3730.0 38 61 60 31 71 61 37 4 4 4
3770.0 4 4 4 4 4 4 4 4 33 6
3810.0 5 4 34 44 12 7 25 31 38 27
3850.0 33 64 20 13 23 23 4 4 5 5
3890.0 4 4 4 4 4 4 4 4 4 4
3930.0 5 4 4 4 9 4 4 4 4 4
##END=
