##TITLE=Benzene, 1,4-dichloro-2-nitro-
##JCAMP-DX=4.24
##DATA TYPE=INFRARED SPECTRUM
##ORIGIN=Sadtler Research Labs Under US-EPA Contract
##OWNER=NIST Standard Reference Data Program
##CAS REGISTRY NO=89-61-2
##MOLFORM=C 6 H 3 Cl 2 N O 2
##XUNITS=1/CM
##YUNITS=ABSORBANCE
##XFACTOR=1.0
##YFACTOR=0.000132813
##DELTAX=4.0
##FIRSTX=450.0
##LASTX=3966.0
##FIRSTY=0.032008
##MAXX=3966
##MINX=450
##MAXY=1.32813
##MINY=0
##NPOINTS=880
##XYDATA=(X++(Y..Y))
450.0 241 124 24 127 124 165 308 423 536 428
490.0 407 254 275 204 213 151 147 194 196 257
530.0 312 416 554 893 1157 1259 1059 731 445 247
570.0 285 279 365 412 523 592 577 503 429 370
610.0 329 392 326 254 171 142 133 115 109 61
650.0 75 114 292 455 542 538 404 204 150 149
690.0 135 215 207 242 176 161 118 109 99 104
730.0 126 98 167 173 250 273 404 602 1259 2408
770.0 2828 2902 2176 1014 409 254 162 182 273 594
810.0 1096 1522 2268 2249 1365 968 496 218 135 86
850.0 80 78 89 171 289 564 911 1377 1739 1611
890.0 1289 827 416 188 95 52 37 16 18 6
930.0 5 10 8 21 25 43 39 41 39 36
970.0 38 33 37 20 27 19 20 7 23 24
1010.0 25 46 52 78 96 171 290 547 957 1489
1050.0 1833 1814 1525 961 584 434 434 541 857 1428
1090.0 2138 2835 3419 3716 3416 2796 1881 1012 539 346
1130.0 284 313 406 525 728 871 880 787 566 320
1170.0 260 252 230 217 180 160 119 105 77 75
1210.0 74 74 79 92 126 145 217 331 604 870
1250.0 973 970 785 586 494 437 302 227 193 233
1290.0 286 360 413 444 475 474 507 528 590 664
1330.0 873 1270 1985 3102 4465 6076 6783 6511 5177 3150
1370.0 1774 1043 756 611 616 605 624 590 504 444
1410.0 427 444 562 639 684 697 707 681 715 865
1450.0 1334 2004 3045 4026 4453 4247 3332 2139 1437 979
1490.0 925 758 868 954 1061 1368 1497 1888 2000 2440
1530.0 2797 3288 3953 4941 6817 7587 9734 10000 9407 7885
1570.0 6169 5449 4275 3765 3188 2835 2302 1854 1443 992
1610.0 745 499 454 313 303 287 304 299 223 229
1650.0 181 158 96 93 87 82 145 70 164 152
1690.0 177 147 225 195 174 125 123 155 76 75
1730.0 79 138 73 100 135 169 189 204 229 192
1770.0 206 145 93 62 59 43 53 49 50 32
1810.0 24 38 18 40 44 62 45 39 53 52
1850.0 38 15 25 18 36 52 29 34 44 67
1890.0 92 131 146 140 124 93 62 39 45 19
1930.0 23 18 24 21 23 12 10 10 3 19
1970.0 6 10 7 11 5 17 16 5 10 8
2010.0 8 10 21 14 13 14 10 15 13 16
2050.0 4 12 4 11 10 7 6 6 4 5
2090.0 13 3 6 6 7 5 6 8 7 12
2130.0 10 15 7 11 6 4 7 3 2 0
2170.0 5 3 6 3 7 4 6 8 10 7
2210.0 5 11 5 7 3 8 7 12 8 5
2250.0 7 7 8 4 8 7 13 16 21 30
2290.0 35 45 49 56 51 58 52 51 55 48
2330.0 52 43 41 53 51 58 72 57 50 33
2370.0 12 18 18 30 19 20 17 20 21 20
2410.0 23 17 19 19 23 25 31 30 29 25
2450.0 23 22 19 18 13 15 12 11 13 14
2490.0 14 10 12 12 14 12 18 18 20 25
2530.0 24 25 27 23 18 18 18 17 15 17
2570.0 17 16 18 16 21 19 22 24 30 31
2610.0 31 30 27 24 27 27 23 30 29 32
2650.0 33 31 36 32 38 37 42 45 55 60
2690.0 72 81 92 97 92 89 76 65 58 53
2730.0 41 42 42 38 40 36 34 32 33 27
2770.0 26 30 33 34 41 49 52 57 63 74
2810.0 79 77 82 76 70 71 68 65 65 67
2850.0 72 74 79 85 90 96 101 107 117 134
2890.0 150 172 191 203 203 185 165 139 121 114
2930.0 110 100 90 88 75 63 54 54 46 42
2970.0 41 39 35 31 31 32 29 30 26 31
3010.0 33 39 34 37 35 40 36 36 34 32
3050.0 26 27 30 33 46 71 108 157 186 192
3090.0 199 181 166 148 135 111 81 59 41 33
3130.0 34 29 34 29 29 33 36 21 21 24
3170.0 25 24 21 21 20 22 16 20 19 20
3210.0 16 17 18 20 22 21 19 16 20 20
3250.0 20 22 16 19 20 21 21 23 20 23
3290.0 20 21 20 20 20 24 20 21 22 22
3330.0 23 25 23 22 18 23 26 23 19 17
3370.0 17 19 21 27 22 23 20 21 25 17
3410.0 30 19 24 22 18 27 20 23 19 22
3450.0 16 19 23 22 26 22 20 21 23 16
3490.0 17 20 20 17 18 21 13 15 18 25
3530.0 21 19 22 18 21 26 25 34 23 32
3570.0 29 19 27 20 26 23 24 17 15 22
3610.0 22 24 11 25 21 23 36 39 62 54
3650.0 60 67 35 38 22 38 7 38 18 22
3690.0 24 6 22 20 20 35 25 25 37 30
3730.0 30 16 32 2 48 0 29 31 20 27
3770.0 25 35 24 33 21 25 20 37 11 37
3810.0 0 26 27 19 27 24 24 29 18 14
3850.0 19 20 0 17 12 24 25 15 18 42
3890.0 13 40 4 30 3 21 13 27 24 20
3930.0 24 35 35 29 26 27 36 35 46 35
##END=
