##TITLE=Benzene, 1,2,4-trichloro-5-nitro-
##JCAMP-DX=4.24
##DATA TYPE=INFRARED SPECTRUM
##ORIGIN=Sadtler Research Labs Under US-EPA Contract
##OWNER=NIST Standard Reference Data Program
##CAS REGISTRY NO=89-69-0
##MOLFORM=C 6 H 2 Cl 3 N O 2
##XUNITS=1/CM
##YUNITS=ABSORBANCE
##XFACTOR=1.0
##YFACTOR=0.000061554
##DELTAX=4.0
##FIRSTX=450.0
##LASTX=3966.0
##FIRSTY=0.007079
##MAXX=3966
##MINX=450
##MAXY=0.61554
##MINY=0
##NPOINTS=880
##XYDATA=(X++(Y..Y))
450.0 115 6 461 294 225 339 247 277 184 334
490.0 550 667 763 852 808 804 430 460 335 556
530.0 318 215 505 234 538 740 562 0 482 190
570.0 201 245 374 250 223 540 759 1058 1665 2019
610.0 2005 1679 1342 1286 1267 1579 1768 2178 2394 2222
650.0 1869 1401 939 683 605 699 529 603 747 882
690.0 981 812 666 499 440 318 26 480 560 494
730.0 552 386 518 557 591 604 728 661 556 373
770.0 376 323 341 376 440 538 641 1024 1370 1501
810.0 1323 928 439 345 263 303 278 239 311 299
850.0 325 399 465 495 648 740 796 1057 1600 2302
890.0 3094 2860 2049 1756 2075 3160 4095 3959 2859 1330
930.0 545 376 304 234 249 238 237 214 224 220
970.0 200 223 190 198 203 198 216 195 193 186
1010.0 177 198 190 228 220 196 229 276 290 325
1050.0 373 462 582 802 1413 2457 3949 5163 5546 4934
1090.0 3551 2320 1615 1283 1141 1225 1646 2165 2408 2168
1130.0 1541 1040 791 693 716 776 927 1146 1432 1588
1170.0 1571 1282 881 606 467 436 405 377 357 338
1210.0 289 281 286 271 283 314 368 384 522 698
1250.0 944 1114 1072 862 621 465 394 390 447 433
1290.0 497 539 649 756 846 1051 1402 1941 2867 4097
1330.0 5229 5771 5704 5427 5688 6550 7173 6939 5832 4390
1370.0 3384 2643 2090 1739 1448 1296 1236 1229 1207 1212
1410.0 1271 1324 1357 1292 1218 1362 1782 2771 4424 6136
1450.0 7227 6958 5439 4185 3378 2702 2003 1343 1058 916
1490.0 878 920 1030 1245 1454 1786 2079 2375 2928 3325
1530.0 3875 4675 5515 6697 7539 8039 8572 9131 10000 9977
1570.0 9384 8223 6781 5951 5379 4941 4335 3322 2403 1692
1610.0 1171 886 735 602 513 436 404 367 306 299
1650.0 317 288 287 174 224 174 189 137 157 170
1690.0 150 123 159 173 157 122 141 224 169 157
1730.0 224 246 285 256 310 378 362 372 312 265
1770.0 229 219 165 150 156 146 157 138 155 135
1810.0 125 111 92 102 110 117 82 83 80 95
1850.0 84 83 85 79 84 78 68 52 50 56
1890.0 61 69 59 48 42 43 56 55 54 51
1930.0 34 36 40 48 62 35 31 46 53 54
1970.0 44 41 36 35 33 34 45 47 34 28
2010.0 35 19 29 29 44 32 34 21 40 34
2050.0 37 32 41 44 45 37 31 49 39 43
2090.0 51 16 31 40 18 24 26 39 30 37
2130.0 40 53 62 33 31 39 37 36 47 35
2170.0 38 25 41 35 44 45 41 38 33 35
2210.0 16 11 26 26 19 29 23 29 31 37
2250.0 36 36 36 38 19 44 50 51 67 89
2290.0 111 118 150 165 195 239 189 194 213 216
2330.0 218 192 231 181 324 264 357 261 318 232
2370.0 248 230 209 198 130 51 46 43 43 40
2410.0 48 52 54 62 51 41 46 48 57 51
2450.0 42 50 61 62 59 62 77 51 59 48
2490.0 56 51 59 62 67 66 68 58 60 56
2530.0 43 44 29 38 45 45 51 45 44 54
2570.0 63 62 79 80 70 88 88 77 75 69
2610.0 68 75 68 75 85 86 88 78 88 91
2650.0 99 112 115 130 138 155 143 170 161 163
2690.0 167 153 135 135 124 131 126 111 101 105
2730.0 90 87 97 106 90 83 102 100 95 82
2770.0 111 100 97 114 114 114 128 124 129 129
2810.0 114 108 92 113 106 108 116 122 125 139
2850.0 146 150 164 156 182 202 206 219 244 246
2890.0 251 257 258 255 258 246 253 222 216 223
2930.0 204 192 181 170 152 143 132 126 135 117
2970.0 118 113 106 97 107 106 111 119 109 123
3010.0 125 127 113 119 115 115 125 109 115 126
3050.0 120 114 117 130 124 115 148 155 194 245
3090.0 324 425 490 547 486 335 214 142 117 94
3130.0 98 82 63 80 75 86 62 65 67 57
3170.0 56 58 63 65 57 39 47 50 53 46
3210.0 73 48 32 61 50 54 44 37 65 52
3250.0 52 38 45 37 59 60 55 73 51 60
3290.0 71 58 42 44 34 59 51 45 68 59
3330.0 51 54 50 53 60 63 48 51 38 53
3370.0 49 57 48 45 61 45 53 49 61 61
3410.0 45 50 34 31 36 51 66 65 62 36
3450.0 23 65 55 33 53 44 42 26 50 62
3490.0 60 40 41 53 49 74 53 38 58 41
3530.0 47 44 58 35 37 33 62 45 45 45
3570.0 41 57 63 62 44 64 54 55 36 65
3610.0 40 46 43 37 48 63 45 74 48 40
3650.0 49 55 88 32 77 16 80 50 37 70
3690.0 26 103 44 76 69 58 63 46 47 38
3730.0 50 47 42 33 24 37 76 24 63 39
3770.0 44 62 65 73 93 73 70 69 83 64
3810.0 109 53 90 44 92 53 58 82 32 103
3850.0 24 92 102 87 36 36 54 55 78 76
3890.0 39 34 57 133 137 89 37 38 68 62
3930.0 88 73 96 38 60 136 179 159 63 74
##END=
