##TITLE=Benzenamine, 4-methyl-2-nitro-
##JCAMP-DX=4.24
##DATA TYPE=INFRARED SPECTRUM
##ORIGIN=Sadtler Research Labs Under US-EPA Contract
##OWNER=NIST Standard Reference Data Program
##CAS REGISTRY NO=89-62-3
##MOLFORM=C 7 H 8 N 2 O 2
##XUNITS=1/CM
##YUNITS=ABSORBANCE
##XFACTOR=1.0
##YFACTOR=0.000175992
##DELTAX=4.0
##FIRSTX=450.0
##LASTX=3966.0
##FIRSTY=0.012495
##MAXX=3966
##MINX=450
##MAXY=1.75992
##MINY=0
##NPOINTS=880
##XYDATA=(X++(Y..Y))
450.0 71 129 179 269 271 339 333 373 317 370
490.0 369 387 423 422 426 387 432 442 476 511
530.0 583 623 650 604 522 444 369 319 252 240
570.0 254 234 156 195 218 174 191 184 193 183
610.0 200 204 209 215 235 238 249 271 272 285
650.0 297 304 311 327 348 419 490 539 555 541
690.0 487 381 316 287 259 248 230 228 213 206
730.0 193 193 206 200 212 233 291 336 454 561
770.0 583 603 596 537 465 424 477 663 841 1161
810.0 1629 1496 1199 1033 740 497 316 246 225 208
850.0 188 165 159 145 145 157 179 197 224 266
890.0 248 216 214 237 295 397 451 450 447 359
930.0 231 140 100 79 62 56 43 39 29 22
970.0 14 20 15 17 21 27 40 40 44 36
1010.0 30 18 10 3 2 8 15 34 52 74
1050.0 88 103 102 104 98 97 110 134 186 258
1090.0 347 397 411 368 285 182 102 63 38 32
1130.0 22 23 23 42 88 207 422 760 1047 1020
1170.0 1064 970 606 347 202 141 120 127 151 194
1210.0 239 255 257 269 259 269 374 597 1001 1619
1250.0 2354 2801 2861 2735 2189 1398 856 596 554 697
1290.0 865 987 1075 1058 933 918 1068 1375 1756 2131
1330.0 2475 2871 3374 3793 4049 3945 3512 2457 1486 845
1370.0 575 486 458 469 478 479 473 482 516 587
1410.0 684 714 755 665 589 453 392 337 313 321
1450.0 323 340 348 352 372 429 570 738 898 1109
1490.0 1226 1206 1202 1119 1202 1400 1980 2959 4979 6211
1530.0 10000 7851 9129 5728 3886 2209 1550 1420 1568 1806
1570.0 2082 2281 2185 2121 1796 1507 1337 1200 1229 1141
1610.0 1190 1226 1480 1717 2056 2236 2384 2362 2287 1999
1650.0 1692 1439 950 676 388 316 170 169 141 130
1690.0 90 76 95 51 69 36 62 62 64 53
1730.0 64 90 65 74 70 97 83 94 94 90
1770.0 92 78 67 46 41 21 32 16 24 11
1810.0 11 16 11 28 27 47 41 45 40 47
1850.0 29 12 16 12 19 20 22 16 25 32
1890.0 46 54 53 53 43 37 21 18 13 8
1930.0 6 5 6 6 11 1 6 2 5 5
1970.0 5 6 4 9 6 14 8 9 6 6
2010.0 5 7 10 4 7 3 6 3 5 1
2050.0 1 3 2 6 4 10 5 8 6 8
2090.0 8 8 10 10 13 11 14 9 9 5
2130.0 4 4 5 6 3 8 6 10 10 13
2170.0 13 12 14 11 12 10 13 11 9 9
2210.0 9 10 6 7 4 4 2 3 1 5
2250.0 7 10 12 13 17 16 17 16 15 11
2290.0 12 13 17 20 21 23 19 23 21 25
2330.0 26 34 40 46 55 52 49 40 47 38
2370.0 43 39 36 37 32 34 31 33 33 34
2410.0 34 36 36 34 33 33 36 36 37 36
2450.0 36 32 29 22 19 18 15 14 12 14
2490.0 12 13 15 16 19 17 20 15 16 14
2530.0 14 14 15 20 21 26 28 32 33 37
2570.0 33 33 33 31 31 29 32 29 31 31
2610.0 30 27 26 26 27 32 31 39 37 42
2650.0 43 46 47 48 49 47 48 42 39 32
2690.0 30 28 25 24 23 26 24 27 26 29
2730.0 30 37 43 51 60 66 67 62 57 51
2770.0 51 52 53 55 57 57 57 59 60 64
2810.0 69 76 83 87 91 95 99 103 116 126
2850.0 145 163 198 231 277 325 364 395 405 397
2890.0 372 348 327 316 314 327 349 386 447 539
2930.0 648 715 717 667 562 432 331 282 256 230
2970.0 210 204 201 204 203 205 209 210 222 240
3010.0 273 307 345 392 452 503 520 510 474 414
3050.0 362 352 367 398 411 396 357 303 226 151
3090.0 111 78 68 56 51 47 42 40 30 26
3130.0 26 25 25 26 23 26 24 21 28 28
3170.0 31 29 32 27 28 27 26 26 26 24
3210.0 19 21 19 19 17 17 16 13 15 13
3250.0 13 9 9 7 14 16 7 7 10 8
3290.0 8 13 9 11 13 12 8 11 14 19
3330.0 16 17 21 20 23 25 30 34 37 46
3370.0 49 67 86 123 181 286 453 702 994 1270
3410.0 1412 1373 1166 849 535 289 162 106 75 68
3450.0 60 61 61 69 73 86 97 114 141 161
3490.0 201 247 308 378 474 567 695 791 890 926
3530.0 911 830 694 540 400 276 176 123 82 70
3570.0 58 46 40 31 36 30 36 21 21 22
3610.0 24 24 22 25 16 30 17 12 13 11
3650.0 19 9 16 13 5 13 1 26 7 12
3690.0 7 11 15 17 10 14 19 17 17 23
3730.0 18 21 19 22 33 18 25 11 10 12
3770.0 7 9 0 12 1 8 8 4 6 11
3810.0 14 10 5 22 10 8 9 16 5 11
3850.0 3 23 17 15 8 15 8 10 12 3
3890.0 15 7 6 6 12 2 5 16 16 13
3930.0 18 14 12 18 9 24 4 10 6 13
##END=
