##TITLE=Benzoyl chloride, 2,4-dichloro-
##JCAMP-DX=4.24
##DATA TYPE=INFRARED SPECTRUM
##ORIGIN=Sadtler Research Labs Under US-EPA Contract
##OWNER=NIST Standard Reference Data Program
##CAS REGISTRY NO=89-75-8
##MOLFORM=C 7 H 3 Cl 3 O
##XUNITS=1/CM
##YUNITS=ABSORBANCE
##XFACTOR=1.0
##YFACTOR=0.000055713
##DELTAX=4.0
##FIRSTX=450.0
##LASTX=3966.0
##FIRSTY=0.058053
##MAXX=3966
##MINX=450
##MAXY=0.55713
##MINY=0
##NPOINTS=880
##XYDATA=(X++(Y..Y))
450.0 1042 1047 976 866 687 474 366 351 345 312
490.0 312 334 297 303 333 395 370 393 566 696
530.0 761 917 1060 949 741 607 447 322 266 358
570.0 549 651 1033 1520 1619 1272 756 458 311 147
610.0 208 219 138 73 158 162 150 226 415 519
650.0 591 588 616 690 793 744 731 425 208 220
690.0 149 112 111 189 116 130 159 244 226 266
730.0 298 305 279 319 427 526 630 859 1136 1508
770.0 2071 3013 4122 4798 4685 3760 2422 1481 1099 980
810.0 1028 1165 1396 1618 1351 924 704 565 554 682
850.0 946 1348 1846 2743 4064 5870 8144 9868 10000 8547
890.0 6298 4315 3057 2527 2321 2082 1840 1479 1161 907
930.0 664 498 450 450 398 379 433 400 402 429
970.0 471 462 484 511 529 505 477 448 434 381
1010.0 382 410 364 319 270 283 246 239 313 439
1050.0 634 1110 1661 1991 1888 1508 1069 820 654 550
1090.0 549 633 796 1122 1546 1833 1837 1428 870 480
1130.0 436 555 917 1483 1812 1642 1073 507 406 479
1170.0 662 921 1374 2037 3017 4079 4704 4469 3390 2242
1210.0 1371 825 543 431 342 310 298 351 351 458
1250.0 719 942 949 732 502 440 430 409 364 261
1290.0 188 144 166 151 135 129 169 113 133 151
1330.0 157 135 151 175 190 207 297 415 606 875
1370.0 1248 1549 1526 1336 969 652 424 347 277 264
1410.0 233 262 234 217 186 246 248 349 436 612
1450.0 863 1113 1443 1589 1724 1707 1610 1259 883 579
1490.0 462 318 291 223 301 237 232 262 356 342
1530.0 367 483 622 898 1131 1456 1655 1656 1463 1344
1570.0 1561 2282 3655 5180 5709 4814 2976 1450 751 457
1610.0 305 255 224 193 176 141 170 231 223 225
1650.0 259 320 223 188 199 193 188 161 191 211
1690.0 175 154 251 249 212 213 275 340 372 457
1730.0 564 723 766 951 1052 1216 1371 1584 1779 1960
1770.0 2187 2462 2628 2934 3354 4052 5159 6504 7282 7047
1810.0 5745 4143 3031 2276 1737 1327 992 734 591 464
1850.0 369 290 251 204 198 172 151 144 132 128
1890.0 149 156 152 157 162 160 139 139 111 111
1930.0 94 112 104 114 93 102 95 110 83 109
1970.0 101 95 92 109 95 90 104 82 86 60
2010.0 98 75 92 82 92 92 103 72 106 74
2050.0 95 89 108 77 74 102 100 102 86 90
2090.0 67 72 81 96 59 93 75 96 74 82
2130.0 82 101 72 81 99 86 71 98 88 69
2170.0 78 64 92 81 82 92 98 64 100 76
2210.0 94 70 100 86 90 91 99 96 96 95
2250.0 116 118 90 132 83 95 75 104 77 99
2290.0 79 99 81 72 44 63 61 52 58 63
2330.0 62 16 66 56 21 1 21 0 9 46
2370.0 133 81 113 110 100 79 86 92 98 61
2410.0 92 92 96 78 95 110 79 103 94 129
2450.0 92 103 103 94 76 95 85 86 65 99
2490.0 88 89 85 105 81 98 108 117 144 111
2530.0 133 112 142 112 156 119 121 91 120 75
2570.0 86 75 97 72 100 97 95 88 86 89
2610.0 88 100 97 126 116 99 93 131 102 113
2650.0 108 111 86 128 95 110 75 103 93 106
2690.0 94 107 99 102 69 97 122 78 115 78
2730.0 98 51 91 101 83 67 112 103 85 77
2770.0 85 98 98 116 98 96 89 111 114 108
2810.0 79 99 104 127 76 111 90 87 81 100
2850.0 53 55 73 73 63 52 73 66 81 56
2890.0 97 68 58 56 75 38 24 38 33 2
2930.0 10 30 50 39 87 76 60 56 93 108
2970.0 74 78 99 145 96 102 118 153 97 108
3010.0 116 120 96 120 106 120 93 121 112 110
3050.0 98 123 124 89 116 144 128 122 144 135
3090.0 148 121 183 128 113 114 125 115 94 113
3130.0 119 89 84 101 97 94 79 113 104 95
3170.0 117 110 82 109 86 110 81 73 110 104
3210.0 67 84 114 96 94 98 122 86 86 102
3250.0 108 67 74 92 103 56 76 86 71 31
3290.0 90 76 60 67 94 93 54 64 83 86
3330.0 58 82 94 60 48 94 90 59 63 102
3370.0 86 62 57 95 84 66 66 104 83 57
3410.0 117 102 69 65 111 85 65 76 112 78
3450.0 73 81 108 63 61 95 100 59 74 102
3490.0 102 38 77 103 72 70 107 100 66 93
3530.0 93 114 93 93 113 113 126 142 173 157
3570.0 157 177 165 132 125 166 113 103 150 131
3610.0 111 98 100 122 104 95 115 110 73 71
3650.0 137 83 75 67 88 89 95 123 103 54
3690.0 85 92 75 46 55 85 83 65 78 91
3730.0 68 75 102 90 127 124 149 111 83 94
3770.0 104 92 71 92 98 76 89 117 133 113
3810.0 101 100 92 93 103 122 100 90 108 102
3850.0 83 106 112 92 72 83 83 62 48 70
3890.0 76 52 53 85 87 53 35 52 45 36
3930.0 56 63 45 30 63 66 29 32 32 33
##END=
