##TITLE=Benzoic acid, 2-methyl-, methyl ester
##JCAMP-DX=4.24
##DATA TYPE=INFRARED SPECTRUM
##ORIGIN=Sadtler Research Labs Under US-EPA Contract
##OWNER=NIST Standard Reference Data Program
##CAS REGISTRY NO=89-71-4
##MOLFORM=C 9 H 10 O 2
##XUNITS=1/CM
##YUNITS=ABSORBANCE
##XFACTOR=1.0
##YFACTOR=0.000078125
##DELTAX=4.0
##FIRSTX=450.0
##LASTX=3966.0
##FIRSTY=0.007188
##MAXX=3966
##MINX=450
##MAXY=0.78125
##MINY=0
##NPOINTS=880
##XYDATA=(X++(Y..Y))
450.0 92 111 118 117 86 76 81 112 81 62
490.0 25 5 11 49 42 32 27 12 73 52
530.0 29 23 26 32 45 62 72 66 67 80
570.0 59 54 77 57 87 72 93 105 103 59
610.0 93 101 80 80 106 115 82 94 125 103
650.0 140 228 326 387 373 334 243 174 189 233
690.0 274 267 309 254 251 232 291 517 918 1450
730.0 1992 2764 2896 1812 1529 994 560 343 302 284
770.0 308 294 300 286 287 291 235 201 175 185
810.0 223 238 289 320 358 403 371 305 283 206
850.0 183 171 168 166 161 133 145 119 139 139
890.0 153 175 172 160 154 123 133 118 133 135
930.0 148 149 163 163 187 204 229 261 303 333
970.0 338 332 295 247 213 173 165 166 153 155
1010.0 148 159 184 191 216 238 275 368 487 650
1050.0 746 745 731 702 823 1216 1926 3030 4213 4947
1090.0 4975 4243 2997 1946 1346 1088 995 1030 1159 1398
1130.0 1623 1852 2016 1931 1666 1382 1045 863 782 757
1170.0 728 658 651 752 878 974 997 1005 931 852
1210.0 862 875 856 882 900 985 1176 1575 2309 3638
1250.0 5681 8010 9669 10000 8227 5640 3716 2870 2787 3178
1290.0 3707 3834 3460 2743 1765 1054 674 508 437 386
1330.0 346 316 289 270 253 244 238 237 237 238
1370.0 243 263 281 314 351 360 378 348 301 288
1410.0 278 294 329 382 495 770 1153 1519 1703 1662
1450.0 1372 1194 1100 957 894 804 732 659 639 658
1490.0 648 589 538 406 351 278 225 224 242 217
1530.0 205 218 219 259 227 225 240 301 310 307
1570.0 356 381 418 396 384 370 398 457 514 525
1610.0 491 408 341 247 219 196 197 209 181 200
1650.0 186 250 181 176 176 198 201 224 244 301
1690.0 295 344 422 511 581 685 856 1115 1411 2033
1730.0 3208 5005 6729 7288 7453 6111 3936 2540 1749 1328
1770.0 1125 956 728 544 384 278 225 175 168 161
1810.0 162 167 154 146 134 123 113 110 118 125
1850.0 104 91 84 84 77 89 83 81 77 79
1890.0 89 92 101 105 113 130 137 157 175 188
1930.0 180 170 151 133 127 124 123 125 118 111
1970.0 91 85 72 66 65 65 63 59 58 58
2010.0 65 65 70 76 76 83 89 90 101 100
2050.0 111 106 102 100 94 88 86 80 92 93
2090.0 92 93 85 76 73 67 60 55 54 54
2130.0 54 47 47 47 47 45 45 46 46 49
2170.0 52 44 44 44 45 44 44 44 44 44
2210.0 44 44 47 49 49 55 54 43 41 41
2250.0 41 41 41 41 41 41 40 40 40 40
2290.0 40 40 40 40 40 45 45 55 60 62
2330.0 72 75 77 75 64 44 56 49 68 68
2370.0 69 47 50 34 35 35 36 36 34 35
2410.0 34 34 34 32 32 28 28 26 26 26
2450.0 21 27 20 25 20 20 19 19 19 15
2490.0 19 19 19 24 17 24 23 23 24 24
2530.0 22 22 26 23 22 21 30 21 27 27
2570.0 28 28 28 26 26 27 27 27 19 19
2610.0 14 20 14 18 13 13 13 12 12 12
2650.0 7 13 19 19 12 12 13 14 13 19
2690.0 14 16 13 21 21 13 21 14 16 22
2730.0 28 29 29 30 35 35 42 43 35 31
2770.0 30 31 23 24 31 25 31 31 32 34
2810.0 38 45 56 61 70 82 107 158 225 299
2850.0 327 320 267 206 197 199 216 228 241 254
2890.0 267 280 299 312 327 356 388 419 445 467
2930.0 506 580 670 742 838 1015 1334 1618 1676 1545
2970.0 1250 861 706 706 705 698 681 655 616 551
3010.0 503 484 503 570 648 714 744 710 635 545
3050.0 488 481 514 588 663 736 791 804 732 628
3090.0 492 351 252 204 185 178 165 139 108 88
3130.0 76 70 59 63 57 60 62 56 55 49
3170.0 50 42 43 45 37 35 31 28 26 27
3210.0 32 26 20 20 21 19 16 15 13 13
3250.0 21 8 16 13 11 10 10 18 5 7
3290.0 8 16 21 14 9 13 18 13 13 13
3330.0 7 20 20 14 21 17 22 17 16 15
3370.0 15 16 16 9 17 22 17 17 20 17
3410.0 14 13 18 18 18 18 25 18 26 31
3450.0 31 41 51 65 67 66 66 52 35 33
3490.0 28 27 28 22 21 15 20 14 7 17
3530.0 12 11 12 11 12 12 17 19 19 20
3570.0 27 17 16 22 25 27 26 20 27 21
3610.0 33 26 26 31 30 45 24 23 22 35
3650.0 54 35 23 23 31 53 43 51 30 34
3690.0 51 39 31 26 31 45 43 33 41 48
3730.0 46 65 65 60 79 71 67 53 53 53
3770.0 54 47 47 55 55 55 58 71 81 74
3810.0 63 74 81 81 69 69 76 83 72 74
3850.0 80 90 72 71 77 78 77 66 70 66
3890.0 65 67 69 79 75 74 67 67 62 68
3930.0 67 68 62 65 62 68 0 5 5 5
##END=
