##TITLE=Phenol, 2-(1-methylpropyl)-
##JCAMP-DX=4.24
##DATA TYPE=INFRARED SPECTRUM
##ORIGIN=Sadtler Research Labs Under US-EPA Contract
##OWNER=NIST Standard Reference Data Program
##CAS REGISTRY NO=89-72-5
##MOLFORM=C 10 H 14 O
##XUNITS=1/CM
##YUNITS=ABSORBANCE
##XFACTOR=1.0
##YFACTOR=0.000110004
##DELTAX=4.0
##FIRSTX=450.0
##LASTX=3966.0
##FIRSTY=0.026731
##MAXX=3966
##MINX=450
##MAXY=1.10004
##MINY=0
##NPOINTS=880
##XYDATA=(X++(Y..Y))
450.0 243 163 162 265 394 429 463 592 686 727
490.0 842 759 746 832 668 579 539 407 362 318
530.0 310 294 293 294 220 240 241 222 239 211
570.0 207 204 220 246 244 208 175 158 113 108
610.0 112 92 55 72 34 42 8 58 48 38
650.0 56 4 5 29 5 42 20 47 72 87
690.0 134 160 218 269 320 387 433 504 604 855
730.0 1413 2453 3752 5011 6457 6224 4536 3049 1871 878
770.0 461 353 313 312 339 346 367 412 473 598
810.0 777 988 1165 1262 1267 1097 862 640 514 437
850.0 413 452 461 451 426 352 223 164 93 78
890.0 46 35 52 24 21 26 49 73 140 183
930.0 221 224 197 159 144 146 179 197 227 226
970.0 236 203 200 194 215 306 390 489 566 637
1010.0 721 724 735 678 633 685 773 885 910 868
1050.0 764 691 662 671 712 839 1009 1221 1377 1462
1090.0 1418 1268 1150 1091 1101 1136 1170 1108 1028 963
1130.0 1000 1193 1530 1890 2281 2538 2566 2625 2927 3678
1170.0 4527 5123 5310 4810 4153 3805 3757 3852 3857 3617
1210.0 3129 2591 2128 1843 1711 1714 1924 2387 2946 3391
1250.0 3581 3570 3196 2663 2162 1781 1617 1586 1581 1581
1290.0 1496 1421 1385 1389 1532 1808 2224 2684 2845 2741
1330.0 2305 1705 1136 738 563 478 418 465 470 531
1370.0 640 792 1014 1072 1067 885 699 506 354 330
1410.0 320 327 347 418 443 628 790 1189 1814 2377
1450.0 3279 3792 3938 3845 3244 2683 2317 2219 2511 2927
1490.0 3332 3541 3440 2939 2501 1842 1333 1006 702 518
1530.0 351 307 256 244 217 202 270 299 430 466
1570.0 705 935 1136 1501 1515 1599 1568 1362 1327 1216
1610.0 1144 997 797 581 352 238 157 143 114 122
1650.0 125 134 168 141 195 211 226 218 194 187
1690.0 134 121 137 151 126 97 74 88 42 40
1730.0 58 49 58 45 56 67 79 95 121 135
1770.0 138 165 137 135 115 131 104 108 77 89
1810.0 76 72 78 49 59 53 29 40 39 83
1850.0 69 68 66 55 76 74 104 119 170 192
1890.0 215 199 171 128 108 89 104 122 146 157
1930.0 146 115 77 45 30 14 16 26 13 12
1970.0 20 13 5 22 27 21 18 24 17 19
2010.0 8 15 16 15 17 19 33 24 24 19
2050.0 24 27 54 44 50 59 45 48 36 28
2090.0 29 16 33 26 36 30 19 19 12 6
2130.0 14 2 5 4 4 12 8 9 5 9
2170.0 16 18 15 19 15 22 12 24 24 13
2210.0 6 10 26 11 9 14 24 25 15 14
2250.0 31 31 25 34 41 32 41 40 41 56
2290.0 72 74 81 78 94 100 104 94 80 94
2330.0 82 68 69 45 85 77 65 48 69 74
2370.0 66 74 88 87 91 86 87 96 97 94
2410.0 103 103 110 123 121 118 112 104 97 96
2450.0 96 94 92 97 96 94 96 101 106 102
2490.0 98 94 94 78 69 70 67 66 63 65
2530.0 67 68 61 68 65 76 73 74 86 85
2570.0 84 86 96 97 94 97 90 87 99 95
2610.0 99 95 95 97 103 98 102 101 99 99
2650.0 100 94 98 98 99 102 104 103 105 104
2690.0 107 108 111 115 120 125 128 135 142 153
2730.0 169 179 189 197 195 187 170 163 160 149
2770.0 153 155 160 169 177 193 204 217 243 250
2810.0 273 296 321 352 378 419 451 485 519 577
2850.0 653 776 1010 1372 1824 2370 2923 3471 3879 3924
2890.0 3642 3179 2676 2362 2328 2484 2780 3158 3582 4036
2930.0 4491 4885 5110 5000 4650 4300 4291 4986 6466 8466
2970.0 9922 10000 8687 6382 4198 2572 1626 1178 976 904
3010.0 948 1041 1165 1329 1506 1689 1822 1884 1851 1746
3050.0 1604 1463 1397 1439 1632 1859 2000 2006 1835 1546
3090.0 1262 1016 818 664 544 463 404 354 303 253
3130.0 223 197 185 181 178 178 169 174 172 168
3170.0 162 155 152 154 141 133 124 119 108 103
3210.0 100 97 86 84 78 71 77 65 59 51
3250.0 56 48 48 48 47 49 47 46 48 55
3290.0 48 45 52 56 45 42 49 47 48 47
3330.0 55 50 58 68 72 82 85 80 86 78
3370.0 84 82 85 81 79 82 79 77 77 67
3410.0 68 72 71 62 62 67 63 53 55 54
3450.0 48 51 37 44 34 39 36 31 34 27
3490.0 27 27 27 20 6 13 17 23 19 1
3530.0 21 23 23 29 17 17 35 15 39 15
3570.0 17 46 32 37 26 18 53 15 76 36
3610.0 77 98 114 231 288 532 1060 1788 3155 4079
3650.0 4679 4611 3691 2628 1453 826 380 233 133 78
3690.0 60 36 51 1 10 1 1 6 0 1
3730.0 6 1 10 15 20 11 4 2 1 4
3770.0 0 22 1 20 16 17 27 20 0 73
3810.0 0 67 1 49 30 56 8 26 24 48
3850.0 47 7 63 2 38 45 1 63 22 51
3890.0 30 60 46 44 40 33 42 36 41 37
3930.0 38 36 50 47 55 55 72 55 85 50
##END=
