##TITLE=Benzenemethanamine, 2-fluoro-
##JCAMP-DX=4.24
##DATA TYPE=INFRARED SPECTRUM
##ORIGIN=Sadtler Research Labs Under US-EPA Contract
##OWNER=NIST Standard Reference Data Program
##CAS REGISTRY NO=89-99-6
##MOLFORM=C 7 H 8 F N
##XUNITS=1/CM
##YUNITS=ABSORBANCE
##XFACTOR=1.0
##YFACTOR=0.000094894
##DELTAX=4.0
##FIRSTX=450.0
##LASTX=3966.0
##FIRSTY=0.020592
##MAXX=3966
##MINX=450
##MAXY=0.94894
##MINY=0
##NPOINTS=880
##XYDATA=(X++(Y..Y))
450.0 217 96 63 164 127 227 182 185 117 40
490.0 44 72 74 100 124 101 198 155 183 126
530.0 126 149 135 106 147 139 90 141 133 128
570.0 129 201 261 297 454 367 355 340 303 199
610.0 161 119 90 84 97 96 82 124 103 130
650.0 144 182 175 206 234 235 299 309 419 445
690.0 574 661 809 962 1194 1395 1607 1806 1953 2203
730.0 2426 3224 4181 5539 6157 7704 10000 7640 5231 4567
770.0 3328 2312 1781 1759 1880 2085 2329 2558 2761 2785
810.0 2671 2429 2150 1889 1830 1938 2145 2383 2534 2464
850.0 2276 2020 1796 1619 1535 1494 1401 1260 1040 825
890.0 666 538 423 330 272 233 226 239 272 323
930.0 367 476 485 367 306 266 209 194 150 170
970.0 160 166 158 146 153 154 169 175 204 229
1010.0 302 400 540 718 856 925 925 900 796 678
1050.0 587 561 548 537 507 454 433 416 449 509
1090.0 587 655 699 685 633 548 448 376 324 314
1130.0 314 349 394 440 475 465 449 384 364 381
1170.0 520 771 1094 1369 1536 1588 1531 1339 1111 1031
1210.0 1154 1617 2463 3611 4528 4902 5254 5187 4055 2768
1250.0 1907 1434 1219 1111 1047 982 886 781 653 517
1290.0 401 336 283 243 210 204 208 217 233 251
1330.0 288 337 416 465 483 507 530 547 572 597
1370.0 637 728 829 926 992 955 882 753 595 428
1410.0 335 249 262 246 261 308 438 624 900 1312
1450.0 1867 2317 2578 2636 2592 2340 2186 2443 3206 4235
1490.0 4798 5003 4905 4155 3051 1969 1194 733 508 330
1530.0 258 206 218 211 210 196 246 309 407 492
1570.0 700 965 1315 1610 1814 1917 1908 1757 1478 1347
1610.0 1358 1411 1407 1294 1156 975 849 753 681 675
1650.0 599 531 358 248 199 185 166 180 179 233
1690.0 179 172 183 161 112 77 100 106 75 58
1730.0 79 97 99 91 120 158 173 175 179 178
1770.0 180 199 185 215 203 216 188 166 159 131
1810.0 114 121 104 99 104 87 76 47 56 52
1850.0 43 35 49 55 69 73 62 57 54 63
1890.0 85 124 163 188 190 185 158 124 103 94
1930.0 111 133 145 139 122 89 59 30 24 17
1970.0 16 14 11 11 10 18 11 10 4 7
2010.0 6 9 17 17 23 19 23 28 34 37
2050.0 35 49 52 52 45 51 45 45 37 38
2090.0 32 30 23 14 11 6 9 8 10 3
2130.0 5 8 3 9 4 6 5 3 1 3
2170.0 2 1 3 3 7 4 6 4 6 11
2210.0 13 10 10 13 14 17 20 13 17 19
2250.0 20 16 16 12 14 11 18 15 19 23
2290.0 32 46 54 66 83 89 84 86 92 83
2330.0 75 62 58 54 34 55 91 69 47 21
2370.0 0 0 0 3 6 13 21 20 29 32
2410.0 34 39 46 42 51 45 43 46 52 58
2450.0 67 70 75 69 55 40 37 29 27 21
2490.0 19 19 22 17 17 19 25 25 27 28
2530.0 30 28 28 31 31 33 35 30 44 40
2570.0 41 43 43 43 44 43 40 30 32 30
2610.0 24 21 19 22 19 22 31 29 19 26
2650.0 41 44 56 54 67 62 64 61 65 63
2690.0 64 68 70 70 70 61 68 67 74 76
2730.0 78 84 87 92 93 104 121 130 133 140
2770.0 134 144 141 141 148 164 172 188 197 206
2810.0 209 206 208 231 256 291 331 381 436 505
2850.0 564 641 705 778 859 944 1023 1083 1123 1110
2890.0 1060 996 938 888 848 846 848 884 927 985
2930.0 1039 1113 1190 1238 1248 1253 1202 1126 1015 893
2970.0 773 644 540 442 364 311 260 234 208 189
3010.0 203 240 285 348 454 569 676 777 899 998
3050.0 1044 1064 1093 1087 1075 1120 1203 1300 1369 1371
3090.0 1232 1028 836 640 438 297 216 168 133 113
3130.0 97 80 67 54 63 54 50 66 60 76
3170.0 73 61 65 62 62 61 65 62 58 68
3210.0 72 62 65 60 61 58 54 52 53 61
3250.0 61 58 56 50 51 52 67 55 67 66
3290.0 50 50 54 56 71 64 51 67 62 71
3330.0 78 72 82 111 143 133 164 133 112 109
3370.0 98 71 74 70 59 73 83 85 70 118
3410.0 102 133 133 143 120 107 89 89 77 64
3450.0 68 77 65 52 40 54 58 43 52 48
3490.0 31 26 36 37 36 23 48 16 38 33
3530.0 17 38 31 30 17 25 27 29 34 21
3570.0 38 33 11 26 30 41 42 38 27 35
3610.0 41 28 27 36 24 41 5 22 44 35
3650.0 36 33 63 23 24 16 62 44 21 32
3690.0 43 38 34 35 12 14 19 32 6 39
3730.0 39 34 42 42 51 29 28 42 14 13
3770.0 34 42 44 47 38 19 20 38 10 21
3810.0 29 35 68 21 38 44 17 41 19 26
3850.0 43 48 61 31 39 46 40 59 15 37
3890.0 94 89 40 66 7 60 40 36 58 64
3930.0 55 15 88 61 71 34 52 50 48 21
##END=
