##TITLE=Benzaldehyde, 2-hydroxy-
##JCAMP-DX=4.24
##DATA TYPE=INFRARED SPECTRUM
##ORIGIN=Sadtler Research Labs Under US-EPA Contract
##OWNER=NIST Standard Reference Data Program
##CAS REGISTRY NO=90-02-8
##MOLFORM=C 7 H 6 O 2
##XUNITS=1/CM
##YUNITS=ABSORBANCE
##XFACTOR=1.0
##YFACTOR=0.000194089
##DELTAX=4.0
##FIRSTX=450.0
##LASTX=3966.0
##FIRSTY=0.086369
##MAXX=3966
##MINX=450
##MAXY=1.94089
##MINY=0
##NPOINTS=880
##XYDATA=(X++(Y..Y))
450.0 445 331 313 219 171 144 154 156 178 137
490.0 197 194 193 133 129 144 171 186 208 237
530.0 260 310 342 412 238 289 292 282 254 249
570.0 244 206 195 166 157 171 167 186 197 210
610.0 237 250 298 320 308 247 262 219 166 141
650.0 203 363 582 757 878 1080 1067 955 845 774
690.0 800 943 1131 1369 1532 1634 1722 1632 1309 1086
730.0 1008 1070 1280 1479 1783 1905 2266 3142 2005 1675
770.0 1506 1285 796 373 166 49 30 12 25 13
810.0 30 26 33 33 18 26 22 33 33 62
850.0 55 89 134 114 129 309 751 1103 1106 1271
890.0 1116 979 354 91 37 27 29 24 38 34
930.0 37 37 64 79 52 55 60 52 49 43
970.0 36 34 36 31 28 49 42 53 47 63
1010.0 89 115 215 307 323 300 313 276 142 67
1050.0 35 25 17 18 14 13 7 5 3 3
1090.0 10 18 61 143 256 292 283 301 290 257
1130.0 263 429 739 1199 1202 1096 1350 1278 924 782
1170.0 747 759 766 879 1067 1273 1568 1533 1493 1694
1210.0 1542 1212 1077 1139 1190 1121 1042 864 644 351
1250.0 254 310 449 686 1014 1512 2195 2956 3496 3788
1290.0 3808 3501 2659 1735 1036 580 405 379 427 517
1330.0 607 658 627 611 572 482 380 328 345 414
1370.0 562 741 980 1053 940 1046 1080 866 808 822
1410.0 839 869 803 809 735 691 604 575 590 657
1450.0 842 1123 1439 1559 1585 1869 1921 1805 1896 1811
1490.0 1621 1638 1455 1020 595 326 237 174 140 146
1530.0 91 83 54 34 54 108 129 146 273 426
1570.0 648 919 1178 1269 1397 1528 1394 1134 1005 979
1610.0 1115 1425 1669 1739 1614 1515 1301 1073 1073 1136
1650.0 1116 1166 1300 1710 3011 5930 8850 9554 10000 8978
1690.0 6758 3296 1433 750 593 549 510 424 416 342
1730.0 226 100 74 53 25 16 35 46 50 74
1770.0 52 50 69 59 69 75 69 67 62 72
1810.0 48 35 40 37 36 33 44 52 34 16
1850.0 23 35 31 39 38 35 66 72 70 61
1890.0 47 30 27 34 41 54 53 55 54 57
1930.0 42 35 41 47 68 75 74 67 61 36
1970.0 20 23 21 21 21 15 11 16 14 16
2010.0 14 9 9 11 14 14 18 13 17 25
2050.0 25 24 22 12 2 3 5 17 29 37
2090.0 37 38 28 22 16 13 9 9 7 8
2130.0 4 8 7 4 5 10 13 13 18 23
2170.0 22 24 24 21 15 13 15 15 13 12
2210.0 13 12 13 18 18 20 23 26 24 23
2250.0 21 18 21 21 20 15 15 8 8 8
2290.0 9 10 17 22 20 27 29 34 31 35
2330.0 31 25 35 41 35 43 63 59 33 0
2370.0 1 1 1 11 20 23 21 17 17 10
2410.0 9 7 3 2 4 1 3 2 2 2
2450.0 3 5 5 5 11 13 14 16 13 15
2490.0 22 21 24 34 36 34 30 27 21 10
2530.0 3 3 1 2 4 15 18 31 31 41
2570.0 43 43 40 38 38 38 36 38 43 48
2610.0 59 59 62 63 66 65 67 62 59 55
2650.0 56 56 63 67 63 57 55 52 55 56
2690.0 62 70 81 80 90 88 91 96 109 137
2730.0 191 301 462 606 569 554 611 479 290 183
2770.0 131 117 114 122 130 151 171 194 238 287
2810.0 365 471 613 816 1096 1395 1528 1454 1447 1337
2850.0 969 626 401 264 180 147 122 108 103 101
2890.0 96 85 83 80 83 81 87 85 86 85
2930.0 86 88 88 86 83 83 79 78 74 75
2970.0 68 61 56 53 47 49 53 59 73 90
3010.0 106 133 158 182 212 241 269 288 287 299
3050.0 315 334 360 391 438 522 558 552 531 503
3090.0 422 324 289 276 249 229 212 218 224 237
3130.0 258 269 290 327 359 387 401 427 429 452
3170.0 452 479 508 560 620 673 716 754 757 747
3210.0 726 684 650 605 565 529 494 471 438 405
3250.0 381 351 340 324 311 315 311 332 326 329
3290.0 334 340 337 339 333 332 321 320 323 327
3330.0 320 327 327 329 324 328 326 320 303 279
3370.0 256 252 239 225 216 210 213 199 197 187
3410.0 180 185 167 163 168 163 148 152 141 141
3450.0 135 134 126 116 125 103 102 90 81 82
3490.0 77 72 64 62 49 51 37 37 31 31
3530.0 30 37 31 39 31 27 35 26 24 26
3570.0 20 21 21 24 22 21 18 25 16 16
3610.0 9 17 16 3 13 14 16 15 16 21
3650.0 15 11 8 30 11 12 10 13 11 14
3690.0 21 15 18 1 5 10 3 15 1 11
3730.0 22 12 1 1 18 8 20 2 7 1
3770.0 11 8 8 1 5 17 13 1 10 10
3810.0 1 12 8 1 4 5 1 1 1 1
3850.0 1 1 1 1 1 1 1 1 1 1
3890.0 1 1 1 2 1 1 1 1 1 1
3930.0 10 1 1 10 1 1 1 1 1 1
##END=
