##TITLE=Benzenamine, 2-methoxy-
##JCAMP-DX=4.24
##DATA TYPE=INFRARED SPECTRUM
##ORIGIN=Sadtler Research Labs Under US-EPA Contract
##OWNER=NIST Standard Reference Data Program
##CAS REGISTRY NO=90-04-0
##MOLFORM=C 7 H 9 N O
##XUNITS=1/CM
##YUNITS=ABSORBANCE
##XFACTOR=1.0
##YFACTOR=0.000096423
##DELTAX=4.0
##FIRSTX=450.0
##LASTX=3966.0
##FIRSTY=0.068750
##MAXX=3966
##MINX=450
##MAXY=0.96423
##MINY=0
##NPOINTS=880
##XYDATA=(X++(Y..Y))
450.0 713 631 622 492 463 473 403 452 410 385
490.0 399 387 364 430 451 485 493 484 520 517
530.0 514 490 538 541 557 589 632 679 661 713
570.0 718 733 756 760 760 719 797 682 595 587
610.0 604 591 647 649 722 748 844 922 1010 1077
650.0 1132 1125 1104 1046 969 915 878 831 828 839
690.0 848 843 860 836 887 985 1354 1918 2697 3376
730.0 4438 6509 6165 5226 4804 4092 3152 2324 1722 1254
770.0 914 698 556 441 365 332 304 260 230 209
810.0 190 174 180 175 180 184 192 186 189 174
850.0 138 103 83 75 58 53 61 65 80 102
890.0 116 143 166 208 235 198 178 133 92 64
930.0 31 20 2 3 3 15 17 33 46 68
970.0 92 125 164 200 253 304 353 422 513 645
1010.0 813 1024 1249 1458 1683 1916 2198 2471 2715 2799
1050.0 2663 2393 2072 1711 1370 1231 1244 1245 1219 1105
1090.0 918 722 571 466 392 351 330 335 377 479
1130.0 687 992 1202 1259 1255 1198 1005 756 669 789
1170.0 1081 1477 1819 1980 2040 1978 1821 1623 1744 2356
1210.0 3562 5564 7827 9549 10000 9976 8679 6228 3648 2400
1250.0 2077 2277 2997 4104 5344 5920 6084 5733 4936 3445
1290.0 2173 1527 1215 1022 878 783 724 708 794 911
1330.0 1006 1019 916 803 679 502 356 247 157 109
1370.0 75 30 55 82 95 106 107 79 117 109
1410.0 83 117 36 124 127 232 293 447 643 761
1450.0 1058 1301 1773 2126 2313 2393 2133 1946 2000 2213
1490.0 2917 4568 6112 8211 8745 8957 9018 6937 5444 3383
1530.0 2388 1329 840 587 512 568 559 571 671 796
1570.0 884 993 1162 1354 1619 1925 2223 2570 2865 3445
1610.0 4239 4983 5527 5359 5694 4477 3828 2446 1692 1058
1650.0 672 535 374 387 289 276 165 216 119 67
1690.0 104 102 21 0 42 80 67 30 131 187
1730.0 175 116 173 165 111 69 80 63 64 72
1770.0 43 28 75 62 75 64 60 62 46 86
1810.0 72 68 74 65 52 46 74 105 104 107
1850.0 146 168 168 151 120 79 100 98 98 112
1890.0 129 162 178 188 171 144 104 79 43 52
1930.0 56 51 51 34 43 51 58 66 79 86
1970.0 106 126 128 127 117 89 72 71 71 71
2010.0 83 86 94 106 122 118 119 111 104 101
2050.0 107 113 115 118 111 119 114 112 110 101
2090.0 94 90 88 81 80 71 71 63 58 56
2130.0 52 48 43 39 30 28 22 25 22 18
2170.0 22 18 21 20 20 18 21 23 22 26
2210.0 24 27 25 26 28 33 34 36 42 47
2250.0 54 60 62 66 64 61 59 52 42 37
2290.0 29 25 19 23 23 23 20 19 17 11
2330.0 12 4 7 1 9 8 12 7 2 5
2370.0 1 7 0 2 2 3 1 1 1 0
2410.0 2 3 6 9 19 24 32 45 52 58
2450.0 59 60 55 46 40 37 34 35 39 43
2490.0 46 44 47 47 48 47 52 62 69 72
2530.0 74 78 74 72 69 69 67 65 62 55
2570.0 54 51 50 44 45 52 62 69 79 89
2610.0 96 99 98 99 94 91 92 87 84 84
2650.0 81 76 74 69 68 62 65 59 58 54
2690.0 52 52 46 46 39 38 37 42 38 41
2730.0 49 49 49 53 58 52 58 60 65 70
2770.0 73 79 79 87 93 98 105 115 130 150
2810.0 175 204 246 297 400 584 881 1221 1449 1506
2850.0 1501 1370 1065 747 551 457 421 415 429 460
2890.0 502 574 668 770 920 1106 1255 1366 1392 1360
2930.0 1370 1417 1581 1824 2066 2211 2236 2349 2181 1652
2970.0 1332 1094 921 828 832 982 1254 1598 1800 1815
3010.0 1747 1568 1308 1097 1132 1328 1538 1641 1695 1705
3050.0 1636 1514 1465 1518 1600 1654 1651 1606 1475 1294
3090.0 1117 950 785 629 495 410 349 306 261 228
3130.0 195 166 144 127 113 108 101 99 97 100
3170.0 103 108 106 108 115 114 114 113 103 102
3210.0 94 89 80 72 65 62 64 46 47 44
3250.0 38 35 39 33 36 40 40 29 38 40
3290.0 36 36 36 37 36 32 33 41 39 37
3330.0 33 38 43 41 43 47 39 49 54 61
3370.0 69 81 91 115 168 242 368 556 753 885
3410.0 957 974 902 714 532 393 268 183 135 112
3450.0 107 113 116 133 151 192 242 324 448 630
3490.0 841 1006 1107 1142 1124 1007 837 657 520 374
3530.0 249 169 117 94 73 61 58 45 51 26
3570.0 34 31 27 34 23 36 26 25 34 32
3610.0 23 28 28 23 29 20 25 25 25 27
3650.0 9 17 26 19 28 10 26 4 32 18
3690.0 10 13 22 23 21 16 19 18 13 11
3730.0 21 18 13 11 1 32 7 11 11 11
3770.0 12 19 22 15 20 12 23 11 12 1
3810.0 27 6 14 8 12 14 10 5 19 19
3850.0 21 27 31 43 49 39 37 32 32 26
3890.0 37 36 45 29 26 33 33 21 22 24
3930.0 22 20 22 14 17 19 27 18 34 26
##END=
