##TITLE=Phenol, 2-methoxy-
##JCAMP-DX=4.24
##DATA TYPE=INFRARED SPECTRUM
##ORIGIN=Sadtler Research Labs Under US-EPA Contract
##OWNER=NIST Standard Reference Data Program
##CAS REGISTRY NO=90-05-1
##MOLFORM=C 7 H 8 O 2
##XUNITS=1/CM
##YUNITS=ABSORBANCE
##XFACTOR=1.0
##YFACTOR=0.000160178
##DELTAX=4.0
##FIRSTX=450.0
##LASTX=3966.0
##FIRSTY=0.135350
##MAXX=3966
##MINX=450
##MAXY=1.60178
##MINY=0
##NPOINTS=880
##XYDATA=(X++(Y..Y))
450.0 845 995 891 874 740 663 536 482 342 259
490.0 208 158 119 90 118 39 137 159 267 303
530.0 261 246 152 110 60 50 11 37 31 77
570.0 84 127 152 163 207 142 111 73 73 28
610.0 14 10 9 6 35 45 30 29 34 85
650.0 45 76 83 79 88 130 162 116 191 259
690.0 236 209 207 214 233 295 370 613 1062 1628
730.0 2213 2871 4498 4839 4213 4002 3279 2620 1950 1374
770.0 962 699 577 463 429 414 407 421 414 401
810.0 438 439 436 454 467 500 538 558 550 498
850.0 465 407 343 301 269 274 261 252 241 240
890.0 237 245 261 282 296 357 391 357 326 292
930.0 258 218 188 165 147 150 151 170 174 198
970.0 219 252 284 325 378 420 459 520 608 729
1010.0 911 1159 1447 1783 2088 2372 2656 2820 2710 2455
1050.0 2065 1665 1211 776 504 384 346 338 358 410
1090.0 522 727 1061 1491 1822 1951 1945 1839 1478 1027
1130.0 764 683 731 848 982 1106 1256 1449 1648 1832
1170.0 2040 2232 2435 2484 2480 2436 2523 2879 3464 4067
1210.0 4644 5543 6665 7367 7175 6964 6755 5721 4625 4520
1250.0 5655 7657 9403 9898 10000 9329 6648 3874 2305 1593
1290.0 1256 1088 952 842 767 702 659 582 533 527
1330.0 553 585 620 748 947 1242 1594 1907 2098 2100
1370.0 1918 1643 1250 845 571 440 400 376 375 370
1410.0 375 358 358 374 399 452 556 755 1038 1264
1450.0 1373 1579 1796 1818 1823 1769 1771 1876 2136 2789
1490.0 4080 6152 8104 8963 9090 8545 7139 4732 3107 2106
1530.0 1443 914 606 422 337 297 295 301 355 405
1570.0 478 565 711 886 1137 1438 1725 1935 2033 2085
1610.0 1975 1699 1414 1219 993 734 482 305 213 180
1650.0 134 153 139 118 124 127 107 123 95 111
1690.0 88 89 79 84 72 72 82 81 98 108
1730.0 127 141 179 180 186 190 195 175 162 149
1770.0 127 119 107 113 113 129 130 150 166 184
1810.0 188 195 188 181 163 134 127 98 86 76
1850.0 84 94 113 128 131 134 132 114 93 76
1890.0 62 58 65 86 106 113 116 110 91 68
1930.0 53 41 38 35 35 33 34 38 41 43
1970.0 52 59 63 65 62 61 59 62 70 82
2010.0 92 101 102 100 98 87 80 79 85 91
2050.0 93 103 109 104 97 93 86 84 74 69
2090.0 64 57 52 41 36 28 24 23 25 24
2130.0 25 20 25 22 17 15 16 13 10 12
2170.0 7 5 8 5 7 8 13 12 12 12
2210.0 14 17 18 20 20 21 25 29 35 46
2250.0 55 62 63 63 54 43 33 26 23 17
2290.0 14 16 21 23 25 32 36 36 31 37
2330.0 28 22 27 21 28 18 0 0 0 14
2370.0 25 34 36 36 33 31 27 29 29 29
2410.0 32 37 42 44 54 60 62 63 58 54
2450.0 46 39 38 36 34 35 40 43 46 47
2490.0 47 50 54 60 73 89 102 120 130 130
2530.0 117 99 75 52 35 31 27 26 24 23
2570.0 24 18 15 14 15 16 17 18 21 24
2610.0 29 31 32 39 35 37 36 34 24 18
2650.0 21 18 17 14 15 6 2 0 0 5
2690.0 6 15 20 24 22 18 21 21 25 23
2730.0 24 31 36 41 40 43 44 46 42 43
2770.0 37 38 26 31 36 41 45 57 73 90
2810.0 112 133 152 171 186 221 298 438 629 810
2850.0 907 932 904 803 643 516 464 433 423 411
2890.0 409 411 437 480 554 653 794 921 1003 1040
2930.0 1067 1112 1192 1312 1450 1567 1630 1616 1645 1606
2970.0 1319 1063 915 784 692 652 699 838 1055 1220
3010.0 1257 1214 1104 921 698 576 564 607 697 813
3050.0 974 1164 1330 1404 1414 1367 1245 1060 889 782
3090.0 686 605 492 410 358 303 251 216 174 142
3130.0 143 110 104 74 70 58 51 45 40 36
3170.0 44 47 36 24 27 27 31 23 29 24
3210.0 26 24 30 27 27 20 16 25 21 29
3250.0 34 29 26 40 30 35 41 35 25 17
3290.0 10 17 14 16 17 18 18 15 19 16
3330.0 20 22 21 39 31 30 31 35 30 28
3370.0 22 27 28 29 21 25 33 24 25 23
3410.0 17 28 27 19 21 26 14 18 12 9
3450.0 2 15 22 33 36 22 6 10 24 29
3490.0 25 14 20 28 19 32 31 35 35 47
3530.0 47 50 66 63 73 101 144 194 286 482
3570.0 860 1506 2298 3155 3887 4258 4031 3432 2641 1714
3610.0 942 447 248 180 147 157 169 245 363 528
3650.0 603 574 572 532 426 224 122 84 53 30
3690.0 26 44 32 33 10 33 31 17 22 28
3730.0 18 33 33 30 32 48 28 25 30 28
3770.0 35 29 24 32 33 41 42 46 49 33
3810.0 44 49 58 17 51 44 59 51 50 35
3850.0 49 42 60 54 68 91 89 68 59 94
3890.0 76 88 88 77 61 70 53 56 68 76
3930.0 84 79 66 44 72 90 80 84 63 81
##END=
