##TITLE=Phenol, 2-ethyl-
##JCAMP-DX=4.24
##DATA TYPE=INFRARED SPECTRUM
##ORIGIN=Sadtler Research Labs Under US-EPA Contract
##OWNER=NIST Standard Reference Data Program
##CAS REGISTRY NO=90-00-6
##MOLFORM=C 8 H 10 O
##XUNITS=1/CM
##YUNITS=ABSORBANCE
##XFACTOR=1.0
##YFACTOR=0.000080124
##DELTAX=4.0
##FIRSTX=450.0
##LASTX=3966.0
##FIRSTY=0.012179
##MAXX=3966
##MINX=450
##MAXY=0.80124
##MINY=0
##NPOINTS=880
##XYDATA=(X++(Y..Y))
450.0 152 164 215 425 590 681 985 691 702 467
490.0 397 257 248 282 324 430 466 630 571 607
530.0 506 431 307 224 182 148 159 112 179 114
570.0 157 172 232 292 275 292 244 245 147 110
610.0 43 88 61 54 53 48 48 23 58 13
650.0 37 13 41 33 5 81 74 64 80 151
690.0 166 219 286 390 444 534 728 907 1208 1756
730.0 2703 3940 5028 6354 9022 10000 6293 5013 3897 2279
770.0 1165 584 399 334 306 308 272 257 234 241
810.0 251 310 470 800 1328 2056 2426 2339 2426 2216
850.0 1507 916 534 344 239 181 138 111 95 63
890.0 69 52 55 50 80 77 125 158 222 327
930.0 332 319 296 239 242 244 308 377 459 491
970.0 501 477 413 320 268 240 212 199 190 218
1010.0 238 308 394 531 651 767 943 1112 1281 1408
1050.0 1475 1451 1361 1197 997 820 704 651 668 847
1090.0 1212 1908 2896 3953 4546 4509 4487 3882 2718 1738
1130.0 1218 1056 1164 1478 1863 2139 2654 3542 4317 4746
1170.0 4852 5188 5134 4723 4682 5046 5782 6375 6894 7067
1210.0 6769 5859 4725 3778 3045 2595 2434 2666 3286 4300
1250.0 5192 5767 6082 6026 5369 4183 3083 2199 1642 1292
1290.0 1132 1074 1134 1290 1625 2267 3201 4212 4511 4409
1330.0 4227 3465 2275 1330 793 545 437 380 391 369
1370.0 395 431 529 518 541 521 472 427 346 358
1410.0 292 320 320 419 422 593 832 1212 1956 2884
1450.0 4168 4748 5191 5158 4908 3940 3260 2961 3250 3962
1490.0 4563 5308 5355 5308 4541 3476 2605 1658 1078 728
1530.0 537 489 390 436 392 414 437 467 559 634
1570.0 937 1246 1722 2348 2566 2961 2943 2980 2509 2273
1610.0 1898 1499 1239 961 717 437 302 228 165 160
1650.0 169 179 180 201 253 256 325 255 276 241
1690.0 188 149 167 164 137 122 125 138 99 77
1730.0 92 111 98 97 123 140 159 191 203 209
1770.0 239 260 225 215 191 190 172 163 147 128
1810.0 136 123 105 90 89 78 70 71 93 105
1850.0 102 102 95 92 91 127 158 210 259 285
1890.0 314 301 247 196 174 155 172 193 231 224
1930.0 217 187 138 102 61 42 30 28 23 24
1970.0 24 26 37 33 44 47 52 44 44 41
2010.0 38 39 36 41 38 42 41 47 42 44
2050.0 43 39 40 38 48 45 54 57 68 71
2090.0 73 71 62 56 46 39 26 23 14 10
2130.0 11 6 8 6 10 5 13 9 11 8
2170.0 8 4 1 2 1 3 3 7 6 9
2210.0 14 14 11 19 21 15 19 21 21 21
2250.0 20 24 24 27 30 39 33 39 40 43
2290.0 44 46 55 58 67 70 83 83 90 77
2330.0 79 88 93 97 86 78 69 61 77 85
2370.0 77 72 66 54 52 45 48 49 57 69
2410.0 78 94 107 119 123 131 132 132 125 121
2450.0 111 103 103 96 91 84 84 78 78 78
2490.0 80 84 80 86 83 84 80 84 73 70
2530.0 64 62 55 47 45 46 45 39 42 42
2570.0 44 39 36 34 31 31 28 38 38 43
2610.0 50 63 72 83 95 101 115 118 120 114
2650.0 102 93 74 60 50 45 34 37 38 37
2690.0 40 45 44 48 51 49 56 55 64 64
2730.0 72 85 94 100 103 101 98 100 98 100
2770.0 110 124 136 147 156 157 162 161 168 169
2810.0 183 190 206 221 236 271 303 355 417 513
2850.0 629 794 1008 1263 1572 1863 2187 2527 2770 2908
2890.0 2837 2628 2449 2225 2091 2037 2044 2104 2172 2326
2930.0 2561 2935 3426 3810 3899 3820 3780 3722 4138 5101
2970.0 6216 6985 7152 6632 5222 3655 2452 1699 1317 1179
3010.0 1216 1379 1589 1928 2342 2651 2790 2830 2802 2629
3050.0 2332 2073 1956 2062 2256 2418 2490 2516 2396 2127
3090.0 1753 1425 1161 926 736 588 482 393 328 282
3130.0 238 195 165 142 127 131 125 132 137 148
3170.0 149 155 154 140 131 118 104 92 88 72
3210.0 61 63 61 55 54 51 50 41 43 42
3250.0 31 38 43 41 37 39 40 44 41 44
3290.0 48 42 48 43 44 47 45 48 49 51
3330.0 55 66 75 77 79 83 85 93 90 93
3370.0 94 99 100 85 85 84 76 76 72 79
3410.0 75 76 68 76 65 63 62 67 56 45
3450.0 50 44 50 44 50 44 47 41 38 38
3490.0 37 36 26 33 22 31 31 29 29 6
3530.0 25 32 38 32 31 23 34 29 28 33
3570.0 32 61 48 61 39 69 76 60 90 96
3610.0 111 120 202 234 386 594 1205 2035 3719 5520
3650.0 6683 6126 6204 5521 3340 1639 678 334 186 133
3690.0 91 102 61 69 50 64 25 52 43 30
3730.0 48 32 43 28 69 0 67 32 47 42
3770.0 41 53 34 54 32 53 33 40 10 68
3810.0 19 64 28 48 45 50 43 44 41 80
3850.0 61 36 95 76 75 99 89 103 68 98
3890.0 62 96 58 75 72 105 90 112 108 92
3930.0 99 86 99 90 78 71 71 86 85 84
##END=
