##TITLE=Naphthalene, 1-chloro-
##JCAMP-DX=4.24
##DATA TYPE=INFRARED SPECTRUM
##ORIGIN=Sadtler Research Labs Under US-EPA Contract
##OWNER=NIST Standard Reference Data Program
##CAS REGISTRY NO=90-13-1
##MOLFORM=C 10 H 7 Cl
##XUNITS=1/CM
##YUNITS=ABSORBANCE
##XFACTOR=1.0
##YFACTOR=0.000062622
##DELTAX=4.0
##FIRSTX=450.0
##LASTX=3966.0
##FIRSTY=0.009644
##MAXX=3966
##MINX=450
##MAXY=0.62622
##MINY=0
##NPOINTS=880
##XYDATA=(X++(Y..Y))
450.0 154 119 504 249 488 463 519 346 354 86
490.0 487 397 317 54 3 320 180 279 237 574
530.0 842 987 1751 1058 749 487 356 12 267 173
570.0 197 198 220 254 217 465 421 552 361 458
610.0 324 239 240 277 363 117 182 168 176 174
650.0 229 426 1153 1843 2080 2160 1711 649 250 150
690.0 99 191 59 152 92 149 129 200 256 313
730.0 475 460 748 941 1201 1924 3529 4370 6138 10000
770.0 5827 4896 5777 4642 5512 8566 6316 4789 3938 2465
810.0 2082 1603 1689 2068 1987 1909 1538 1418 907 920
850.0 845 982 805 485 435 355 338 314 461 314
890.0 335 270 277 270 171 293 167 289 232 379
930.0 340 437 559 499 610 637 778 893 2024 3481
970.0 4042 3965 3878 2535 1151 1000 717 381 242 345
1010.0 446 682 943 867 847 698 470 211 215 209
1050.0 360 560 745 754 743 782 667 651 547 438
1090.0 320 463 591 861 923 990 1513 1853 1541 919
1130.0 929 1455 1546 1730 1565 1112 592 454 335 316
1170.0 275 232 280 384 564 765 1315 1852 1898 1912
1210.0 1593 894 454 382 239 234 151 284 464 756
1250.0 1003 1190 1295 1056 871 612 448 239 156 128
1290.0 125 185 224 305 260 414 366 389 469 455
1330.0 370 397 406 444 495 502 523 610 799 1114
1370.0 1643 2269 2893 3296 2990 2618 1910 1070 644 487
1410.0 354 370 396 367 389 385 412 406 329 358
1450.0 473 572 615 559 486 356 260 246 272 374
1490.0 582 953 1533 2020 2023 1883 1560 831 495 318
1530.0 237 187 187 234 258 410 648 1009 1346 1648
1570.0 1708 1641 1524 1305 1261 1310 1245 1028 874 668
1610.0 443 363 362 392 417 413 379 357 293 263
1650.0 277 270 244 214 220 203 274 330 432 441
1690.0 416 359 284 235 233 270 280 308 271 209
1730.0 208 249 267 288 331 302 282 260 242 216
1770.0 227 254 267 325 333 350 338 329 304 273
1810.0 256 239 227 229 271 292 301 300 300 312
1850.0 338 335 292 231 161 131 84 79 74 88
1890.0 106 147 194 242 322 375 437 465 469 419
1930.0 384 346 294 304 306 295 254 205 127 92
1970.0 67 47 41 30 38 29 35 33 35 40
2010.0 45 41 55 55 60 76 75 88 79 86
2050.0 79 74 72 71 93 77 71 60 51 44
2090.0 42 47 37 53 49 49 39 41 44 35
2130.0 31 33 28 21 45 32 23 20 34 29
2170.0 31 38 37 42 43 47 35 43 44 36
2210.0 54 48 62 49 58 54 51 51 59 62
2250.0 55 64 61 79 76 81 83 87 98 93
2290.0 104 99 122 116 125 105 102 90 75 68
2330.0 48 63 50 68 91 78 67 69 57 68
2370.0 125 85 91 79 75 74 80 79 96 103
2410.0 104 112 101 106 86 84 75 63 69 66
2450.0 67 51 68 69 66 66 70 78 69 71
2490.0 54 67 57 66 62 71 62 60 72 57
2530.0 72 62 61 52 62 53 64 73 65 76
2570.0 74 80 64 63 61 55 61 48 48 26
2610.0 40 28 28 12 26 16 20 32 24 26
2650.0 30 37 20 11 1 20 31 41 50 51
2690.0 75 76 80 71 92 87 71 67 49 70
2730.0 55 45 42 72 82 75 77 74 93 89
2770.0 74 68 88 63 62 65 61 72 67 67
2810.0 62 71 72 74 54 62 46 43 47 48
2850.0 62 49 55 79 83 81 75 80 78 90
2890.0 76 93 71 93 80 75 79 60 73 93
2930.0 118 129 140 152 153 177 178 157 152 155
2970.0 125 118 109 133 139 151 203 241 270 312
3010.0 372 417 519 583 631 680 754 885 1071 1431
3050.0 2004 2879 3851 4655 4763 4364 3722 2895 2527 2503
3090.0 2471 2230 1782 1178 624 371 224 173 117 81
3130.0 59 69 76 61 52 57 78 64 75 61
3170.0 76 45 39 48 44 48 41 47 38 63
3210.0 38 72 69 43 55 55 40 48 57 24
3250.0 44 48 28 54 26 23 24 54 41 57
3290.0 61 48 57 57 54 42 42 50 49 38
3330.0 66 33 59 67 42 23 12 24 14 33
3370.0 29 1 21 42 44 36 38 25 40 51
3410.0 60 60 63 49 50 75 60 38 47 48
3450.0 57 49 45 49 59 51 55 51 53 35
3490.0 47 31 51 45 30 55 45 29 60 33
3530.0 48 50 19 46 64 24 18 43 14 45
3570.0 43 47 73 58 33 65 33 81 70 74
3610.0 60 48 23 23 50 59 65 50 46 46
3650.0 30 34 53 72 20 46 36 65 45 61
3690.0 29 60 68 79 62 52 52 79 79 86
3730.0 54 73 96 89 38 101 104 93 59 70
3770.0 82 60 54 40 59 60 26 28 43 87
3810.0 58 124 100 83 33 69 0 68 77 95
3850.0 119 82 150 67 140 82 103 57 21 44
3890.0 72 162 59 78 34 24 40 90 62 39
3930.0 1 27 8 57 41 49 55 29 19 14
##END=
