##TITLE=Benzenesulfonamide, N-methyl-N-phenyl-
##JCAMP-DX=4.24
##DATA TYPE=INFRARED SPECTRUM
##ORIGIN=Sadtler Research Labs Under US-EPA Contract
##OWNER=NIST Standard Reference Data Program
##CAS REGISTRY NO=90-10-8
##MOLFORM=C 13 H 13 N O 2 S
##XUNITS=1/CM
##YUNITS=ABSORBANCE
##XFACTOR=1.0
##YFACTOR=0.000055838
##DELTAX=4.0
##FIRSTX=450.0
##LASTX=3966.0
##FIRSTY=0.000000
##MAXX=3966
##MINX=450
##MAXY=0.55838
##MINY=0
##NPOINTS=880
##XYDATA=(X++(Y..Y))
450.0 0 96 163 84 194 166 186 376 322 320
490.0 306 309 275 288 280 351 337 408 400 397
530.0 534 666 861 1020 1278 1901 3338 5449 7438 7385
570.0 6015 4230 3440 3563 4946 7376 9073 8646 5388 2402
610.0 1231 968 892 724 542 444 418 406 407 465
650.0 505 617 728 906 969 1230 1516 2152 3789 6084
690.0 8720 8138 6216 3691 2253 1647 1677 2336 4339 7416
730.0 8454 6846 3835 2120 1911 2198 2605 2784 3054 2817
770.0 2112 1282 859 697 615 600 566 579 562 592
810.0 636 676 696 702 736 806 895 1019 1255 1674
850.0 2367 3421 4793 5901 6312 5907 4982 3936 2949 2231
890.0 1679 1271 1077 1082 1343 1571 1500 1137 775 558
930.0 441 378 321 288 271 272 273 288 309 316
970.0 322 319 321 329 343 372 433 530 595 582
1010.0 552 641 991 1636 2037 1881 1350 895 771 861
1050.0 1089 1515 2210 3101 3888 4220 4074 3666 3354 3598
1090.0 4069 3929 3102 1983 1313 1048 919 882 884 919
1130.0 953 1001 1115 1349 1785 2506 3583 4935 6387 7629
1170.0 8543 9049 9371 9328 8634 7134 5251 3484 2190 1435
1210.0 1060 901 810 773 782 814 873 950 1058 1188
1250.0 1378 1613 1942 2339 2748 2992 2923 2581 2125 1713
1290.0 1371 1102 947 919 997 1066 1038 993 1054 1229
1330.0 1469 1663 1800 1887 2145 2700 3569 4726 6183 7886
1370.0 9266 10000 9311 7374 4797 2643 1490 988 787 688
1410.0 655 639 786 906 964 934 951 1170 1701 2359
1450.0 2495 2071 1647 1348 1307 1353 1501 1681 2035 2881
1490.0 4294 5233 4660 3046 1571 905 701 581 594 499
1530.0 476 424 455 452 419 385 396 445 433 424
1570.0 492 585 761 1010 1394 1847 2112 2106 1679 1194
1610.0 749 516 404 325 297 253 260 263 227 257
1650.0 267 313 252 247 258 285 319 299 294 290
1690.0 214 188 221 218 188 167 192 239 210 212
1730.0 253 299 289 271 286 300 284 282 294 275
1770.0 293 304 277 300 296 314 302 302 329 336
1810.0 336 299 252 224 214 204 184 165 186 185
1850.0 177 162 178 193 223 252 243 250 266 293
1890.0 318 313 282 263 256 237 220 202 197 188
1930.0 209 243 282 314 318 330 359 371 334 294
1970.0 249 217 190 160 143 138 135 126 123 121
2010.0 120 117 120 119 113 116 115 118 114 115
2050.0 109 110 106 110 110 106 106 102 97 99
2090.0 100 102 99 98 98 102 101 100 105 103
2130.0 100 100 103 102 100 103 99 97 94 100
2170.0 100 100 106 106 102 98 93 92 92 94
2210.0 90 92 101 97 102 100 106 109 117 124
2250.0 126 134 130 129 124 129 128 128 127 124
2290.0 113 114 123 128 129 144 158 181 189 170
2330.0 169 160 156 170 167 157 142 132 116 114
2370.0 115 119 127 124 116 111 108 109 110 103
2410.0 106 106 108 105 107 112 109 115 118 119
2450.0 119 122 124 123 124 123 122 121 125 124
2490.0 120 116 122 125 128 130 137 142 144 153
2530.0 153 151 157 154 158 151 152 146 145 146
2570.0 133 139 136 129 125 126 124 127 120 131
2610.0 125 125 121 127 121 119 115 114 110 115
2650.0 113 119 123 123 128 132 132 134 133 123
2690.0 116 108 110 116 113 111 114 116 120 115
2730.0 118 118 126 127 139 139 145 141 139 140
2770.0 143 149 149 159 162 168 174 191 207 226
2810.0 250 299 364 427 465 447 403 374 368 395
2850.0 435 472 488 489 494 504 540 564 627 716
2890.0 806 872 897 888 874 888 917 951 996 1041
2930.0 1063 1072 1075 1072 1069 1059 1029 984 956 940
2970.0 967 1002 992 888 717 567 485 449 447 462
3010.0 482 535 616 720 829 931 1030 1121 1192 1203
3050.0 1163 1173 1313 1648 2098 2674 3083 2995 2437 1757
3090.0 1418 1322 1162 925 687 510 403 318 275 236
3130.0 220 206 191 190 186 193 194 192 196 198
3170.0 194 180 155 150 142 136 136 125 122 124
3210.0 116 119 116 118 110 106 107 111 115 114
3250.0 110 109 120 111 106 116 118 111 111 123
3290.0 122 121 119 107 107 115 118 112 109 114
3330.0 110 113 115 110 118 117 112 117 110 115
3370.0 122 114 117 127 114 120 119 118 117 120
3410.0 117 119 123 122 118 110 119 111 116 120
3450.0 124 119 128 118 125 119 120 106 112 115
3490.0 114 118 114 107 104 114 123 108 104 101
3530.0 106 116 130 118 115 113 117 121 106 101
3570.0 107 120 108 120 111 106 117 91 106 120
3610.0 112 103 105 97 102 127 112 103 104 109
3650.0 122 103 108 102 118 98 115 101 111 114
3690.0 127 113 116 124 105 125 116 108 101 90
3730.0 90 109 91 113 102 104 103 90 106 90
3770.0 104 99 91 102 98 94 100 93 90 103
3810.0 95 97 90 96 95 90 90 90 103 92
3850.0 90 90 90 94 111 118 98 90 90 98
3890.0 96 100 128 96 95 119 111 109 98 110
3930.0 106 116 123 107 116 109 107 106 104 119
##END=
