##TITLE=Naphthalene, 1-methyl-
##JCAMP-DX=4.24
##DATA TYPE=INFRARED SPECTRUM
##ORIGIN=Sadtler Research Labs Under US-EPA Contract
##OWNER=NIST Standard Reference Data Program
##CAS REGISTRY NO=90-12-0
##MOLFORM=C 11 H 10
##XUNITS=1/CM
##YUNITS=ABSORBANCE
##XFACTOR=1.0
##YFACTOR=0.000070053
##DELTAX=4.0
##FIRSTX=450.0
##LASTX=3966.0
##FIRSTY=0.000000
##MAXX=3966
##MINX=450
##MAXY=0.70053
##MINY=0
##NPOINTS=880
##XYDATA=(X++(Y..Y))
450.0 0 314 570 410 479 531 590 560 465 632
490.0 386 396 321 539 354 595 570 831 976 1180
530.0 1890 1463 849 879 661 526 481 570 614 675
570.0 602 584 451 452 401 425 428 441 449 395
610.0 438 397 461 358 391 336 366 379 401 392
650.0 349 406 317 414 328 416 361 464 482 490
690.0 612 628 710 641 739 566 582 618 769 1022
730.0 923 793 811 763 720 1148 1722 3106 3931 4957
770.0 10000 7286 7087 7400 9955 9416 5250 4880 3216 1961
810.0 1414 795 750 584 587 436 538 556 596 670
850.0 772 828 643 652 535 484 402 436 434 442
890.0 493 465 490 446 454 402 406 397 407 424
930.0 435 484 489 508 560 595 525 566 641 599
970.0 563 576 549 505 544 487 490 490 548 600
1010.0 789 1047 1229 1284 1192 1025 733 544 461 434
1050.0 414 430 443 454 560 683 769 722 770 681
1090.0 523 481 459 524 419 524 370 405 404 429
1130.0 420 453 483 488 501 497 555 627 724 696
1170.0 676 635 498 439 401 412 420 450 478 535
1210.0 574 551 553 488 434 396 412 413 434 461
1250.0 498 559 669 783 725 728 677 543 443 415
1290.0 400 395 405 414 422 429 442 436 430 427
1330.0 436 447 467 486 494 499 484 505 503 532
1370.0 586 654 800 958 1211 1729 2098 1979 1974 1773
1410.0 1235 897 799 807 874 988 1075 1164 1151 1252
1450.0 1227 1029 1067 1118 1130 1119 1039 918 731 661
1490.0 674 739 898 1200 1501 1631 1625 1448 1129 786
1530.0 600 532 509 489 479 486 501 520 546 616
1570.0 670 746 774 868 985 1127 1315 1360 1243 1200
1610.0 976 710 597 544 535 529 523 489 490 464
1650.0 456 434 477 514 542 589 623 664 692 663
1690.0 634 580 501 445 468 508 523 524 548 573
1730.0 576 600 631 653 613 585 565 528 491 475
1770.0 469 473 538 599 653 682 670 609 569 531
1810.0 510 539 574 586 573 536 494 465 474 526
1850.0 591 618 610 584 522 446 420 412 423 446
1890.0 459 480 524 591 652 714 778 810 798 755
1930.0 742 727 692 657 617 547 477 414 389 373
1970.0 369 366 362 359 360 361 356 356 357 356
2010.0 364 363 368 375 372 379 383 378 376 380
2050.0 385 394 395 401 403 405 404 396 389 383
2090.0 379 371 365 364 366 360 371 363 369 374
2130.0 360 364 364 371 366 361 366 373 363 365
2170.0 369 360 360 358 356 357 357 357 356 362
2210.0 356 361 359 363 359 362 370 378 381 376
2250.0 383 381 377 376 375 374 372 383 390 391
2290.0 399 396 392 396 410 415 429 443 463 464
2330.0 475 459 448 456 407 403 458 438 419 374
2370.0 359 357 342 353 356 370 365 379 387 393
2410.0 401 410 417 402 391 381 378 372 369 372
2450.0 369 374 369 365 363 369 366 361 366 363
2490.0 356 356 361 356 357 355 347 349 345 347
2530.0 353 350 352 355 352 353 351 347 344 342
2570.0 346 344 345 344 343 346 336 339 341 341
2610.0 328 335 327 338 337 335 337 341 332 322
2650.0 334 351 339 339 339 345 350 347 355 360
2690.0 373 372 366 361 361 370 358 358 375 381
2730.0 391 409 442 474 482 487 468 445 414 398
2770.0 392 385 387 397 407 418 422 418 422 415
2810.0 429 430 440 452 459 479 484 490 509 533
2850.0 584 626 719 866 1066 1276 1400 1431 1413 1292
2890.0 1181 1120 1137 1220 1353 1519 1678 1771 1836 1957
2930.0 2056 2186 2323 2384 2507 2484 2532 2569 2305 2149
2970.0 2212 2342 2417 2427 2275 1965 1606 1379 1320 1460
3010.0 1646 1796 1863 1893 1929 2094 2475 3054 3723 4299
3050.0 4758 4966 5252 5600 5688 5783 5864 5299 4506 3688
3090.0 2832 2240 1949 1755 1552 1331 1042 755 586 518
3130.0 469 463 437 418 411 404 387 385 388 381
3170.0 406 405 398 425 410 391 395 363 374 389
3210.0 386 392 406 405 387 369 376 362 347 341
3250.0 333 337 342 344 333 353 345 352 348 345
3290.0 339 331 349 348 335 335 343 345 321 324
3330.0 353 336 339 348 351 342 340 330 348 348
3370.0 361 335 339 374 372 364 361 349 369 350
3410.0 360 388 385 381 354 353 369 363 359 374
3450.0 357 337 363 379 375 383 386 388 399 401
3490.0 419 417 382 394 388 392 376 380 368 383
3530.0 396 390 371 363 373 392 385 359 356 384
3570.0 357 377 376 358 351 400 372 425 365 345
3610.0 349 343 376 341 381 392 344 353 378 387
3650.0 335 374 371 349 348 398 359 382 364 389
3690.0 390 347 358 375 334 387 376 384 408 370
3730.0 371 381 357 396 344 346 390 409 384 358
3770.0 351 396 375 378 417 387 379 384 413 376
3810.0 421 378 358 418 427 449 362 426 458 434
3850.0 441 379 441 409 431 387 365 409 474 459
3890.0 405 334 445 448 456 466 429 453 502 385
3930.0 371 365 315 359 397 373 428 316 377 389
##END=
