##TITLE=1-Naphthalenol
##JCAMP-DX=4.24
##DATA TYPE=INFRARED SPECTRUM
##ORIGIN=Sadtler Research Labs Under US-EPA Contract
##OWNER=NIST Standard Reference Data Program
##CAS REGISTRY NO=90-15-3
##MOLFORM=C 10 H 8 O
##XUNITS=1/CM
##YUNITS=ABSORBANCE
##XFACTOR=1.0
##YFACTOR=0.000047635
##DELTAX=4.0
##FIRSTX=450.0
##LASTX=3966.0
##FIRSTY=0.051636
##MAXX=3966
##MINX=450
##MAXY=0.47635
##MINY=0
##NPOINTS=880
##XYDATA=(X++(Y..Y))
450.0 1084 859 1003 358 917 459 611 738 213 260
490.0 71 268 316 208 241 388 576 690 805 622
530.0 528 463 416 488 438 551 593 913 1003 1257
570.0 874 751 809 729 478 165 50 176 421 259
610.0 331 409 464 471 377 128 323 219 179 308
650.0 11 235 206 205 155 286 243 61 260 160
690.0 243 352 375 583 797 825 947 907 688 535
730.0 462 485 650 767 1379 2216 3672 4493 6214 10000
770.0 6991 5432 5138 4393 4484 5006 3296 2552 1921 1081
810.0 705 433 324 306 245 277 330 368 419 450
850.0 555 499 550 612 725 1027 1106 1075 1046 825
890.0 475 388 311 245 178 284 247 261 237 321
930.0 290 276 242 246 337 279 385 351 336 319
970.0 278 254 228 245 268 338 406 592 835 1175
1010.0 1469 1516 1505 1479 1451 1661 1885 2107 2228 2099
1050.0 1653 1293 927 717 830 1229 2018 2324 2225 2357
1090.0 2056 1215 722 469 391 410 406 440 518 662
1130.0 945 1339 1757 1999 2308 2448 2354 2121 1910 1932
1170.0 2032 2335 2988 3276 3482 3773 3539 3047 2708 2504
1210.0 2273 2090 2040 2175 2604 2899 3355 4207 4014 3448
1250.0 3371 2986 2502 2679 3345 3790 3570 3502 3256 2219
1290.0 1423 1036 795 726 582 512 485 420 393 381
1330.0 397 491 645 914 1200 1454 1642 1738 1712 1634
1370.0 1659 1884 2141 2228 2375 2574 2831 3012 2802 2701
1410.0 2436 1852 1172 859 724 716 709 844 1041 1177
1450.0 1379 1572 1674 1586 1323 1174 952 652 580 527
1490.0 580 683 912 1214 1546 1941 1936 2017 1843 1379
1530.0 976 750 622 584 562 590 745 879 1235 1505
1570.0 1998 2437 2622 3053 3092 3246 3354 2808 2670 2190
1610.0 1713 1303 991 933 947 1055 1048 969 850 613
1650.0 518 352 269 199 204 190 213 207 232 225
1690.0 202 174 169 208 195 211 220 234 208 147
1730.0 154 124 122 88 108 116 126 129 125 125
1770.0 115 127 102 126 140 159 166 165 144 171
1810.0 179 199 239 237 242 246 199 187 150 153
1850.0 108 93 59 62 69 76 82 86 124 146
1890.0 199 259 315 341 352 340 306 287 251 243
1930.0 223 227 227 219 212 179 149 121 90 72
1970.0 48 55 62 55 63 53 50 44 34 37
2010.0 37 39 44 44 43 46 41 44 42 48
2050.0 52 59 58 59 57 71 57 58 66 68
2090.0 69 64 58 56 58 59 61 57 52 54
2130.0 49 49 53 48 62 57 69 63 66 69
2170.0 55 61 55 52 54 44 41 41 40 43
2210.0 43 45 47 42 49 61 60 64 60 68
2250.0 68 75 74 64 75 87 90 90 104 100
2290.0 108 100 109 115 118 123 135 120 122 112
2330.0 90 113 103 107 128 139 149 142 90 62
2370.0 69 80 86 89 75 59 58 55 54 61
2410.0 50 52 65 74 76 76 79 72 63 68
2450.0 65 54 60 52 55 53 42 34 28 14
2490.0 24 28 9 24 26 29 39 38 46 27
2530.0 27 33 28 35 31 10 14 15 17 20
2570.0 12 5 3 7 21 14 10 20 6 11
2610.0 6 3 11 9 11 12 20 24 14 19
2650.0 26 16 36 20 26 23 18 17 8 3
2690.0 14 19 11 8 6 2 16 12 26 26
2730.0 24 31 18 39 33 28 41 24 20 27
2770.0 24 29 27 18 18 29 27 37 34 43
2810.0 39 43 57 51 65 79 93 128 157 193
2850.0 227 238 217 193 168 141 129 128 125 137
2890.0 153 166 190 224 226 267 303 365 403 400
2930.0 383 340 280 226 206 212 218 220 238 228
2970.0 204 196 151 139 132 146 161 190 235 320
3010.0 412 538 672 802 945 1047 1154 1310 1526 1898
3050.0 2398 2914 3299 3570 3706 3526 3217 2820 2323 1854
3090.0 1446 1115 889 723 585 443 318 198 125 50
3130.0 51 31 13 15 18 17 16 33 35 32
3170.0 52 54 29 55 64 47 51 49 39 49
3210.0 28 51 38 61 63 59 52 69 72 50
3250.0 48 28 56 37 45 50 36 47 63 43
3290.0 73 49 60 61 75 80 68 75 84 108
3330.0 108 99 102 122 62 95 99 95 96 83
3370.0 100 113 97 115 108 85 99 103 87 124
3410.0 98 108 96 80 96 95 89 104 97 77
3450.0 77 63 46 50 43 57 52 44 26 24
3490.0 59 40 56 37 15 31 46 19 54 2
3530.0 59 62 61 70 32 25 66 31 51 13
3570.0 46 71 53 81 75 30 87 34 98 71
3610.0 90 163 140 220 324 518 833 1446 2649 3953
3650.0 4255 4337 3917 2769 1391 523 177 115 23 39
3690.0 60 8 13 5 0 0 1 1 10 0
3730.0 0 0 0 36 0 12 23 32 20 0
3770.0 27 21 33 64 7 13 10 65 15 89
3810.0 103 84 85 1 27 44 48 66 73 51
3850.0 82 91 110 68 82 47 60 46 47 79
3890.0 105 23 71 16 12 106 35 106 52 19
3930.0 84 62 101 72 114 103 127 65 18 101
##END=
