##TITLE=Benzenemethanol, .alpha.-(trichloromethyl)-, acetate
##JCAMP-DX=4.24
##DATA TYPE=INFRARED SPECTRUM
##ORIGIN=Sadtler Research Labs Under US-EPA Contract
##OWNER=NIST Standard Reference Data Program
##CAS REGISTRY NO=90-17-5
##MOLFORM=C 10 H 9 Cl 3 O 2
##XUNITS=1/CM
##YUNITS=ABSORBANCE
##XFACTOR=1.0
##YFACTOR=0.000102472
##DELTAX=4.0
##FIRSTX=450.0
##LASTX=3966.0
##FIRSTY=0.013321
##MAXX=3966
##MINX=450
##MAXY=1.02472
##MINY=0
##NPOINTS=880
##XYDATA=(X++(Y..Y))
450.0 130 115 92 43 110 109 151 112 75 75
490.0 93 98 88 144 153 171 279 510 743 832
530.0 656 399 254 170 153 132 123 128 133 159
570.0 133 160 201 263 260 259 255 331 563 807
610.0 888 741 697 847 931 824 654 530 396 333
650.0 322 392 462 601 659 650 599 544 515 609
690.0 995 1562 1850 1437 853 491 325 236 209 203
730.0 212 286 506 955 1399 1364 891 464 310 354
770.0 491 761 1195 1688 2071 2125 2069 2190 2350 1946
810.0 1193 629 367 282 241 216 211 200 212 229
850.0 265 346 477 668 824 805 622 400 267 210
890.0 195 202 222 252 284 355 499 743 1073 1366
930.0 1370 1025 589 302 205 167 154 154 151 149
970.0 160 173 186 206 221 228 230 240 276 330
1010.0 385 492 697 1029 1381 1519 1522 1658 2000 2288
1050.0 2309 2106 1740 1339 1060 971 989 1044 1054 946
1090.0 762 594 502 464 452 417 351 279 236 220
1130.0 216 221 229 247 282 317 357 386 412 445
1170.0 498 586 753 1017 1286 1588 2165 3113 4363 6001
1210.0 8168 10000 9362 6391 3225 1552 973 744 634 568
1250.0 530 503 467 429 390 377 376 368 330 288
1290.0 269 272 281 280 307 335 332 284 239 214
1330.0 207 203 198 185 182 209 264 363 546 869
1370.0 1296 1616 1568 1200 793 508 361 279 227 201
1410.0 191 179 194 196 208 223 246 253 245 250
1450.0 281 346 378 301 196 154 147 145 144 186
1490.0 247 319 346 299 231 178 147 140 147 135
1530.0 145 138 152 150 133 118 122 139 130 113
1570.0 113 113 122 125 136 150 136 120 108 100
1610.0 98 88 93 80 86 79 89 99 88 107
1650.0 111 132 122 122 137 144 144 135 143 145
1690.0 131 128 153 160 170 191 220 254 238 250
1730.0 286 369 419 442 435 423 420 427 536 735
1770.0 1412 2778 4734 5666 4197 2165 953 547 452 373
1810.0 361 312 301 273 253 216 201 207 232 250
1850.0 218 178 139 119 102 99 97 105 114 109
1890.0 110 103 107 98 93 81 73 71 65 67
1930.0 62 70 76 95 110 118 109 98 105 109
1970.0 103 88 81 78 80 80 80 81 83 88
2010.0 90 91 90 86 77 75 71 71 73 71
2050.0 70 66 63 64 64 67 63 65 61 64
2090.0 65 63 61 64 64 69 69 73 76 80
2130.0 86 87 93 85 76 67 59 55 53 52
2170.0 51 53 51 52 54 51 49 48 46 49
2210.0 46 46 45 48 48 45 46 47 49 46
2250.0 45 48 45 47 49 49 46 48 47 47
2290.0 48 48 50 48 46 47 47 49 47 45
2330.0 44 48 43 52 64 56 58 56 55 56
2370.0 56 59 63 59 54 51 54 51 51 53
2410.0 52 56 56 55 51 49 46 43 41 40
2450.0 42 40 42 43 44 41 41 39 35 40
2490.0 41 38 38 39 41 40 39 39 40 41
2530.0 41 38 40 41 45 42 43 46 46 47
2570.0 44 49 48 49 46 48 47 46 45 44
2610.0 48 44 49 45 47 47 49 49 51 47
2650.0 48 52 50 48 46 46 45 47 47 43
2690.0 46 43 47 47 49 50 49 44 44 44
2730.0 40 39 41 42 39 43 46 44 45 45
2770.0 46 43 47 45 45 40 44 46 48 44
2810.0 42 46 40 42 37 33 35 35 33 30
2850.0 17 15 25 39 43 41 38 42 36 36
2890.0 35 37 33 34 31 33 15 3 0 5
2930.0 30 59 87 110 138 168 221 298 366 358
2970.0 269 168 119 101 96 98 100 103 100 92
3010.0 93 99 103 113 135 176 243 341 454 513
3050.0 470 365 288 285 346 427 515 542 466 339
3090.0 273 277 287 263 216 174 145 128 109 92
3130.0 76 65 60 54 54 53 53 53 52 50
3170.0 53 56 55 48 51 46 45 44 43 42
3210.0 45 41 45 42 38 44 41 39 40 40
3250.0 40 41 37 39 38 40 39 37 41 42
3290.0 40 42 41 40 41 41 41 40 43 40
3330.0 40 43 44 42 43 44 39 47 44 44
3370.0 40 40 46 48 41 46 48 40 44 45
3410.0 48 45 44 44 43 42 48 48 46 48
3450.0 52 42 45 46 44 45 45 40 43 47
3490.0 47 44 52 45 48 49 51 58 54 52
3530.0 56 67 70 74 71 67 53 41 42 45
3570.0 44 41 53 51 54 53 49 48 44 53
3610.0 47 48 42 42 43 51 54 44 49 49
3650.0 49 53 52 50 46 53 42 57 42 46
3690.0 43 53 45 50 49 45 51 44 51 37
3730.0 54 41 43 47 62 52 59 38 39 43
3770.0 44 44 33 50 43 37 36 49 41 52
3810.0 38 41 40 48 47 33 42 54 45 47
3850.0 41 53 44 46 48 49 42 37 29 48
3890.0 42 52 37 48 40 41 40 46 41 44
3930.0 46 45 47 56 49 42 47 40 37 47
##END=
