##TITLE=Naphthalene, 1-bromo-
##JCAMP-DX=4.24
##DATA TYPE=INFRARED SPECTRUM
##ORIGIN=Sadtler Research Labs Under US-EPA Contract
##OWNER=NIST Standard Reference Data Program
##CAS REGISTRY NO=90-11-9
##MOLFORM=C 10 H 7 Br
##XUNITS=1/CM
##YUNITS=ABSORBANCE
##XFACTOR=1.0
##YFACTOR=0.000072852
##DELTAX=4.0
##FIRSTX=450.0
##LASTX=3966.0
##FIRSTY=0.058208
##MAXX=3966
##MINX=450
##MAXY=0.72852
##MINY=0
##NPOINTS=880
##XYDATA=(X++(Y..Y))
450.0 799 719 783 851 910 843 727 587 476 433
490.0 492 467 480 484 534 612 809 1075 1441 1674
530.0 1715 1035 562 496 282 268 289 181 344 359
570.0 281 415 450 391 325 255 204 109 191 243
610.0 241 231 266 240 206 204 257 455 991 2450
650.0 2990 2879 2110 569 157 75 77 156 224 95
690.0 61 143 199 134 61 173 167 345 400 521
730.0 632 664 694 741 1106 1968 3830 5543 7253 9813
770.0 5453 5145 5077 5734 8347 10000 6249 5136 3330 2646
810.0 2169 1708 1346 885 740 699 707 652 443 437
850.0 610 635 574 396 311 289 234 224 247 207
890.0 284 209 183 152 94 125 146 169 204 344
930.0 527 882 1301 1750 2158 3124 4443 4653 4124 2776
970.0 869 404 333 300 249 261 247 290 301 402
1010.0 548 786 996 842 849 512 271 160 199 330
1050.0 592 743 959 962 735 420 275 160 186 108
1090.0 147 119 189 128 134 175 190 256 352 593
1130.0 1061 1600 1852 1670 942 488 316 441 448 514
1170.0 493 496 523 675 882 1163 1759 2185 2213 1972
1210.0 1259 632 536 467 415 378 387 410 634 1045
1250.0 1448 1788 1988 1550 1122 610 342 201 195 158
1290.0 149 162 170 177 236 247 250 260 278 324
1330.0 368 438 439 483 509 582 641 784 931 1324
1370.0 1855 2521 3070 3443 3252 2510 1637 770 309 245
1410.0 261 268 276 250 322 248 306 181 342 335
1450.0 409 432 313 375 319 266 182 224 293 472
1490.0 762 1441 2168 2578 2297 1922 1090 532 179 171
1530.0 185 183 165 151 383 723 1116 1631 2136 2298
1570.0 1857 1189 620 836 1060 1229 1177 962 715 525
1610.0 449 406 378 437 436 363 348 139 250 147
1650.0 174 0 213 178 207 130 240 332 484 382
1690.0 470 379 179 72 198 315 276 212 288 315
1730.0 320 298 392 512 567 641 635 656 540 460
1770.0 325 233 280 343 384 420 402 436 379 316
1810.0 299 206 251 299 309 260 323 273 282 181
1850.0 327 357 379 299 225 102 100 88 94 94
1890.0 101 190 203 285 346 450 479 546 535 491
1930.0 416 386 294 337 336 366 291 231 109 111
1970.0 81 76 56 67 57 56 36 46 71 49
2010.0 71 57 82 37 73 50 88 59 97 51
2050.0 86 41 83 37 49 69 65 59 68 63
2090.0 67 64 61 84 38 81 56 88 22 57
2130.0 51 65 28 71 37 69 34 62 41 56
2170.0 49 46 47 55 65 51 59 31 76 25
2210.0 75 45 82 46 70 48 63 42 79 56
2250.0 78 61 73 70 66 69 68 87 87 102
2290.0 94 113 63 105 90 104 41 87 12 24
2330.0 13 52 8 28 12 48 12 12 12 44
2370.0 52 75 54 61 92 71 106 81 98 76
2410.0 112 71 148 90 104 38 98 60 63 37
2450.0 68 46 60 52 57 47 46 73 38 75
2490.0 35 76 48 67 20 60 31 95 34 68
2530.0 27 69 31 54 54 54 48 66 62 59
2570.0 71 68 84 70 67 40 67 54 73 36
2610.0 57 43 72 44 55 41 65 41 71 62
2650.0 52 57 48 28 38 59 58 92 54 60
2690.0 55 116 59 82 46 50 30 55 18 33
2730.0 35 37 12 46 47 46 55 42 31 48
2770.0 59 48 52 42 79 50 97 44 79 40
2810.0 76 46 66 37 106 58 70 59 83 77
2850.0 90 108 120 118 133 145 137 184 168 219
2890.0 196 212 136 161 161 182 168 205 204 248
2930.0 232 273 310 348 366 377 379 370 388 381
2970.0 389 391 351 306 314 283 337 330 419 392
3010.0 479 500 590 647 722 738 873 967 1168 1446
3050.0 2017 2994 4351 5580 5671 5010 3886 2923 2734 2862
3090.0 2768 2403 1690 1015 558 371 224 221 148 177
3130.0 143 161 124 116 111 121 128 126 150 114
3170.0 134 120 139 95 109 101 112 97 131 91
3210.0 106 100 107 92 108 112 90 82 100 85
3250.0 98 93 91 69 91 109 89 102 93 107
3290.0 87 91 83 107 92 101 99 84 50 97
3330.0 111 100 65 83 80 100 100 98 105 95
3370.0 126 104 105 91 108 89 98 87 113 102
3410.0 99 78 124 66 120 140 107 86 111 127
3450.0 107 119 100 112 110 114 102 143 103 93
3490.0 94 97 76 100 100 110 94 123 97 106
3530.0 150 109 132 111 133 107 123 133 139 111
3570.0 101 118 141 115 115 81 113 106 115 119
3610.0 75 60 75 70 108 8 105 104 100 54
3650.0 14 43 68 112 103 47 44 52 100 101
3690.0 56 94 109 94 81 81 43 99 76 89
3730.0 61 36 58 40 10 14 62 83 77 82
3770.0 83 98 106 100 124 113 93 73 38 36
3810.0 46 64 28 28 71 46 36 21 51 59
3850.0 61 8 100 102 71 43 66 56 47 40
3890.0 55 41 45 18 33 51 44 37 37 45
3930.0 54 61 62 54 67 68 8 12 12 12
##END=
