##TITLE=Benzeneacetamide, .alpha.-ethyl-
##JCAMP-DX=4.24
##DATA TYPE=INFRARED SPECTRUM
##ORIGIN=Sadtler Research Labs Under US-EPA Contract
##OWNER=NIST Standard Reference Data Program
##CAS REGISTRY NO=90-26-6
##MOLFORM=C 10 H 13 N O
##XUNITS=1/CM
##YUNITS=ABSORBANCE
##XFACTOR=1.0
##YFACTOR=0.000097403
##DELTAX=4.0
##FIRSTX=450.0
##LASTX=3966.0
##FIRSTY=0.011104
##MAXX=3966
##MINX=450
##MAXY=0.97403
##MINY=0
##NPOINTS=880
##XYDATA=(X++(Y..Y))
450.0 114 79 70 86 78 92 42 81 46 50
490.0 2 24 28 44 62 83 151 214 304 440
530.0 562 663 648 576 441 327 252 247 264 281
570.0 320 350 378 413 461 502 529 520 466 396
610.0 312 258 242 243 257 253 291 295 316 335
650.0 336 332 327 322 313 301 304 332 442 696
690.0 1216 1782 2280 2340 2102 1540 1074 787 650 650
730.0 721 893 1097 1271 1333 1324 1187 1097 1009 924
770.0 875 771 675 565 500 453 416 401 390 386
810.0 375 375 376 365 358 345 326 319 318 303
850.0 295 272 267 248 248 241 242 240 244 232
890.0 242 240 246 250 243 221 194 173 156 160
930.0 174 174 174 152 137 115 92 76 68 69
970.0 64 57 57 58 68 66 72 79 89 96
1010.0 112 154 201 279 354 397 371 288 202 146
1050.0 143 175 217 267 307 318 306 289 271 258
1090.0 247 253 241 227 202 174 151 133 122 110
1130.0 88 73 62 56 48 52 56 67 74 87
1170.0 103 122 155 180 206 227 242 256 273 307
1210.0 371 450 546 664 772 868 922 915 850 767
1250.0 680 621 593 617 677 779 901 1032 1148 1214
1290.0 1219 1187 1152 1145 1185 1286 1432 1583 1695 1750
1330.0 1734 1652 1569 1480 1434 1431 1418 1402 1365 1288
1370.0 1186 1088 981 895 821 721 611 497 396 338
1410.0 319 278 295 234 212 195 241 303 405 536
1450.0 710 876 931 816 724 618 546 470 477 632
1490.0 831 915 880 702 488 324 230 226 255 249
1530.0 261 252 281 313 339 355 439 559 697 920
1570.0 1334 1927 2681 3388 3737 3753 3292 2679 2012 1497
1610.0 1085 781 602 463 405 326 325 304 297 300
1650.0 355 369 396 429 501 577 700 825 1037 1294
1690.0 1547 1871 2280 2751 3238 3955 5152 6969 8755 9999
1730.0 10000 8398 6223 4493 3264 2441 1880 1482 1209 971
1770.0 802 614 474 369 306 262 258 245 240 204
1810.0 175 150 114 109 96 90 69 59 64 72
1850.0 64 58 70 79 95 104 96 93 95 93
1890.0 88 79 62 57 52 51 47 53 57 58
1930.0 65 84 106 130 134 123 120 110 94 79
1970.0 55 38 30 29 24 32 27 23 19 20
2010.0 16 19 21 17 17 14 16 15 17 15
2050.0 15 14 12 16 15 16 14 13 10 12
2090.0 10 8 7 7 6 6 6 3 5 5
2130.0 6 3 3 3 5 5 5 6 5 4
2170.0 6 6 7 6 7 6 9 7 6 6
2210.0 6 7 7 7 8 6 7 7 7 9
2250.0 6 9 6 7 9 7 5 7 9 7
2290.0 3 2 2 1 0 1 6 8 5 3
2330.0 0 0 13 0 18 7 0 0 0 0
2370.0 2 5 18 13 10 9 15 17 17 16
2410.0 18 17 17 17 13 13 10 12 11 12
2450.0 10 12 12 8 10 9 9 9 5 6
2490.0 4 2 4 2 2 6 4 4 3 2
2530.0 7 7 7 9 10 8 9 5 8 7
2570.0 12 12 13 13 13 14 12 14 12 14
2610.0 12 14 11 12 14 16 18 17 16 19
2650.0 16 17 19 14 17 19 16 15 19 17
2690.0 17 19 18 18 18 15 20 17 22 19
2730.0 25 29 36 42 46 49 52 50 48 50
2770.0 51 57 60 65 73 81 86 88 88 88
2810.0 92 92 94 97 102 109 116 126 140 152
2850.0 166 194 229 285 359 467 631 867 1108 1280
2890.0 1344 1293 1156 1007 888 807 764 757 807 918
2930.0 1084 1272 1419 1501 1495 1433 1368 1405 1588 1931
2970.0 2373 2609 2449 2078 1541 1025 679 501 409 377
3010.0 383 426 520 677 889 1090 1193 1125 966 776
3050.0 623 586 655 841 1110 1324 1375 1306 1102 896
3090.0 779 669 554 447 361 299 249 204 168 138
3130.0 119 110 105 103 98 99 95 93 92 88
3170.0 83 72 63 51 48 47 42 45 45 40
3210.0 41 37 38 35 34 31 36 29 32 30
3250.0 32 30 30 30 27 30 32 29 30 32
3290.0 35 41 43 46 47 42 49 51 49 47
3330.0 43 44 43 45 42 43 43 46 47 53
3370.0 62 63 78 95 112 136 169 209 253 318
3410.0 393 469 577 684 800 856 842 736 580 408
3450.0 279 201 160 136 119 110 109 108 105 123
3490.0 137 162 186 219 257 294 350 421 519 596
3530.0 666 724 801 974 1142 1207 1095 855 548 313
3570.0 191 133 100 72 59 41 31 15 16 11
3610.0 9 4 2 4 13 17 10 1 8 2
3650.0 13 13 10 13 1 13 4 7 6 8
3690.0 11 6 18 18 17 16 18 15 16 14
3730.0 24 13 18 5 19 5 5 19 0 5
3770.0 4 6 1 0 4 1 1 0 0 5
3810.0 0 4 3 0 8 9 3 2 0 0
3850.0 0 3 0 0 0 0 0 0 4 2
3890.0 1 0 0 10 9 7 6 2 4 0
3930.0 5 0 6 3 1 7 9 9 19 22
##END=
