##TITLE=Ethanone, 1-(2-hydroxy-4,6-dimethoxyphenyl)-
##JCAMP-DX=4.24
##DATA TYPE=INFRARED SPECTRUM
##ORIGIN=Sadtler Research Labs Under US-EPA Contract
##OWNER=NIST Standard Reference Data Program
##CAS REGISTRY NO=90-24-4
##MOLFORM=C 10 H 12 O 4
##XUNITS=1/CM
##YUNITS=ABSORBANCE
##XFACTOR=1.0
##YFACTOR=0.000061475
##DELTAX=4.0
##FIRSTX=450.0
##LASTX=3966.0
##FIRSTY=0.004426
##MAXX=3966
##MINX=450
##MAXY=0.61475
##MINY=0
##NPOINTS=880
##XYDATA=(X++(Y..Y))
450.0 72 81 59 66 31 61 57 15 18 23
490.0 42 91 101 105 104 104 185 242 302 336
530.0 366 313 342 381 420 463 487 422 362 309
570.0 360 383 500 677 836 873 738 565 436 273
610.0 188 230 222 198 201 238 252 286 383 454
650.0 443 435 388 362 393 416 394 418 383 376
690.0 419 430 450 332 377 304 293 331 283 399
730.0 368 452 452 388 401 394 285 273 248 277
770.0 267 308 340 345 389 415 519 548 612 688
810.0 747 935 1165 1499 1792 1582 1334 1144 1017 877
850.0 747 678 577 528 463 416 396 317 300 274
890.0 251 248 223 211 203 224 236 236 259 299
930.0 386 492 567 634 697 766 833 862 834 741
970.0 517 371 287 290 288 303 320 368 350 339
1010.0 301 289 309 347 434 509 591 708 760 701
1050.0 626 502 465 495 562 699 892 1038 1076 1043
1090.0 987 1054 1276 1598 2050 2617 3232 3654 3624 3155
1130.0 2426 1786 1528 1766 2553 3901 5470 6209 5886 4584
1170.0 3125 2277 1931 1975 2216 2546 2954 3650 4793 6280
1210.0 7430 7515 6452 4794 3244 2209 1831 1944 2439 3307
1250.0 4413 5424 6013 5827 5087 4362 3929 3828 3791 3776
1290.0 3607 3281 2824 2440 2208 2128 2014 1784 1424 1052
1330.0 788 648 570 545 566 686 940 1453 2189 2670
1370.0 2676 2220 1577 1283 1211 1220 1282 1418 1655 2005
1410.0 2445 2863 3228 3394 3316 3056 2685 2409 2210 2086
1450.0 1999 1880 1896 2047 2240 2222 2035 1674 1273 1060
1490.0 993 979 1026 976 957 846 783 774 792 778
1530.0 788 852 894 998 1061 1218 1479 1855 2310 2820
1570.0 3480 4213 5037 5714 6205 6531 6712 6908 7393 8107
1610.0 8840 9461 9764 9824 9860 10000 9901 9586 8590 7255
1650.0 5614 4268 3174 2452 1922 1566 1270 1028 863 708
1690.0 580 492 443 390 325 285 279 278 229 208
1730.0 217 234 196 198 195 196 170 170 168 154
1770.0 163 163 143 139 131 137 138 126 134 117
1810.0 100 92 84 74 80 84 74 65 63 69
1850.0 58 57 47 48 47 62 55 45 46 48
1890.0 52 47 52 52 51 58 50 57 56 56
1930.0 57 55 68 71 70 71 71 70 60 60
1970.0 52 59 52 50 50 51 49 45 41 43
2010.0 41 41 39 31 31 22 29 31 29 37
2050.0 36 44 48 44 51 50 42 50 48 47
2090.0 49 47 45 40 43 46 45 54 53 37
2130.0 37 28 27 35 25 35 33 42 41 41
2170.0 25 26 23 15 22 22 22 22 20 30
2210.0 20 19 20 20 16 18 26 20 19 19
2250.0 27 20 29 29 29 28 28 32 38 38
2290.0 46 55 63 72 81 89 98 115 130 120
2330.0 127 120 112 114 99 114 139 140 153 138
2370.0 128 103 87 85 76 68 68 69 69 70
2410.0 69 69 78 78 69 80 69 80 71 71
2450.0 73 79 72 73 80 82 86 87 89 90
2490.0 90 89 88 92 91 82 90 91 92 84
2530.0 101 91 92 92 102 98 102 108 110 117
2570.0 127 135 135 134 144 143 153 157 161 167
2610.0 168 168 178 178 186 177 178 176 171 171
2650.0 175 180 183 190 195 203 204 212 221 212
2690.0 216 212 213 212 218 221 221 220 222 240
2730.0 248 256 258 266 272 272 280 286 287 295
2770.0 296 305 316 315 324 338 333 348 359 367
2810.0 384 402 419 451 475 516 558 623 707 826
2850.0 951 1043 1067 998 885 774 682 629 612 610
2890.0 618 644 676 701 737 772 821 877 919 949
2930.0 954 1005 1130 1335 1601 1783 1800 1704 1551 1462
2970.0 1458 1368 1148 973 845 787 814 910 1068 1302
3010.0 1487 1499 1298 979 708 538 467 433 396 362
3050.0 355 347 330 330 329 321 314 321 320 320
3090.0 307 306 310 316 317 308 293 291 276 272
3130.0 266 258 266 266 258 259 256 255 248 247
3170.0 248 247 241 229 233 234 230 228 219 227
3210.0 226 211 218 218 217 218 212 211 221 212
3250.0 213 204 198 191 190 182 182 173 167 155
3290.0 155 144 134 134 135 130 121 120 112 105
3330.0 96 112 98 97 99 83 89 85 78 81
3370.0 74 67 76 68 67 54 66 51 55 58
3410.0 47 57 45 46 46 37 45 38 38 47
3450.0 43 31 44 35 38 30 32 26 25 16
3490.0 17 33 17 18 9 17 18 14 18 19
3530.0 5 10 20 20 13 12 20 5 18 19
3570.0 10 10 13 14 29 32 14 23 8 25
3610.0 21 37 24 20 18 44 23 19 17 33
3650.0 51 35 34 26 13 36 41 44 36 42
3690.0 45 30 20 28 37 38 44 46 56 49
3730.0 45 55 51 51 67 62 57 48 40 32
3770.0 32 30 33 34 34 34 40 49 49 49
3810.0 43 43 51 50 51 43 49 43 44 53
3850.0 56 63 60 62 46 63 70 63 45 48
3890.0 51 46 47 49 48 36 33 32 32 41
3930.0 42 41 42 52 41 56 0 4 4 4
##END=
