##TITLE=o-Hydroxybiphenyl
##JCAMP-DX=4.24
##DATA TYPE=INFRARED SPECTRUM
##ORIGIN=Sadtler Research Labs Under US-EPA Contract
##OWNER=NIST Standard Reference Data Program
##CAS REGISTRY NO=90-43-7
##MOLFORM=C 12 H 10 O
##XUNITS=1/CM
##YUNITS=ABSORBANCE
##XFACTOR=1.0
##YFACTOR=0.000050000
##DELTAX=4.0
##FIRSTX=450.0
##LASTX=3966.0
##FIRSTY=0.016750
##MAXX=3966
##MINX=450
##MAXY=0.5
##MINY=0
##NPOINTS=880
##XYDATA=(X++(Y..Y))
450.0 335 410 367 370 424 556 700 729 600 525
490.0 516 452 259 156 239 276 404 458 417 342
530.0 377 234 5 157 363 321 574 845 1023 796
570.0 466 315 214 228 384 310 128 312 154 442
610.0 621 950 873 791 531 207 133 171 267 305
650.0 334 335 314 555 582 633 573 759 998 1451
690.0 2096 3038 3970 4149 3908 3227 2543 2305 2038 2268
730.0 2667 3131 4245 5753 7390 8698 7466 5694 4363 2831
770.0 1964 1477 1007 664 470 281 236 255 310 332
810.0 314 488 628 1043 1357 1472 1320 1203 840 613
850.0 480 430 349 225 152 174 144 77 56 167
890.0 132 202 116 191 184 255 291 277 257 294
930.0 261 340 280 236 230 175 101 154 173 171
970.0 139 176 186 230 265 306 380 479 831 1297
1010.0 1500 1441 1189 609 507 548 603 725 755 673
1050.0 536 447 424 450 546 621 597 547 500 480
1090.0 546 673 820 905 925 811 638 527 487 500
1130.0 533 621 783 1085 1502 1768 1741 1781 1697 1999
1170.0 2717 3823 5204 6030 6170 5776 4618 3473 2717 2319
1210.0 2198 2245 2445 2675 3024 3345 3505 3458 3140 2644
1250.0 2183 1933 1966 2243 2663 3149 3430 3388 3104 2558
1290.0 1902 1384 1027 775 700 715 846 1094 1378 1762
1330.0 2136 2260 2094 1808 1248 732 439 247 201 185
1370.0 176 134 147 134 158 185 202 261 351 440
1410.0 517 593 599 667 761 1032 1303 1501 1608 1665
1450.0 1592 1576 1683 1911 2467 3584 5295 6615 6879 6210
1490.0 4468 3070 2297 1850 1555 1158 822 605 466 418
1530.0 358 346 357 357 415 474 519 578 693 872
1570.0 1124 1456 1812 2112 2245 2226 2044 1776 1568 1417
1610.0 1429 1455 1417 1241 935 586 368 232 134 124
1650.0 103 122 133 130 148 201 236 281 312 310
1690.0 271 234 185 174 187 215 212 186 176 165
1730.0 156 173 143 151 173 173 173 193 177 171
1770.0 188 199 239 273 288 285 287 276 284 275
1810.0 295 304 267 240 205 158 128 104 81 71
1850.0 82 82 101 123 166 184 219 243 281 312
1890.0 365 418 441 402 333 236 164 142 177 230
1930.0 296 320 321 296 256 273 265 243 224 204
1970.0 152 111 70 70 54 65 55 63 62 62
2010.0 79 61 61 52 42 59 60 60 55 66
2050.0 60 50 61 68 53 74 59 61 52 41
2090.0 53 54 58 58 45 46 38 43 31 22
2130.0 29 31 31 28 28 15 25 13 24 37
2170.0 39 29 40 29 41 41 31 54 36 29
2210.0 46 46 34 44 41 41 58 41 51 60
2250.0 62 70 78 75 70 77 76 75 90 100
2290.0 101 120 152 152 172 202 206 210 222 213
2330.0 214 195 246 228 224 200 232 256 232 258
2370.0 197 183 153 140 104 70 80 79 79 101
2410.0 101 111 100 103 109 117 92 106 108 111
2450.0 100 110 110 110 108 111 90 94 91 99
2490.0 108 100 86 121 108 129 109 99 110 64
2530.0 71 66 49 48 54 56 60 58 48 59
2570.0 39 48 58 46 53 60 40 58 70 76
2610.0 69 70 69 79 79 79 56 55 60 54
2650.0 48 58 53 70 69 79 68 48 47 33
2690.0 38 25 29 51 64 43 47 60 47 37
2730.0 47 58 59 57 47 67 71 63 58 58
2770.0 58 47 39 47 38 39 25 48 34 28
2810.0 37 44 46 38 39 39 25 58 48 48
2850.0 49 60 76 70 78 72 88 97 77 117
2890.0 109 109 117 90 112 94 80 80 94 107
2930.0 124 127 105 130 129 129 109 105 113 104
2970.0 102 117 94 113 121 132 145 169 199 284
3010.0 369 522 727 1047 1422 1866 2312 2538 2575 2433
3050.0 2260 2191 2362 2914 3859 4448 4557 4104 3242 2595
3090.0 2216 1845 1502 1169 935 756 610 502 370 285
3130.0 217 166 165 175 182 161 183 171 148 138
3170.0 78 67 59 70 81 69 64 35 51 66
3210.0 62 56 58 38 38 56 49 67 49 46
3250.0 69 58 52 63 19 47 38 47 21 42
3290.0 44 48 75 45 60 35 41 59 38 109
3330.0 87 111 110 62 63 26 51 36 42 84
3370.0 25 78 48 27 48 60 36 35 39 67
3410.0 61 31 57 36 40 57 27 27 37 45
3450.0 44 66 60 56 53 54 32 71 57 68
3490.0 68 92 139 173 172 140 165 117 107 101
3530.0 119 99 97 129 120 159 81 116 171 201
3570.0 271 333 590 1278 3427 7714 9881 10000 7475 3616
3610.0 1530 782 450 307 282 288 350 503 717 843
3650.0 788 764 553 367 238 174 127 99 121 95
3690.0 95 71 80 67 78 48 55 40 28 39
3730.0 23 38 28 24 25 38 48 27 39 18
3770.0 27 15 18 13 50 17 8 22 23 12
3810.0 11 39 19 26 18 39 51 73 58 37
3850.0 77 90 101 69 58 48 88 86 57 75
3890.0 71 85 97 100 104 85 77 78 87 78
3930.0 87 90 100 120 112 134 0 11 11 11
##END=
