##TITLE=[1,1'-Biphenyl]-2-amine
##JCAMP-DX=4.24
##DATA TYPE=INFRARED SPECTRUM
##ORIGIN=Sadtler Research Labs Under US-EPA Contract
##OWNER=NIST Standard Reference Data Program
##CAS REGISTRY NO=90-41-5
##MOLFORM=C 12 H 11 N
##XUNITS=1/CM
##YUNITS=ABSORBANCE
##XFACTOR=1.0
##YFACTOR=0.000080405
##DELTAX=4.0
##FIRSTX=450.0
##LASTX=3966.0
##FIRSTY=0.108064
##MAXX=3966
##MINX=450
##MAXY=0.80405
##MINY=0
##NPOINTS=880
##XYDATA=(X++(Y..Y))
450.0 1344 1234 1489 1637 1866 1860 1940 1898 1757 1566
490.0 1301 1157 1099 1097 1068 1143 1193 1268 1335 1372
530.0 1452 1408 1445 1388 1487 1594 1802 1964 1962 1919
570.0 1638 1401 1223 1109 1029 1073 1040 1044 1093 1149
610.0 1417 1840 2187 2297 2091 1633 1488 1447 1466 1479
650.0 1543 1605 1655 1732 1720 1838 1882 1866 1975 2398
690.0 3355 4581 6321 6577 6873 5526 4224 3438 3230 3735
730.0 4877 6772 8162 10000 9677 8686 7145 5835 4787 3930
770.0 3317 2692 2139 1649 1344 1136 1085 1019 959 934
810.0 918 895 922 903 907 844 769 681 625 645
850.0 639 606 535 490 415 374 346 316 312 286
890.0 288 261 270 270 316 357 402 438 452 459
930.0 485 491 389 350 295 267 252 248 258 241
970.0 254 242 266 278 377 500 588 717 1213 1847
1010.0 1936 1925 1302 607 456 425 419 438 501 586
1050.0 642 696 757 823 888 910 794 585 383 234
1090.0 129 87 69 82 67 76 81 101 124 189
1130.0 297 452 651 794 911 1047 1146 1100 953 681
1170.0 362 213 146 136 94 67 51 52 47 42
1210.0 65 76 114 156 238 332 496 699 897 1070
1250.0 1136 1143 1087 1091 1237 1577 2158 2832 3602 4142
1290.0 4283 3979 3288 2548 1967 1657 1376 1127 837 555
1330.0 340 235 85 63 53 51 13 17 0 13
1370.0 54 26 86 69 99 111 164 189 316 406
1410.0 389 492 428 660 798 1259 1586 1937 2415 2599
1450.0 2703 2572 2356 2091 2004 2255 3407 5554 6442 7655
1490.0 6300 4988 3346 2742 2384 1526 1350 870 673 521
1530.0 458 467 421 410 473 573 604 553 837 1016
1570.0 1280 1472 1771 1960 2078 2303 2547 3144 3826 5145
1610.0 6628 7845 9349 8612 9298 5862 4895 2771 1832 1173
1650.0 732 617 462 534 515 529 464 493 372 269
1690.0 298 298 183 153 170 200 156 82 133 159
1730.0 109 52 107 123 114 119 179 191 211 254
1770.0 259 258 290 252 208 199 208 302 369 448
1810.0 411 336 269 201 165 108 122 106 89 65
1850.0 114 170 191 219 236 252 333 429 526 629
1890.0 657 611 499 365 267 240 282 332 337 340
1930.0 308 277 284 303 334 359 347 329 278 209
1970.0 136 98 75 76 74 59 60 68 72 63
2010.0 66 63 55 55 59 59 58 61 57 61
2050.0 60 63 65 60 58 64 70 63 69 71
2090.0 70 71 78 73 79 84 83 88 84 86
2130.0 84 86 83 83 80 74 77 69 73 70
2170.0 76 74 74 79 75 79 80 82 85 91
2210.0 89 90 82 83 80 76 81 75 78 74
2250.0 77 70 70 64 65 71 75 80 88 94
2290.0 95 100 100 110 125 147 162 160 154 124
2330.0 115 107 112 106 102 93 80 73 51 51
2370.0 47 65 57 67 70 72 77 75 85 88
2410.0 88 90 89 86 88 93 98 103 106 105
2450.0 104 103 106 93 94 89 85 78 78 76
2490.0 74 76 81 84 87 94 97 100 105 110
2530.0 113 119 118 121 110 110 109 106 104 106
2570.0 108 112 120 124 133 141 155 165 167 175
2610.0 170 166 154 141 129 119 117 108 100 100
2650.0 99 92 93 84 91 77 75 76 68 71
2690.0 70 74 67 75 70 73 74 75 80 80
2730.0 86 92 98 102 105 112 104 107 106 103
2770.0 101 97 93 90 85 84 83 75 81 76
2810.0 85 82 79 86 95 102 107 119 121 132
2850.0 139 152 164 178 189 195 207 219 225 231
2890.0 237 230 218 210 195 195 190 178 171 183
2930.0 180 191 190 185 183 171 162 160 173 179
2970.0 198 213 237 253 257 283 328 401 523 715
3010.0 1036 1507 2169 3006 3887 4546 4816 4559 3920 3293
3050.0 3055 3331 4166 5495 6577 6916 6610 5592 4604 3948
3090.0 3290 2567 1951 1506 1215 997 817 640 497 391
3130.0 334 290 278 274 271 278 264 246 223 194
3170.0 175 172 164 165 166 177 174 171 167 164
3210.0 146 141 129 117 113 110 105 92 80 78
3250.0 69 75 66 69 71 84 70 68 75 75
3290.0 87 74 72 77 82 83 80 84 87 99
3330.0 92 87 86 95 91 92 93 94 112 126
3370.0 150 181 222 278 375 529 765 1091 1394 1552
3410.0 1510 1276 938 642 457 338 286 257 249 246
3450.0 237 265 297 343 424 529 666 876 1130 1500
3490.0 1872 2110 2131 1897 1488 1093 771 567 421 337
3530.0 282 236 208 181 169 141 139 127 113 114
3570.0 103 102 104 97 96 94 83 102 92 107
3610.0 87 96 77 101 111 71 115 121 130 142
3650.0 118 144 125 143 135 127 128 115 127 104
3690.0 142 108 141 110 112 111 101 115 112 100
3730.0 115 92 109 76 117 74 88 117 97 107
3770.0 103 109 114 121 140 122 139 153 104 144
3810.0 122 125 99 100 140 139 141 136 151 119
3850.0 158 130 123 145 130 114 152 166 133 160
3890.0 141 161 131 166 152 179 157 162 153 141
3930.0 155 147 141 112 141 124 143 158 168 149
##END=
