##TITLE=[1,1'-Bicyclohexyl]-2-one
##JCAMP-DX=4.24
##DATA TYPE=INFRARED SPECTRUM
##ORIGIN=Sadtler Research Labs Under US-EPA Contract
##OWNER=NIST Standard Reference Data Program
##CAS REGISTRY NO=90-42-6
##MOLFORM=C 12 H 20 O
##XUNITS=1/CM
##YUNITS=ABSORBANCE
##XFACTOR=1.0
##YFACTOR=0.000137448
##DELTAX=4.0
##FIRSTX=450.0
##LASTX=3966.0
##FIRSTY=0.005498
##MAXX=3966
##MINX=450
##MAXY=1.37448
##MINY=0
##NPOINTS=880
##XYDATA=(X++(Y..Y))
450.0 40 64 96 64 64 51 73 8 15 51
490.0 46 33 2 90 14 110 118 113 112 110
530.0 152 166 222 245 236 211 159 125 95 80
570.0 74 71 55 54 64 45 74 63 31 76
610.0 60 42 35 39 35 2 48 48 43 13
650.0 59 69 66 61 58 48 57 60 50 50
690.0 49 39 43 41 37 41 49 74 39 16
730.0 36 76 68 80 77 71 65 71 52 57
770.0 53 70 87 78 92 85 37 42 48 52
810.0 65 72 95 113 169 211 213 186 137 130
850.0 109 89 109 117 126 146 168 177 219 245
890.0 246 221 183 149 138 138 127 129 123 124
930.0 111 99 85 82 86 88 85 67 64 65
970.0 67 74 96 132 144 166 159 139 139 166
1010.0 192 221 243 250 240 227 218 199 204 210
1050.0 221 236 274 294 300 263 215 188 172 173
1090.0 172 189 206 243 304 379 490 629 759 821
1130.0 758 598 423 300 246 213 184 152 122 119
1170.0 121 129 136 151 159 171 173 175 202 244
1210.0 284 308 315 308 322 330 316 284 242 222
1250.0 223 236 244 247 254 260 272 278 291 306
1290.0 313 302 289 278 301 338 344 317 258 223
1330.0 233 284 331 349 337 313 294 262 224 190
1370.0 168 162 157 144 131 111 101 94 86 90
1410.0 100 116 149 186 244 302 367 422 549 771
1450.0 1040 1178 1092 841 603 417 294 187 119 92
1490.0 83 71 71 67 69 67 53 54 55 47
1530.0 45 39 45 48 39 36 42 48 43 39
1570.0 34 39 35 32 34 37 38 40 45 50
1610.0 45 42 45 51 54 46 55 57 57 65
1650.0 76 85 89 94 105 121 147 168 205 240
1690.0 266 315 412 575 879 1400 2206 3166 3901 3965
1730.0 3460 2450 1544 972 652 468 357 285 235 201
1770.0 178 153 136 124 111 101 91 81 74 61
1810.0 57 54 52 47 44 44 42 40 40 40
1850.0 36 33 31 32 34 37 30 32 29 32
1890.0 33 32 31 30 28 30 25 28 26 25
1930.0 21 27 24 23 23 25 27 24 21 23
1970.0 26 22 20 22 23 20 16 15 13 15
2010.0 16 16 19 22 22 18 16 16 16 16
2050.0 17 15 18 14 10 11 17 20 25 26
2090.0 28 28 25 26 25 22 21 23 23 24
2130.0 28 27 28 26 27 29 26 25 26 26
2170.0 27 26 27 26 27 29 29 30 28 28
2210.0 27 25 24 25 26 29 29 27 30 24
2250.0 23 21 24 25 26 24 22 24 24 26
2290.0 25 28 25 28 28 34 33 32 29 32
2330.0 36 33 25 32 18 33 60 55 34 0
2370.0 9 1 2 12 15 21 24 26 24 25
2410.0 23 25 20 22 18 16 18 17 14 12
2450.0 15 14 14 17 17 14 11 18 22 22
2490.0 21 21 21 22 19 13 17 19 19 23
2530.0 19 25 20 14 10 9 3 0 1 3
2570.0 9 15 25 28 35 39 42 44 42 39
2610.0 36 37 37 35 39 36 44 51 52 56
2650.0 72 90 116 143 166 169 154 134 116 97
2690.0 82 78 68 68 69 62 62 57 58 51
2730.0 51 45 43 44 46 47 51 45 47 54
2770.0 62 70 80 94 108 127 146 160 172 176
2810.0 178 188 197 212 240 289 378 528 745 1055
2850.0 1501 2125 2907 3518 3700 3426 2810 2167 1647 1266
2890.0 1108 1136 1290 1544 1892 2259 2736 3372 4371 5942
2930.0 7831 9274 10000 9498 8103 6111 4298 2958 2118 1687
2970.0 1442 1149 857 559 352 253 204 169 151 140
3010.0 122 111 110 102 100 88 81 65 60 44
3050.0 45 49 46 40 36 37 37 39 39 28
3090.0 29 25 25 22 26 18 19 23 23 13
3130.0 17 10 14 18 23 36 41 55 57 54
3170.0 47 43 38 28 20 21 18 20 12 18
3210.0 15 17 30 34 42 59 49 51 68 61
3250.0 54 47 37 33 32 27 16 17 16 20
3290.0 17 23 9 7 19 4 14 11 7 7
3330.0 26 15 20 29 25 21 27 29 15 9
3370.0 25 25 16 28 18 20 34 32 34 45
3410.0 36 55 52 58 71 78 70 57 49 45
3450.0 35 29 32 23 21 26 25 19 23 17
3490.0 14 28 13 23 23 20 13 23 19 25
3530.0 13 26 21 31 14 18 7 22 27 23
3570.0 28 16 21 26 34 27 14 22 23 22
3610.0 26 20 27 31 14 30 31 21 28 51
3650.0 45 24 31 11 24 42 32 32 33 46
3690.0 34 42 23 25 27 31 27 37 44 33
3730.0 34 35 36 34 32 29 39 44 31 22
3770.0 21 40 25 26 26 30 35 27 30 32
3810.0 28 30 31 28 32 23 19 43 11 43
3850.0 43 31 15 32 24 16 35 26 45 39
3890.0 46 36 30 44 41 36 43 56 52 52
3930.0 47 21 41 41 28 42 38 17 7 60
##END=
