##TITLE=1,1-Dimethoxy-2-phenylpropane
##JCAMP-DX=4.24
##DATA TYPE=INFRARED SPECTRUM
##ORIGIN=Sadtler Research Labs Under US-EPA Contract
##OWNER=NIST Standard Reference Data Program
##CAS REGISTRY NO=90-87-9
##MOLFORM=C 11 H 16 O 2
##XUNITS=1/CM
##YUNITS=ABSORBANCE
##XFACTOR=1.0
##YFACTOR=0.000129688
##DELTAX=4.0
##FIRSTX=450.0
##LASTX=3966.0
##FIRSTY=0.057063
##MAXX=3966
##MINX=450
##MAXY=1.29688
##MINY=0
##NPOINTS=880
##XYDATA=(X++(Y..Y))
450.0 440 309 250 92 109 10 111 198 164 121
490.0 60 25 122 136 441 575 245 251 278 230
530.0 261 318 593 639 736 778 748 811 782 878
570.0 788 698 593 464 468 399 353 349 274 336
610.0 333 262 177 161 153 157 110 176 192 220
650.0 283 300 322 370 369 513 468 562 719 1259
690.0 2253 3227 3840 3535 2536 1561 954 602 450 399
730.0 393 378 447 471 627 958 1440 1659 1601 1252
770.0 800 510 357 270 255 240 193 161 123 100
810.0 117 154 129 108 116 114 110 147 161 192
850.0 128 92 215 200 232 227 293 385 408 510
890.0 612 585 669 751 762 738 748 725 766 882
930.0 1105 1399 1610 1833 1994 2016 2090 2195 2410 2617
970.0 2784 2688 2438 2050 1618 1296 1083 938 904 953
1010.0 1086 1354 1568 1724 1736 1682 1695 1842 2176 2612
1050.0 3199 3862 4624 5554 6550 7641 8568 8963 9649 9657
1090.0 10000 9790 8988 8890 8067 7522 6846 6166 5726 5474
1130.0 5572 5859 5991 5905 5329 4650 3943 3318 2758 2347
1170.0 2114 2075 2181 2408 2699 2950 3103 3088 2943 2711
1210.0 2435 2162 1924 1671 1403 1189 1019 898 814 762
1250.0 751 737 725 672 677 624 556 535 525 521
1290.0 568 571 585 582 570 582 591 589 566 574
1330.0 626 735 848 913 957 1033 1186 1427 1599 1618
1370.0 1598 1620 1782 1893 1819 1515 1101 759 557 422
1410.0 394 355 350 371 375 434 510 709 1018 1350
1450.0 1713 1924 1911 1797 1631 1399 1257 1048 963 1033
1490.0 1209 1432 1410 1206 864 475 373 291 282 291
1530.0 256 280 252 226 224 197 199 192 173 176
1570.0 174 214 249 294 357 437 562 626 684 687
1610.0 550 442 286 186 171 118 141 132 100 122
1650.0 126 129 145 161 154 155 150 131 124 137
1690.0 162 187 246 271 247 257 263 218 202 196
1730.0 199 255 272 275 273 281 250 226 187 188
1770.0 173 171 149 157 182 201 214 211 196 144
1810.0 116 89 75 61 51 35 44 44 59 62
1850.0 75 85 105 123 141 145 144 142 126 110
1890.0 83 62 53 42 41 33 47 56 74 100
1930.0 130 167 186 192 184 175 165 146 110 80
1970.0 60 55 56 59 68 74 74 76 78 79
2010.0 81 89 95 98 101 99 105 118 123 123
2050.0 121 127 128 128 121 117 116 111 102 99
2090.0 89 85 84 73 72 70 66 64 63 67
2130.0 69 56 60 61 64 62 68 70 68 62
2170.0 54 56 47 40 32 35 31 23 17 14
2210.0 13 12 9 11 6 1 4 2 7 2
2250.0 5 6 10 4 4 7 9 12 15 18
2290.0 20 25 26 32 39 46 43 39 33 19
2330.0 9 18 26 21 18 24 18 21 13 16
2370.0 15 17 20 27 26 20 12 13 13 15
2410.0 13 14 13 14 9 11 8 7 6 8
2450.0 5 4 5 7 9 8 7 9 8 10
2490.0 7 8 10 10 9 11 12 14 16 17
2530.0 21 22 27 30 33 38 41 45 46 47
2570.0 54 57 62 68 73 82 88 93 94 102
2610.0 106 104 108 114 118 124 133 136 141 149
2650.0 159 164 174 178 180 179 178 181 177 175
2690.0 171 166 158 154 147 150 145 146 148 154
2730.0 155 159 164 168 170 177 184 194 207 213
2770.0 235 256 279 311 353 412 482 554 631 720
2810.0 828 981 1231 1644 2258 3009 3718 4045 3832 3242
2850.0 2524 1976 1650 1473 1404 1425 1539 1780 2112 2473
2890.0 2767 2980 3089 3155 3270 3437 3709 4010 4296 4580
2930.0 4804 5038 5192 5177 5018 4721 4377 4083 3943 3929
2970.0 3920 3887 3803 3866 4187 4578 4635 4218 3466 2656
3010.0 2023 1681 1573 1699 1995 2365 2654 2663 2399 2020
3050.0 1668 1503 1528 1752 2167 2461 2449 2195 1787 1524
3090.0 1403 1266 1064 863 700 590 509 430 339 263
3130.0 205 169 148 134 123 117 115 114 107 105
3170.0 102 89 78 71 64 63 61 58 51 48
3210.0 49 43 37 30 28 23 25 22 19 24
3250.0 20 10 17 15 13 22 13 15 17 10
3290.0 11 11 15 9 7 2 10 5 7 12
3330.0 2 13 9 6 3 9 5 3 5 13
3370.0 6 5 9 8 11 11 12 10 18 13
3410.0 14 8 3 11 10 12 11 14 2 7
3450.0 18 14 11 15 11 10 11 3 12 21
3490.0 25 18 13 13 15 13 21 20 18 22
3530.0 15 15 19 15 13 11 12 15 18 12
3570.0 17 12 19 18 23 13 21 25 22 24
3610.0 19 20 10 29 16 28 20 28 30 42
3650.0 17 37 30 53 33 28 23 23 49 30
3690.0 28 16 39 22 33 28 35 16 37 40
3730.0 39 18 17 21 0 36 3 18 6 7
3770.0 19 14 17 18 31 21 10 13 14 10
3810.0 3 20 4 27 22 5 17 19 5 19
3850.0 16 23 11 1 31 11 10 19 17 5
3890.0 12 7 50 51 35 22 33 62 32 30
3930.0 22 42 39 23 62 31 35 45 32 37
##END=
