##TITLE=4,4'-Dichlorobenzophenone
##JCAMP-DX=4.24
##DATA TYPE=INFRARED SPECTRUM
##ORIGIN=Sadtler Research Labs Under US-EPA Contract
##OWNER=NIST Standard Reference Data Program
##CAS REGISTRY NO=90-98-2
##MOLFORM=C 13 H 8 Cl 2 O
##XUNITS=1/CM
##YUNITS=ABSORBANCE
##XFACTOR=1.0
##YFACTOR=0.000055707
##DELTAX=4.0
##FIRSTX=450.0
##LASTX=3966.0
##FIRSTY=0.032477
##MAXX=3966
##MINX=450
##MAXY=0.55707
##MINY=0
##NPOINTS=880
##XYDATA=(X++(Y..Y))
450.0 583 331 639 344 330 1 293 332 346 356
490.0 393 553 885 1489 2174 2346 1715 1059 778 749
530.0 740 541 345 171 181 124 131 116 164 41
570.0 38 65 9 77 90 59 61 62 63 69
610.0 37 91 133 167 190 185 187 138 129 118
650.0 156 233 337 514 577 658 630 477 318 195
690.0 97 108 66 75 63 119 205 224 138 119
730.0 109 99 166 354 843 1885 3342 4157 3191 1680
770.0 817 414 287 251 216 202 230 280 380 458
810.0 474 494 686 1033 1404 1630 1619 1711 2094 2589
850.0 2741 2003 1234 675 365 232 181 183 221 243
890.0 233 239 252 328 455 781 1359 3122 7163 10000
930.0 7249 3306 1753 1315 1073 1134 1207 1107 1034 997
970.0 673 320 195 162 165 127 141 117 203 334
1010.0 1273 3262 4278 2093 416 235 116 118 141 109
1050.0 147 179 267 343 554 848 1329 2247 4019 6310
1090.0 8367 9176 8228 5264 2637 1295 774 622 548 425
1130.0 333 274 278 272 284 270 262 294 440 778
1170.0 1408 1918 1421 548 142 130 129 176 214 299
1210.0 398 532 737 1033 1424 1650 1554 1339 1363 1799
1250.0 2724 4118 5799 6628 6639 6410 7415 8763 8735 6450
1290.0 3685 2271 2253 3400 3782 2614 1506 993 718 546
1330.0 500 427 357 352 410 508 579 579 511 464
1370.0 416 436 453 589 727 1102 1675 2372 2240 1361
1410.0 681 508 344 366 327 355 270 283 304 283
1450.0 329 328 474 541 638 771 1023 1332 1676 2241
1490.0 2254 1952 950 406 194 186 139 150 132 179
1530.0 153 147 233 179 384 422 703 606 1123 1226
1570.0 1586 1854 2593 3821 5164 8080 8531 7195 3872 2259
1610.0 1352 833 546 438 377 358 429 425 536 549
1650.0 625 611 810 948 1231 2083 4037 6948 8607 9299
1690.0 5990 4098 1939 1321 518 673 421 598 538 533
1730.0 355 194 236 117 135 66 171 84 188 164
1770.0 171 179 214 282 254 323 243 211 111 165
1810.0 122 99 81 46 66 7 83 31 67 43
1850.0 85 72 72 69 42 56 32 73 49 79
1890.0 77 104 118 148 190 208 259 261 243 187
1930.0 144 92 58 45 29 36 15 33 8 13
1970.0 9 23 13 13 21 5 12 9 24 6
2010.0 25 18 20 25 25 45 42 51 27 29
2050.0 12 24 23 21 23 26 31 9 21 11
2090.0 18 9 12 14 7 19 10 15 6 12
2130.0 4 17 15 21 13 13 19 11 14 8
2170.0 12 5 15 10 8 13 10 25 11 22
2210.0 11 26 20 17 13 11 20 10 17 10
2250.0 15 13 20 18 18 26 37 53 53 64
2290.0 43 41 33 35 25 15 28 21 25 6
2330.0 7 2 7 5 45 5 6 26 0 27
2370.0 29 56 50 42 40 37 50 59 72 70
2410.0 78 63 62 50 46 42 34 36 18 24
2450.0 19 23 10 19 21 19 17 21 24 15
2490.0 24 22 28 32 41 54 56 67 65 78
2530.0 74 97 102 103 112 109 105 91 98 87
2570.0 93 86 83 72 63 60 58 57 54 61
2610.0 52 50 33 35 37 40 36 36 39 34
2650.0 32 23 31 28 30 29 23 22 23 24
2690.0 23 33 18 21 19 17 12 22 32 29
2730.0 39 42 51 46 39 33 22 28 23 29
2770.0 23 23 15 12 14 14 6 5 14 8
2810.0 15 11 23 14 28 23 14 24 24 35
2850.0 34 44 50 46 46 64 51 39 37 26
2890.0 33 25 29 20 27 27 29 21 28 23
2930.0 29 34 21 34 32 28 25 18 20 25
2970.0 30 32 40 30 34 43 43 45 41 53
3010.0 46 53 69 92 91 125 165 218 228 215
3050.0 198 188 206 242 233 205 228 282 331 422
3090.0 533 570 475 348 234 140 91 88 68 67
3130.0 67 60 65 50 47 39 24 27 23 15
3170.0 23 23 9 23 21 19 15 31 18 25
3210.0 32 30 32 34 44 35 34 29 35 39
3250.0 38 44 37 47 38 50 43 47 56 53
3290.0 56 55 66 45 64 58 60 66 75 74
3330.0 75 100 122 146 167 170 138 101 91 82
3370.0 85 43 75 60 72 84 86 71 62 70
3410.0 61 58 61 59 43 63 51 46 39 47
3450.0 72 54 51 59 59 49 52 52 34 59
3490.0 63 49 46 45 34 42 38 63 32 35
3530.0 52 37 35 30 35 23 41 49 27 3
3570.0 38 42 33 52 42 29 26 68 55 37
3610.0 19 45 26 65 46 41 100 54 81 23
3650.0 32 98 69 127 36 82 40 85 105 51
3690.0 112 97 83 84 68 61 120 103 74 85
3730.0 87 64 85 36 165 52 105 96 47 101
3770.0 84 73 60 114 106 74 81 83 57 125
3810.0 57 89 73 96 114 84 72 119 117 98
3850.0 72 92 93 87 82 89 71 111 57 123
3890.0 31 152 52 106 63 135 98 78 15 84
3930.0 99 51 98 45 109 75 134 85 105 68
##END=
