##TITLE=Benzene, 1,1'-(chloromethylene)bis-
##JCAMP-DX=4.24
##DATA TYPE=INFRARED SPECTRUM
##ORIGIN=Sadtler Research Labs Under US-EPA Contract
##OWNER=NIST Standard Reference Data Program
##CAS REGISTRY NO=90-99-3
##MOLFORM=C 13 H 11 Cl
##XUNITS=1/CM
##YUNITS=ABSORBANCE
##XFACTOR=1.0
##YFACTOR=0.000041293
##DELTAX=4.0
##FIRSTX=450.0
##LASTX=3966.0
##FIRSTY=0.131272
##MAXX=3966
##MINX=450
##MAXY=0.41293
##MINY=0
##NPOINTS=880
##XYDATA=(X++(Y..Y))
450.0 3179 1134 144 1038 922 931 100 839 832 1010
490.0 1601 1611 876 318 970 878 262 870 772 1289
530.0 356 96 393 204 649 1001 304 658 648 1198
570.0 1123 1671 2603 2873 2996 2120 1172 835 855 906
610.0 1149 1602 1934 2127 2556 2607 2467 1866 1173 946
650.0 749 768 1030 1225 1437 1988 2149 2492 3180 4494
690.0 6292 8349 10000 9720 8990 8249 7043 6012 4924 4507
730.0 3836 4084 4504 4472 5164 5047 3809 3273 2398 1803
770.0 1772 1664 1382 1493 1159 850 706 651 334 363
810.0 625 977 1339 1647 1758 1818 1787 1181 1172 1237
850.0 1132 896 585 416 281 226 205 230 327 238
890.0 217 187 188 383 297 365 369 319 329 116
930.0 309 422 261 171 300 167 230 132 201 280
970.0 326 309 226 223 254 302 360 481 487 485
1010.0 519 367 443 626 1063 1355 1314 1081 423 259
1050.0 236 281 401 344 493 682 750 752 726 488
1090.0 392 278 215 294 50 294 207 200 103 249
1130.0 95 64 52 60 245 145 320 353 471 545
1170.0 641 699 888 1005 1037 911 787 598 704 1075
1210.0 1503 1745 1847 1621 1283 899 738 627 500 513
1250.0 631 838 929 904 752 657 562 546 524 411
1290.0 473 413 390 474 496 590 564 521 542 542
1330.0 535 528 529 426 317 295 233 222 166 208
1370.0 254 290 258 249 197 215 156 180 190 210
1410.0 253 248 275 338 405 536 707 997 1399 1741
1450.0 2137 2146 1823 1343 996 717 743 785 970 1379
1490.0 1997 2656 2834 2341 1488 628 460 314 282 270
1530.0 273 258 204 213 218 217 211 195 209 242
1570.0 245 319 397 578 648 808 964 1109 1153 957
1610.0 697 450 352 257 231 183 194 164 160 178
1650.0 184 197 192 223 203 225 247 277 293 268
1690.0 218 195 157 103 155 122 141 142 159 187
1730.0 188 256 226 298 321 339 296 287 239 209
1770.0 217 220 235 268 323 448 554 619 546 421
1810.0 310 231 197 174 162 141 125 105 108 97
1850.0 107 146 143 170 216 269 314 333 348 375
1890.0 400 402 345 244 175 147 131 124 174 194
1930.0 258 326 390 453 452 464 449 443 385 298
1970.0 178 108 78 77 71 68 62 55 50 57
2010.0 43 54 55 55 44 40 29 35 35 26
2050.0 23 31 18 23 22 21 30 32 34 26
2090.0 32 33 26 43 43 24 20 20 16 9
2130.0 14 13 11 8 19 21 15 23 32 35
2170.0 35 53 37 37 31 35 32 21 29 24
2210.0 25 29 29 25 19 34 25 22 27 28
2250.0 41 50 44 48 36 49 36 35 32 30
2290.0 27 14 8 5 2 18 30 44 27 3
2330.0 15 34 40 74 51 62 32 30 0 9
2370.0 23 40 29 34 35 43 44 46 40 36
2410.0 51 43 48 58 62 50 55 53 61 59
2450.0 50 45 49 55 55 45 48 53 47 49
2490.0 45 48 50 53 55 58 58 60 66 63
2530.0 75 66 60 58 56 54 52 54 48 48
2570.0 54 58 62 70 54 66 77 99 91 98
2610.0 90 78 71 60 68 68 76 60 56 45
2650.0 49 60 53 43 62 59 62 68 74 52
2690.0 61 58 59 70 62 46 44 40 34 52
2730.0 44 40 33 45 42 82 75 72 69 86
2770.0 81 120 147 103 103 97 99 104 94 71
2810.0 75 55 77 90 82 68 83 71 116 123
2850.0 108 113 132 148 160 143 152 146 155 160
2890.0 152 153 160 163 184 181 179 196 210 227
2930.0 237 252 293 379 458 560 602 577 456 357
2970.0 279 221 203 221 204 201 225 284 332 420
3010.0 553 736 1010 1397 2026 2807 3428 3678 3419 2928
3050.0 2517 2342 2487 2981 3989 5208 5738 5251 4095 3031
3090.0 2561 2368 2113 1793 1496 1211 1001 706 515 366
3130.0 263 186 153 126 123 130 110 120 131 140
3170.0 159 135 118 99 72 94 71 78 86 73
3210.0 71 73 82 58 57 31 69 44 42 57
3250.0 41 30 40 45 50 50 73 70 87 72
3290.0 75 55 67 69 59 61 61 58 35 41
3330.0 22 32 53 54 52 29 48 75 49 61
3370.0 84 77 76 60 66 53 45 40 27 40
3410.0 18 14 44 35 42 44 53 51 56 54
3450.0 60 60 74 83 74 67 47 55 66 57
3490.0 23 43 34 36 42 34 29 40 76 50
3530.0 90 87 77 35 90 81 45 69 55 95
3570.0 76 55 43 44 67 27 43 54 58 87
3610.0 72 77 57 72 102 100 117 104 118 128
3650.0 119 170 93 113 74 85 30 122 82 55
3690.0 129 69 100 130 139 147 85 101 105 121
3730.0 124 105 85 99 73 116 55 86 66 1
3770.0 11 43 78 87 53 37 58 118 86 117
3810.0 78 134 19 107 92 138 69 53 24 90
3850.0 75 53 69 8 85 111 103 99 105 122
3890.0 148 115 120 191 191 175 143 106 125 128
3930.0 26 91 58 54 37 100 85 63 117 117
##END=
