##TITLE=Naphthalene, decahydro-
##JCAMP-DX=4.24
##DATA TYPE=INFRARED SPECTRUM
##ORIGIN=Sadtler Research Labs Under US-EPA Contract
##OWNER=NIST Standard Reference Data Program
##CAS REGISTRY NO=91-17-8
##MOLFORM=C 10 H 18
##XUNITS=1/CM
##YUNITS=ABSORBANCE
##XFACTOR=1.0
##YFACTOR=0.000124847
##DELTAX=4.0
##FIRSTX=450.0
##LASTX=3966.0
##FIRSTY=0.027716
##MAXX=3966
##MINX=450
##MAXY=1.24847
##MINY=0
##NPOINTS=880
##XYDATA=(X++(Y..Y))
450.0 222 193 117 174 139 148 140 161 128 174
490.0 147 222 150 150 133 95 138 181 129 130
530.0 135 173 149 187 156 154 144 151 162 156
570.0 240 151 0 155 98 166 176 182 173 162
610.0 165 149 151 148 177 152 142 137 150 142
650.0 153 152 153 152 147 179 135 147 132 142
690.0 148 134 139 128 146 139 138 135 153 141
730.0 138 136 140 142 133 143 136 134 114 85
770.0 126 166 122 143 132 149 143 142 150 132
810.0 118 96 113 176 167 191 210 210 203 211
850.0 201 186 197 182 156 120 133 125 129 118
890.0 120 123 122 114 125 126 130 147 151 155
930.0 149 150 139 130 123 129 131 146 170 193
970.0 205 207 208 188 164 148 138 123 123 126
1010.0 125 121 124 128 127 124 126 122 117 114
1050.0 117 117 121 121 123 119 121 114 114 116
1090.0 115 110 113 108 108 110 112 114 113 119
1130.0 124 129 137 132 127 125 123 123 125 123
1170.0 117 116 114 111 107 101 102 102 106 105
1210.0 108 118 125 135 133 133 131 120 123 130
1250.0 141 141 147 154 137 129 116 110 109 114
1290.0 124 135 139 145 154 152 138 130 126 122
1330.0 129 142 152 151 159 160 138 126 119 114
1370.0 125 130 129 136 116 111 101 103 99 99
1410.0 103 101 102 108 117 141 213 314 457 584
1450.0 734 858 787 684 579 469 338 209 163 117
1490.0 102 87 88 83 76 74 74 72 68 73
1530.0 70 72 66 68 63 69 65 69 66 66
1570.0 68 68 67 68 68 70 66 66 67 65
1610.0 64 63 57 60 55 58 56 57 58 60
1650.0 53 57 54 58 56 53 54 57 50 53
1690.0 54 50 56 52 52 54 54 49 53 54
1730.0 51 50 55 52 54 53 58 52 49 48
1770.0 46 47 48 45 44 45 45 48 45 46
1810.0 44 45 46 47 42 39 41 42 42 40
1850.0 41 40 40 42 41 41 41 41 41 39
1890.0 41 40 41 39 39 44 43 37 37 39
1930.0 41 40 37 37 35 37 33 34 33 38
1970.0 33 35 34 36 36 32 31 33 32 34
2010.0 29 28 31 34 33 33 33 33 27 30
2050.0 29 31 32 30 31 30 30 26 25 29
2090.0 28 32 28 29 28 25 25 24 27 23
2130.0 23 24 24 26 26 25 24 26 27 27
2170.0 27 29 30 32 32 31 32 30 28 29
2210.0 29 29 26 28 26 24 23 21 20 22
2250.0 19 20 20 19 20 17 19 23 17 19
2290.0 17 16 16 16 12 16 22 15 12 18
2330.0 12 14 17 18 13 18 12 12 12 12
2370.0 13 21 24 24 26 28 29 23 23 24
2410.0 22 25 26 26 29 28 25 27 23 23
2450.0 23 23 24 27 25 25 29 30 29 32
2490.0 32 34 32 33 33 29 30 30 29 30
2530.0 29 34 34 32 29 34 35 41 38 44
2570.0 45 45 50 46 51 53 56 61 63 65
2610.0 67 65 65 64 66 69 68 81 81 85
2650.0 99 119 135 146 156 162 154 139 126 115
2690.0 105 95 90 79 80 80 76 75 72 73
2730.0 72 76 74 72 68 68 66 68 68 68
2770.0 72 80 92 107 120 133 146 144 144 143
2810.0 145 152 159 171 178 213 281 432 700 1188
2850.0 1877 2746 3749 4090 4019 3623 3006 2229 1580 1247
2890.0 1096 1148 1389 1821 2437 3239 4185 5507 7108 8430
2930.0 10000 9684 8994 7259 5315 3654 2027 1020 532 301
2970.0 180 123 93 76 72 69 67 71 68 61
3010.0 62 57 63 64 52 50 57 67 58 53
3050.0 68 70 73 80 73 76 66 66 59 54
3090.0 44 44 38 42 44 33 41 39 44 43
3130.0 38 35 48 50 46 34 41 41 42 41
3170.0 32 39 35 38 40 46 50 42 54 48
3210.0 47 51 48 43 35 44 39 41 36 40
3250.0 41 49 45 46 49 49 41 45 43 36
3290.0 22 36 27 34 30 30 29 29 35 43
3330.0 24 28 25 33 17 25 18 23 21 20
3370.0 38 26 37 24 34 31 42 35 36 33
3410.0 27 31 41 43 33 41 28 33 48 33
3450.0 41 37 44 37 45 20 51 40 12 27
3490.0 49 51 37 49 47 58 43 29 28 38
3530.0 29 24 45 40 26 55 38 27 36 33
3570.0 49 37 54 47 46 55 52 49 58 48
3610.0 45 54 47 55 42 46 58 59 43 52
3650.0 46 49 47 53 65 43 58 46 63 63
3690.0 55 36 57 40 47 54 37 59 58 45
3730.0 62 68 65 73 62 65 61 66 57 50
3770.0 69 68 70 58 33 51 48 54 46 42
3810.0 85 61 61 48 49 28 69 72 44 66
3850.0 55 62 56 38 33 58 18 51 81 45
3890.0 74 77 86 65 68 11 64 91 41 70
3930.0 12 28 84 41 70 39 43 148 122 39
##END=
