##TITLE=Phenol, 2,6-dimethoxy-
##JCAMP-DX=4.24
##DATA TYPE=INFRARED SPECTRUM
##ORIGIN=Sadtler Research Labs Under US-EPA Contract
##OWNER=NIST Standard Reference Data Program
##CAS REGISTRY NO=91-10-1
##MOLFORM=C 8 H 10 O 3
##XUNITS=1/CM
##YUNITS=ABSORBANCE
##XFACTOR=1.0
##YFACTOR=0.000124579
##DELTAX=4.0
##FIRSTX=450.0
##LASTX=3966.0
##FIRSTY=0.082720
##MAXX=3966
##MINX=450
##MAXY=1.24579
##MINY=0
##NPOINTS=880
##XYDATA=(X++(Y..Y))
450.0 664 557 575 635 659 547 526 427 386 240
490.0 149 176 72 80 78 103 94 94 122 99
530.0 86 105 69 43 46 2 91 67 86 137
570.0 137 193 184 264 250 293 277 257 209 157
610.0 191 173 208 182 168 166 167 147 153 124
650.0 132 127 169 166 68 371 264 293 405 535
690.0 655 814 940 1189 1449 1807 2295 2459 2069 1664
730.0 1260 862 579 436 398 389 422 527 659 776
770.0 886 983 1008 918 754 584 455 364 300 290
810.0 324 381 479 546 564 546 514 437 380 340
850.0 302 289 290 294 294 315 331 361 405 476
890.0 599 722 863 970 1016 970 854 697 535 410
930.0 342 299 280 257 241 226 219 219 223 222
970.0 241 251 279 306 343 382 434 484 549 620
1010.0 712 799 910 998 1069 1088 1078 1078 1105 1192
1050.0 1379 1652 2039 2492 2980 3462 3987 4561 5117 5841
1090.0 6632 7323 7794 7711 7179 6209 5041 3859 2868 2039
1130.0 1403 1032 851 774 763 820 931 1059 1175 1263
1170.0 1297 1313 1363 1438 1565 1761 2110 2663 3556 4873
1210.0 6526 8321 9654 10000 9271 7874 6918 6590 6492 6316
1250.0 5747 4673 3596 3067 3108 3504 4190 5087 5850 6320
1290.0 6195 5604 4580 3457 2559 1909 1494 1263 1121 1048
1330.0 1042 1100 1284 1579 2010 2508 2883 2985 2756 2271
1370.0 1681 1132 818 651 536 509 441 426 401 375
1410.0 410 377 456 467 567 787 1057 1516 1939 2150
1450.0 2333 2477 2632 3002 3689 5051 6314 7070 6980 6396
1490.0 5532 4816 4797 4577 4357 3792 2834 2012 1302 895
1530.0 670 554 532 470 525 553 568 621 620 706
1570.0 759 817 897 981 1127 1276 1517 1775 2204 2588
1610.0 2888 3149 2922 2741 2183 1689 1274 823 638 452
1650.0 315 288 198 219 166 134 150 108 132 98
1690.0 117 124 104 96 115 126 139 125 120 125
1730.0 106 115 81 71 98 80 76 82 90 106
1770.0 99 88 93 98 114 110 129 110 132 100
1810.0 84 84 61 67 44 38 37 34 47 34
1850.0 55 59 70 91 93 106 103 110 97 95
1890.0 76 76 73 78 85 95 106 117 125 132
1930.0 129 128 122 108 96 78 70 64 54 54
1970.0 54 50 52 44 47 46 42 37 34 35
2010.0 30 30 33 35 41 46 52 60 63 68
2050.0 66 68 66 56 61 58 55 56 57 58
2090.0 62 63 65 68 74 80 85 88 91 95
2130.0 98 95 96 97 96 93 91 92 93 98
2170.0 102 103 108 112 114 106 101 91 78 69
2210.0 50 40 34 19 18 14 8 11 5 8
2250.0 8 5 6 7 9 12 14 9 5 6
2290.0 8 2 6 11 12 13 20 36 34 39
2330.0 54 48 47 5 10 2 42 37 50 10
2370.0 2 2 2 2 6 18 28 33 37 41
2410.0 46 52 48 45 43 39 40 36 36 34
2450.0 32 33 36 39 46 53 60 70 79 84
2490.0 92 96 100 100 102 103 97 89 87 85
2530.0 78 75 70 68 60 56 53 47 42 42
2570.0 41 40 42 39 41 40 43 47 48 49
2610.0 49 45 45 44 45 42 42 43 42 45
2650.0 43 39 38 34 32 29 29 35 40 39
2690.0 47 53 57 59 62 62 62 65 62 63
2730.0 59 57 55 55 52 55 59 59 57 63
2770.0 68 71 83 88 99 115 131 153 176 207
2810.0 244 281 322 378 452 583 808 1146 1507 1732
2850.0 1751 1571 1231 913 702 594 543 532 538 572
2890.0 618 688 781 895 1023 1148 1253 1317 1338 1345
2930.0 1399 1563 1851 2245 2582 2739 2703 2503 2187 1905
2970.0 1687 1505 1359 1265 1210 1221 1319 1506 1738 1861
3010.0 1790 1599 1289 948 700 580 519 499 502 507
3050.0 527 545 586 629 669 713 736 746 746 702
3090.0 637 559 468 386 312 260 218 182 154 134
3130.0 121 105 99 93 85 79 70 70 69 65
3170.0 65 63 64 61 57 62 54 54 53 47
3210.0 53 47 44 49 41 45 44 40 44 40
3250.0 43 42 43 46 45 47 46 43 47 44
3290.0 41 36 38 39 34 28 32 39 35 37
3330.0 30 26 29 26 27 23 28 28 34 26
3370.0 31 31 27 22 20 27 20 16 19 19
3410.0 26 21 21 25 22 24 25 25 29 23
3450.0 29 19 23 24 22 36 36 37 44 33
3490.0 40 27 35 38 37 47 40 46 63 73
3530.0 86 91 104 152 202 288 426 700 1140 1735
3570.0 2446 3115 3639 3674 3430 2783 2027 1418 831 523
3610.0 321 208 157 119 106 63 67 70 65 61
3650.0 64 15 65 19 72 30 16 21 28 59
3690.0 8 41 29 40 48 23 16 29 22 48
3730.0 27 21 24 25 25 18 36 2 42 8
3770.0 23 12 8 24 18 26 34 2 16 1
3810.0 48 2 34 0 22 16 1 2 16 38
3850.0 29 69 46 55 23 23 36 12 35 26
3890.0 30 26 2 34 8 4 2 10 10 26
3930.0 9 9 1 2 2 4 2 3 2 2
##END=
