##TITLE=Benzene, 1,2-dimethoxy-
##JCAMP-DX=4.24
##DATA TYPE=INFRARED SPECTRUM
##ORIGIN=Sadtler Research Labs Under US-EPA Contract
##OWNER=NIST Standard Reference Data Program
##CAS REGISTRY NO=91-16-7
##MOLFORM=C 8 H 10 O 2
##XUNITS=1/CM
##YUNITS=ABSORBANCE
##XFACTOR=1.0
##YFACTOR=0.000167480
##DELTAX=4.0
##FIRSTX=450.0
##LASTX=3966.0
##FIRSTY=0.014068
##MAXX=3966
##MINX=450
##MAXY=1.6748
##MINY=0
##NPOINTS=880
##XYDATA=(X++(Y..Y))
450.0 84 60 33 90 31 78 36 88 0 13
490.0 35 57 64 51 57 39 55 30 32 14
530.0 33 50 7 31 26 66 44 90 91 126
570.0 155 194 208 227 302 237 202 171 140 96
610.0 71 37 27 14 10 30 24 29 35 19
650.0 15 31 26 24 35 8 41 24 55 49
690.0 48 53 76 80 105 136 200 351 616 1086
730.0 1648 2557 3460 4214 4257 4123 3346 2456 1675 1072
770.0 639 379 245 192 172 140 126 135 159 222
810.0 294 392 459 490 477 399 311 216 178 135
850.0 111 94 83 79 68 72 70 67 58 71
890.0 71 81 95 112 121 132 153 168 185 162
930.0 148 127 113 103 95 101 109 130 143 164
970.0 185 216 254 296 353 433 553 715 955 1283
1010.0 1713 2175 2644 3129 3516 3846 4157 4366 4331 4008
1050.0 3255 2400 1636 1061 686 487 400 364 380 418
1090.0 504 644 872 1216 1685 2161 2489 2618 2546 2145
1130.0 1619 1158 778 531 488 531 633 755 954 1269
1170.0 1627 1897 2022 1994 1789 1453 1175 1103 1223 1495
1210.0 1907 2464 3108 3767 4334 4813 5178 5461 5780 6440
1250.0 7539 8671 9702 10000 9757 8638 7159 5659 4550 3761
1290.0 3149 2674 2252 1910 1624 1353 1143 999 900 815
1330.0 733 640 542 441 343 277 233 213 194 181
1370.0 174 173 176 182 206 222 244 262 286 313
1410.0 343 374 424 509 667 920 1217 1480 1646 1689
1450.0 1821 1965 2203 2658 2893 2731 2478 2237 2161 2498
1490.0 3693 5723 7928 9393 9503 8316 6300 3870 2292 1516
1530.0 1119 813 605 472 387 347 345 364 392 445
1570.0 549 706 936 1187 1473 1756 1974 2054 1887 1610
1610.0 1252 859 535 351 266 218 196 172 154 144
1650.0 133 129 113 103 102 96 93 92 92 98
1690.0 86 85 87 83 79 78 90 98 95 92
1730.0 99 99 92 87 86 98 103 105 108 108
1770.0 106 101 89 90 86 85 84 81 83 74
1810.0 67 64 58 61 63 66 72 80 90 100
1850.0 101 103 102 101 108 118 122 122 119 110
1890.0 106 96 90 94 99 104 105 105 99 88
1930.0 72 57 48 40 37 29 24 30 32 37
1970.0 44 51 64 78 92 111 125 140 147 154
2010.0 159 164 174 179 187 193 198 199 195 190
2050.0 180 171 166 160 150 146 145 147 146 146
2090.0 138 129 110 88 68 50 35 32 26 21
2130.0 20 21 18 18 19 18 20 20 17 19
2170.0 19 16 19 18 18 18 21 20 22 22
2210.0 26 27 32 38 38 43 45 46 50 53
2250.0 56 60 63 58 58 56 56 53 54 54
2290.0 49 43 44 42 47 53 61 63 62 57
2330.0 46 35 29 25 7 14 37 33 27 4
2370.0 2 2 2 2 2 9 18 26 34 41
2410.0 49 52 49 44 40 34 26 24 27 26
2450.0 26 29 27 30 33 35 36 39 43 48
2490.0 52 53 55 56 58 62 71 72 75 80
2530.0 82 86 84 86 82 87 92 96 101 100
2570.0 100 100 97 92 86 76 69 65 56 53
2610.0 48 46 41 44 34 33 39 24 19 21
2650.0 16 19 17 15 14 12 8 6 8 7
2690.0 5 6 2 2 4 4 8 11 17 21
2730.0 28 34 37 37 42 45 48 53 52 56
2770.0 55 58 60 73 80 88 104 123 148 179
2810.0 218 270 350 474 692 1048 1539 2013 2201 2163
2850.0 1942 1505 1030 739 615 584 613 675 775 872
2890.0 973 1031 1113 1206 1317 1485 1644 1790 1836 1894
2930.0 2005 2222 2565 2855 3059 3097 3011 2880 2559 2133
2970.0 1892 1656 1480 1361 1334 1432 1653 1974 2255 2320
3010.0 2138 1864 1470 1077 874 819 817 816 831 841
3050.0 881 941 1033 1146 1262 1327 1338 1322 1220 1045
3090.0 858 664 488 383 316 284 266 238 213 180
3130.0 154 132 105 88 84 74 60 56 56 55
3170.0 47 47 49 47 48 45 43 46 40 38
3210.0 37 35 38 36 33 34 29 37 42 34
3250.0 35 34 24 27 19 17 16 16 8 16
3290.0 21 23 25 26 28 20 22 16 12 13
3330.0 12 14 11 11 16 17 15 14 25 20
3370.0 22 20 20 22 16 18 15 16 6 4
3410.0 12 13 11 10 14 12 12 12 11 5
3450.0 18 21 9 26 28 16 22 22 14 21
3490.0 25 21 20 15 17 20 21 27 36 30
3530.0 30 27 35 36 30 34 32 33 36 39
3570.0 40 43 37 46 49 52 46 48 53 53
3610.0 55 43 38 50 58 52 42 45 46 50
3650.0 47 50 40 41 52 48 61 50 45 57
3690.0 55 48 59 41 47 45 33 39 50 55
3730.0 54 54 37 49 61 55 50 49 49 45
3770.0 35 59 48 58 58 80 53 58 72 59
3810.0 58 75 61 43 56 52 66 75 71 51
3850.0 59 63 59 73 66 67 79 68 62 81
3890.0 87 75 67 78 67 72 57 57 79 54
3930.0 53 52 60 69 45 58 75 67 46 72
##END=
