##TITLE=Isoquinoline, 1,2,3,4-tetrahydro-
##JCAMP-DX=4.24
##DATA TYPE=INFRARED SPECTRUM
##ORIGIN=Sadtler Research Labs Under US-EPA Contract
##OWNER=NIST Standard Reference Data Program
##CAS REGISTRY NO=91-21-4
##MOLFORM=C 9 H 11 N
##XUNITS=1/CM
##YUNITS=ABSORBANCE
##XFACTOR=1.0
##YFACTOR=0.000042535
##DELTAX=4.0
##FIRSTX=450.0
##LASTX=3966.0
##FIRSTY=0.006636
##MAXX=3966
##MINX=450
##MAXY=0.42535
##MINY=0
##NPOINTS=880
##XYDATA=(X++(Y..Y))
450.0 156 374 407 706 506 827 480 145 100 403
490.0 216 493 632 274 212 40 260 222 107 99
530.0 529 232 388 325 343 462 489 553 628 529
570.0 693 637 891 962 1130 1341 1257 1265 1455 1164
610.0 834 662 743 792 703 876 736 774 794 602
650.0 567 639 409 448 335 510 502 800 739 926
690.0 1147 1322 1463 1342 1474 1456 1614 2111 2965 4221
730.0 5147 6148 8798 10000 7882 6918 6898 5317 4442 3805
770.0 2926 2336 1963 1901 1538 1354 1142 903 806 684
810.0 737 1058 1129 1229 1086 889 816 703 852 648
850.0 681 713 645 548 427 578 540 548 503 474
890.0 479 343 361 281 363 421 360 404 356 496
930.0 528 695 836 1138 914 864 751 713 745 559
970.0 478 526 573 651 735 636 756 764 651 608
1010.0 449 451 343 381 371 558 732 798 733 824
1050.0 609 537 434 470 489 411 470 385 396 415
1090.0 345 431 405 474 546 808 1084 1386 1677 1867
1130.0 1864 1731 1471 1062 666 456 375 332 379 474
1170.0 388 405 387 442 564 695 709 709 723 653
1210.0 609 626 656 620 597 469 427 405 339 433
1250.0 486 662 715 817 791 764 591 502 487 528
1290.0 447 486 505 647 803 1033 1249 1305 1327 1255
1330.0 1057 869 683 612 580 695 818 995 957 993
1370.0 899 757 608 614 642 582 568 503 385 353
1410.0 308 337 466 650 848 1121 1352 1534 1719 1871
1450.0 2035 1984 1822 1819 1528 1326 1100 1004 1023 1328
1490.0 1761 1970 2033 1838 1505 864 496 414 354 341
1530.0 312 289 330 328 332 321 338 390 392 393
1570.0 457 617 717 796 838 791 764 671 652 637
1610.0 620 674 700 763 799 808 784 754 648 524
1650.0 484 466 435 380 385 383 416 315 313 250
1690.0 214 183 221 234 209 221 214 220 152 76
1730.0 55 21 49 0 17 38 40 58 67 71
1770.0 82 99 90 101 107 105 140 141 131 141
1810.0 143 152 166 155 170 193 154 163 168 194
1850.0 158 160 147 149 162 160 158 157 169 196
1890.0 227 262 256 252 239 222 188 176 164 183
1930.0 200 238 264 269 262 226 165 128 97 113
1970.0 87 98 88 84 89 89 100 87 87 91
2010.0 89 91 93 84 92 87 79 80 87 82
2050.0 74 81 77 72 81 76 79 76 76 72
2090.0 60 63 64 60 69 61 56 55 60 61
2130.0 53 58 60 54 61 49 47 62 56 60
2170.0 56 54 53 56 60 65 61 57 55 59
2210.0 55 49 55 50 52 54 56 56 55 59
2250.0 67 61 61 65 67 66 66 72 70 78
2290.0 88 97 129 120 139 172 138 143 129 116
2330.0 88 89 104 19 141 67 133 76 80 82
2370.0 36 69 74 74 66 53 39 48 46 52
2410.0 42 47 55 54 43 43 47 64 53 57
2450.0 47 48 43 35 32 26 23 20 33 39
2490.0 32 33 36 41 47 56 49 55 48 56
2530.0 57 51 51 46 55 59 57 63 63 85
2570.0 81 76 85 85 91 98 96 104 92 118
2610.0 127 136 165 179 184 211 220 229 215 205
2650.0 208 193 191 180 187 215 231 269 316 340
2690.0 364 403 423 438 441 462 477 493 538 582
2730.0 649 719 823 931 986 1010 969 945 976 1029
2770.0 1116 1194 1356 1485 1604 1756 1854 2025 2260 2453
2810.0 2924 3016 2723 2301 2035 1785 1751 1877 2068 2254
2850.0 2468 2504 2419 2333 2219 2139 2163 2175 2213 2311
2890.0 2430 2634 2803 3005 3205 3545 4005 4421 4854 5344
2930.0 5946 6347 6203 5631 5910 5967 5904 5524 4917 3805
2970.0 2761 1624 955 684 571 536 550 626 801 1027
3010.0 1319 1734 2223 2541 2601 2627 2518 2141 1793 1647
3050.0 1664 1881 2136 2336 2381 2406 2456 2445 2191 1842
3090.0 1487 1089 750 502 405 349 311 255 205 175
3130.0 142 115 101 109 96 99 106 103 115 116
3170.0 112 106 94 94 91 86 72 77 79 89
3210.0 74 70 87 88 64 74 74 89 98 81
3250.0 80 88 92 78 87 85 92 93 78 70
3290.0 69 71 71 88 72 72 65 65 86 87
3330.0 93 90 101 124 91 113 87 95 80 80
3370.0 83 78 105 97 65 54 74 74 61 68
3410.0 54 64 60 63 67 66 62 87 88 54
3450.0 57 87 87 55 37 49 60 43 50 63
3490.0 69 38 72 58 59 52 64 63 52 66
3530.0 72 55 64 74 47 55 67 46 66 36
3570.0 58 57 53 47 60 89 77 64 77 78
3610.0 71 66 68 75 62 93 64 71 57 87
3650.0 47 55 87 63 93 35 133 65 83 37
3690.0 65 58 82 95 56 66 83 58 96 36
3730.0 68 100 63 130 51 94 28 107 55 58
3770.0 74 58 79 91 56 90 65 117 114 107
3810.0 104 101 110 42 76 126 77 84 63 93
3850.0 63 148 26 126 68 116 115 92 114 108
3890.0 141 85 100 137 139 55 14 114 91 107
3930.0 107 134 120 92 55 57 144 55 93 67
##END=
