##TITLE=Quinoline
##JCAMP-DX=4.24
##DATA TYPE=INFRARED SPECTRUM
##ORIGIN=Sadtler Research Labs Under US-EPA Contract
##OWNER=NIST Standard Reference Data Program
##CAS REGISTRY NO=91-22-5
##MOLFORM=C 9 H 7 N
##XUNITS=1/CM
##YUNITS=ABSORBANCE
##XFACTOR=1.0
##YFACTOR=0.000116656
##DELTAX=4.0
##FIRSTX=450.0
##LASTX=3966.0
##FIRSTY=0.029397
##MAXX=3966
##MINX=450
##MAXY=1.16656
##MINY=0
##NPOINTS=880
##XYDATA=(X++(Y..Y))
450.0 252 217 305 526 843 717 1349 1792 865 773
490.0 643 369 206 119 100 78 90 141 105 124
530.0 67 64 39 49 65 82 117 93 138 54
570.0 90 54 71 35 47 91 96 306 664 990
610.0 811 1202 1167 621 338 269 118 105 70 48
650.0 44 16 45 9 32 15 39 27 39 65
690.0 38 72 33 85 52 177 324 541 714 936
730.0 1577 1763 1041 1070 909 825 741 765 824 1078
770.0 1471 1969 2491 4240 6201 6498 7019 8819 10000 6993
810.0 5153 5044 3321 2237 1613 934 712 560 384 258
850.0 190 153 128 122 98 82 67 60 52 69
890.0 112 137 134 137 139 99 91 106 177 273
930.0 469 592 511 606 673 605 527 361 341 334
970.0 293 294 299 166 151 120 97 115 255 355
1010.0 404 413 616 858 892 763 891 768 421 170
1050.0 102 35 45 21 30 30 52 83 177 210
1090.0 210 290 328 445 696 1034 979 955 1093 852
1130.0 673 663 607 575 633 509 297 159 84 58
1170.0 43 53 49 59 53 63 59 76 105 139
1210.0 178 179 183 179 143 110 118 145 154 147
1250.0 181 225 202 217 215 193 155 158 129 97
1290.0 100 125 215 357 556 618 646 676 688 570
1330.0 421 359 288 231 169 182 206 391 624 774
1370.0 800 798 749 507 400 341 285 342 301 188
1410.0 174 206 257 447 535 640 699 860 748 612
1450.0 562 486 345 293 341 253 311 293 387 693
1490.0 1466 2798 3263 3540 3362 3099 1616 661 511 455
1530.0 410 408 354 302 240 270 419 532 975 1291
1570.0 1464 1440 1622 1481 1256 1404 1627 1609 1485 1568
1610.0 1361 1226 1338 1301 1300 1090 805 372 243 185
1650.0 134 114 150 140 137 166 194 178 192 154
1690.0 184 166 148 165 152 150 125 104 105 166
1730.0 211 230 298 355 349 295 324 270 246 194
1770.0 189 146 137 116 107 86 105 133 176 230
1810.0 247 238 235 230 191 185 208 226 196 180
1850.0 140 89 46 39 35 55 87 144 206 250
1890.0 280 300 290 268 272 307 348 404 447 453
1930.0 415 408 393 384 432 447 430 372 276 182
1970.0 89 52 42 35 33 31 35 29 36 29
2010.0 29 25 30 27 31 38 41 46 44 51
2050.0 51 46 46 50 49 46 49 45 45 41
2090.0 38 30 26 22 19 20 27 26 25 27
2130.0 24 24 20 23 23 29 31 31 35 30
2170.0 32 28 27 25 20 15 10 13 9 9
2210.0 9 13 10 17 20 24 28 33 41 50
2250.0 71 90 106 112 116 108 94 78 65 56
2290.0 45 38 21 15 12 10 17 25 26 29
2330.0 28 22 27 21 16 42 28 42 29 24
2370.0 10 18 19 26 31 33 32 28 31 29
2410.0 33 37 40 38 46 53 54 53 51 54
2450.0 47 43 43 44 46 44 41 41 38 36
2490.0 37 29 26 22 25 25 29 30 31 32
2530.0 30 36 37 38 35 33 31 29 31 30
2570.0 33 35 39 38 36 31 30 27 22 24
2610.0 25 31 31 38 41 42 40 39 37 32
2650.0 31 30 25 19 19 17 18 19 21 21
2690.0 21 23 24 25 24 26 25 22 22 25
2730.0 24 26 29 28 30 26 24 25 29 32
2770.0 32 35 33 35 35 38 32 31 33 39
2810.0 43 45 49 50 51 52 55 56 63 72
2850.0 91 109 118 127 127 120 112 109 111 112
2890.0 112 120 129 141 157 170 187 209 235 275
2930.0 303 330 351 363 384 405 415 420 406 377
2970.0 340 344 375 416 473 574 698 867 1064 1225
3010.0 1326 1382 1396 1486 1748 2232 2891 3421 3629 3975
3050.0 4317 4046 3955 4309 4389 4295 4588 4578 4110 3789
3090.0 3282 2504 1710 1185 906 659 462 298 170 112
3130.0 89 65 58 48 42 39 41 41 48 53
3170.0 61 66 72 81 89 102 98 97 88 74
3210.0 63 61 60 58 53 50 48 38 36 36
3250.0 31 33 30 29 27 31 24 25 26 26
3290.0 24 22 24 24 27 20 21 23 24 27
3330.0 24 21 21 23 24 21 23 23 23 24
3370.0 25 24 21 28 25 20 30 26 30 25
3410.0 32 26 27 31 30 29 23 35 29 31
3450.0 29 27 30 35 30 26 27 23 35 28
3490.0 26 31 29 33 31 28 30 24 31 31
3530.0 29 30 30 27 31 32 37 29 35 49
3570.0 44 41 31 37 37 46 49 30 44 38
3610.0 43 28 36 32 23 47 16 37 25 27
3650.0 47 13 39 13 36 22 31 40 26 46
3690.0 23 36 28 32 32 23 32 20 13 38
3730.0 21 39 16 48 0 27 17 8 25 14
3770.0 16 14 17 12 16 14 17 5 39 5
3810.0 36 19 22 48 22 39 30 25 26 38
3850.0 15 45 30 42 53 50 64 55 97 49
3890.0 74 17 49 31 39 20 29 28 28 33
3930.0 16 29 23 31 33 41 24 26 29 31
##END=
