##TITLE=Benzene, 1-methoxy-2-nitro-
##JCAMP-DX=4.24
##DATA TYPE=INFRARED SPECTRUM
##ORIGIN=Sadtler Research Labs Under US-EPA Contract
##OWNER=NIST Standard Reference Data Program
##CAS REGISTRY NO=91-23-6
##MOLFORM=C 7 H 7 N O 3
##XUNITS=1/CM
##YUNITS=ABSORBANCE
##XFACTOR=1.0
##YFACTOR=0.000194586
##DELTAX=4.0
##FIRSTX=450.0
##LASTX=3966.0
##FIRSTY=0.000000
##MAXX=3966
##MINX=450
##MAXY=1.94586
##MINY=0
##NPOINTS=880
##XYDATA=(X++(Y..Y))
450.0 0 105 103 112 100 109 118 96 99 98
490.0 130 164 176 198 266 298 323 319 286 255
530.0 207 203 189 198 203 216 231 243 284 280
570.0 331 327 341 302 195 218 200 148 138 128
610.0 108 101 117 106 120 106 127 127 170 264
650.0 448 722 962 1080 1109 936 637 416 326 335
690.0 335 433 474 598 641 607 567 533 527 591
730.0 781 1083 1493 2036 2586 2898 2705 2426 2146 1880
770.0 1465 1108 864 745 694 656 589 530 409 287
810.0 223 172 171 152 166 167 210 290 528 1177
850.0 1915 2173 2238 2075 1315 552 259 192 150 139
890.0 135 120 122 107 121 107 122 123 133 150
930.0 165 201 216 228 201 199 184 190 193 207
970.0 231 249 281 312 371 434 539 684 902 1177
1010.0 1476 1761 1968 2110 2166 2205 2266 2291 2158 1880
1050.0 1520 1113 740 492 404 396 468 591 786 996
1090.0 1150 1207 1150 1010 773 568 418 357 335 351
1130.0 399 469 559 601 644 726 882 948 916 882
1170.0 796 624 493 473 459 468 443 414 387 400
1210.0 430 469 531 603 727 890 1166 1559 2109 2769
1250.0 3416 3905 4229 4391 4491 4674 5101 5617 5810 5567
1290.0 5059 4227 3257 2564 2167 1862 1598 1334 1154 1041
1330.0 1031 1134 1398 1909 2693 3878 5077 6059 6244 5707
1370.0 4410 2697 1469 935 722 607 570 547 536 522
1410.0 525 523 578 609 680 867 1076 1296 1385 1447
1450.0 1432 1359 1386 1507 1713 1806 2064 2375 2799 3494
1490.0 3981 4304 4134 3830 3311 2869 2784 3002 3366 3905
1530.0 4634 5626 7093 8158 9761 10000 8551 7589 5446 4179
1570.0 3146 2800 2571 2688 2890 3282 3649 4259 4545 4877
1610.0 5138 4516 3901 2781 2007 1212 841 636 498 446
1650.0 389 382 303 288 269 251 263 214 251 234
1690.0 221 199 239 216 199 185 187 210 169 167
1730.0 168 198 164 159 167 175 155 141 145 137
1770.0 162 168 165 178 175 183 178 182 180 168
1810.0 163 167 154 158 155 151 146 129 143 138
1850.0 135 119 126 130 140 150 134 136 129 137
1890.0 141 157 164 184 194 195 195 176 175 152
1930.0 159 169 182 192 184 166 138 122 100 99
1970.0 87 87 84 87 89 100 101 99 108 111
2010.0 121 129 140 143 151 158 160 174 182 192
2050.0 194 205 208 217 222 220 213 193 175 147
2090.0 128 112 106 101 101 103 101 103 101 105
2130.0 99 101 99 99 96 92 91 87 86 83
2170.0 86 83 85 85 84 84 84 86 83 85
2210.0 83 85 83 86 87 87 90 89 93 93
2250.0 96 96 99 99 104 107 115 126 130 137
2290.0 137 138 133 129 126 127 126 126 131 124
2330.0 132 127 130 128 131 126 128 129 126 132
2370.0 126 131 129 134 135 137 140 145 147 137
2410.0 131 122 116 105 104 102 101 103 105 109
2450.0 106 111 107 104 98 98 96 95 98 99
2490.0 106 107 118 120 125 127 128 129 132 135
2530.0 136 143 145 150 150 155 160 164 170 170
2570.0 168 159 154 143 136 131 129 127 125 125
2610.0 123 122 120 120 118 121 119 121 123 121
2650.0 121 117 116 112 112 113 112 116 118 121
2690.0 125 132 132 140 144 148 149 151 150 143
2730.0 137 135 135 136 140 140 143 145 144 145
2770.0 143 144 140 143 141 144 143 149 154 161
2810.0 174 184 202 224 256 302 378 502 683 847
2850.0 915 927 860 702 546 470 440 445 473 510
2890.0 556 598 640 665 688 699 710 709 721 748
2930.0 784 853 980 1162 1330 1427 1438 1394 1266 1125
2970.0 1079 1016 881 772 668 585 534 512 531 583
3010.0 685 812 889 888 842 741 602 504 460 439
3050.0 424 417 419 436 480 552 655 771 855 882
3090.0 843 734 573 413 301 238 200 182 163 153
3130.0 145 136 131 125 121 118 113 111 107 105
3170.0 106 104 102 102 102 104 102 102 102 100
3210.0 99 97 97 98 96 94 96 91 90 89
3250.0 89 90 88 89 88 93 88 89 87 90
3290.0 89 89 90 89 91 91 90 92 91 93
3330.0 93 90 89 89 89 92 92 91 87 93
3370.0 92 90 93 90 90 91 94 89 88 89
3410.0 95 92 89 93 89 92 90 96 90 92
3450.0 91 91 93 92 92 92 93 93 92 96
3490.0 95 95 96 97 97 94 91 93 93 100
3530.0 94 94 96 91 98 96 93 95 90 101
3570.0 99 94 94 91 98 96 94 96 89 99
3610.0 97 98 96 96 96 87 102 90 102 92
3650.0 98 101 90 103 90 105 87 102 91 97
3690.0 93 98 98 95 98 95 95 97 101 100
3730.0 105 94 105 92 106 92 101 97 90 101
3770.0 92 96 92 92 92 92 91 93 87 98
3810.0 89 97 88 96 87 92 90 94 90 95
3850.0 94 95 101 100 105 103 106 101 108 97
3890.0 95 104 99 102 96 94 91 101 94 101
3930.0 96 103 99 102 103 102 98 94 99 98
##END=
