##TITLE=Naphthalene
##JCAMP-DX=4.24
##DATA TYPE=INFRARED SPECTRUM
##ORIGIN=Sadtler Research Labs Under US-EPA Contract
##OWNER=NIST Standard Reference Data Program
##CAS REGISTRY NO=91-20-3
##MOLFORM=C 10 H 8
##XUNITS=1/CM
##YUNITS=ABSORBANCE
##XFACTOR=1.0
##YFACTOR=0.000105878
##DELTAX=4.0
##FIRSTX=450.0
##LASTX=3966.0
##FIRSTY=0.023399
##MAXX=3966
##MINX=450
##MAXY=1.05878
##MINY=0
##NPOINTS=880
##XYDATA=(X++(Y..Y))
450.0 221 501 758 1266 1001 2172 2197 1465 875 1023
490.0 689 386 167 39 117 14 65 91 92 116
530.0 15 53 149 167 81 31 133 91 110 105
570.0 108 135 56 115 144 99 74 77 125 235
610.0 243 415 332 423 450 250 173 127 104 73
650.0 75 82 91 101 65 159 64 103 145 135
690.0 107 102 135 136 56 44 66 62 130 95
730.0 133 247 374 516 661 947 1256 1785 2462 3505
770.0 4415 4908 7407 10000 5494 4717 4041 2621 1506 716
810.0 387 330 296 355 381 269 235 236 171 178
850.0 110 112 113 120 135 165 173 136 170 199
890.0 143 160 136 134 126 123 122 127 151 158
930.0 218 256 293 338 387 379 496 435 269 257
970.0 232 173 138 114 117 135 189 384 553 704
1010.0 644 631 531 344 118 65 86 95 99 98
1050.0 103 113 125 110 106 102 119 102 137 123
1090.0 120 119 123 139 154 221 265 342 400 415
1130.0 423 416 353 324 258 197 140 126 119 120
1170.0 111 111 114 116 121 114 122 137 173 175
1210.0 196 211 235 219 223 226 203 220 210 200
1250.0 223 283 396 450 378 411 455 349 225 162
1290.0 133 118 100 99 99 100 93 91 104 107
1330.0 116 117 131 140 142 154 166 159 142 157
1370.0 164 217 282 327 354 307 319 301 214 155
1410.0 114 106 105 109 96 92 88 93 72 59
1450.0 48 95 63 115 63 101 91 98 155 198
1490.0 298 381 546 656 684 745 613 604 458 364
1530.0 327 270 279 242 261 190 168 173 146 102
1570.0 109 104 133 152 185 231 289 212 265 242
1610.0 163 145 102 107 86 97 93 136 115 151
1650.0 237 202 291 243 292 217 219 136 128 105
1690.0 112 112 159 207 208 288 298 343 331 297
1730.0 287 175 195 131 138 142 155 180 180 169
1770.0 176 180 122 115 129 157 192 199 178 182
1810.0 161 131 127 148 164 187 191 232 175 168
1850.0 118 81 42 10 26 22 32 51 98 150
1890.0 188 222 243 229 191 192 190 206 206 240
1930.0 289 355 382 337 300 231 138 69 35 35
1970.0 24 24 24 19 26 22 27 20 14 8
2010.0 9 9 11 12 13 13 15 7 12 13
2050.0 7 6 7 5 9 8 11 10 6 6
2090.0 7 7 11 10 11 9 12 11 9 13
2130.0 12 13 13 8 12 13 13 14 11 14
2170.0 14 13 14 14 12 9 11 9 10 8
2210.0 7 5 7 6 9 16 17 21 25 23
2250.0 20 25 26 29 31 38 47 66 77 89
2290.0 97 96 106 106 108 108 90 88 87 83
2330.0 77 56 87 20 120 38 114 62 115 84
2370.0 76 84 83 80 61 42 31 28 31 35
2410.0 40 56 58 69 64 62 49 43 42 35
2450.0 31 28 26 27 25 25 29 28 26 21
2490.0 17 20 22 26 26 30 28 27 29 28
2530.0 31 30 27 30 29 28 31 29 28 25
2570.0 29 29 32 37 39 36 38 37 38 35
2610.0 31 27 27 27 30 32 36 34 39 32
2650.0 34 35 35 41 40 38 36 33 35 33
2690.0 31 34 39 42 39 45 43 45 43 41
2730.0 45 44 51 43 41 43 45 42 44 45
2770.0 41 42 45 46 47 48 53 50 58 47
2810.0 50 56 60 62 65 74 78 86 90 92
2850.0 91 85 91 80 70 66 74 65 68 71
2890.0 73 74 77 80 81 86 92 101 111 130
2930.0 147 163 185 214 240 277 315 352 379 387
2970.0 376 370 353 313 288 286 299 327 380 428
3010.0 490 569 642 720 814 953 1110 1296 1678 2322
3050.0 3211 4060 4358 4506 5025 4797 3881 3338 2731 1992
3090.0 1512 1287 1140 948 733 508 323 193 128 113
3130.0 109 106 106 110 103 104 99 101 110 115
3170.0 118 114 116 111 106 96 88 89 85 84
3210.0 86 96 99 101 102 100 102 86 81 84
3250.0 80 78 70 72 74 71 69 66 67 63
3290.0 77 76 72 69 72 69 64 73 67 68
3330.0 68 70 67 72 70 68 71 65 67 69
3370.0 62 70 72 65 62 64 75 67 71 69
3410.0 66 68 62 64 66 69 65 55 44 51
3450.0 51 67 57 50 62 59 60 49 56 55
3490.0 50 59 54 46 65 46 64 53 55 58
3530.0 65 66 61 62 47 46 73 46 86 41
3570.0 85 64 79 51 68 58 67 47 43 56
3610.0 49 69 57 78 31 109 42 85 71 71
3650.0 41 101 44 58 67 18 116 10 94 29
3690.0 72 64 35 58 37 36 72 27 72 0
3730.0 44 73 13 117 6 154 9 111 39 50
3770.0 83 58 71 61 50 94 57 102 78 130
3810.0 71 101 97 113 109 85 103 127 65 143
3850.0 47 164 95 132 106 76 112 73 82 46
3890.0 90 84 114 47 58 90 47 97 12 75
3930.0 60 75 80 45 71 36 44 77 68 117
##END=
