##TITLE=Acetamide, N-butyl-N-phenyl-
##JCAMP-DX=4.24
##DATA TYPE=INFRARED SPECTRUM
##ORIGIN=Sadtler Research Labs Under US-EPA Contract
##OWNER=NIST Standard Reference Data Program
##CAS REGISTRY NO=91-49-6
##MOLFORM=C 12 H 17 N O
##XUNITS=1/CM
##YUNITS=ABSORBANCE
##XFACTOR=1.0
##YFACTOR=0.000074313
##DELTAX=4.0
##FIRSTX=450.0
##LASTX=3966.0
##FIRSTY=0.006911
##MAXX=3966
##MINX=450
##MAXY=0.74313
##MINY=0
##NPOINTS=880
##XYDATA=(X++(Y..Y))
450.0 93 4 317 241 527 292 327 417 229 289
490.0 186 399 444 285 296 407 332 266 215 328
530.0 449 343 299 406 563 508 558 746 847 1096
570.0 969 676 596 394 412 456 422 410 443 406
610.0 437 434 306 350 287 385 413 334 323 274
650.0 289 282 386 357 338 283 216 278 409 430
690.0 614 1252 1657 1684 1347 745 533 402 244 432
730.0 446 318 501 725 493 374 534 418 433 503
770.0 563 487 494 328 336 187 202 327 347 301
810.0 272 253 248 195 220 215 293 250 170 217
850.0 207 267 199 251 289 289 199 196 235 217
890.0 203 204 274 344 337 277 291 252 286 244
930.0 251 260 278 306 321 330 394 411 371 395
970.0 384 337 362 387 320 317 320 312 299 303
1010.0 294 289 307 341 352 328 357 332 294 274
1050.0 280 327 302 351 394 416 492 466 444 481
1090.0 524 506 484 422 391 324 316 329 287 272
1130.0 313 319 393 371 358 335 296 263 206 218
1170.0 195 183 181 208 206 197 237 275 293 444
1210.0 599 767 917 873 797 682 609 592 656 710
1250.0 767 810 925 1051 1226 1488 1719 2025 2295 2574
1290.0 2744 2803 2628 2264 1824 1385 1070 910 770 663
1330.0 637 614 675 715 780 866 1014 1221 1481 1814
1370.0 2087 2385 2598 2764 2940 2913 2665 2246 1672 1254
1410.0 998 798 765 653 650 634 687 760 810 820
1450.0 834 783 794 696 691 681 676 642 617 821
1490.0 1303 1954 2322 2039 1394 655 458 382 344 351
1530.0 328 323 333 341 329 296 284 318 273 288
1570.0 290 311 374 474 645 950 1380 1660 1576 1161
1610.0 728 475 437 354 402 348 394 431 405 493
1650.0 525 535 568 555 673 832 1064 1817 3257 6299
1690.0 9435 10000 7967 4203 1980 1010 690 442 334 198
1730.0 101 132 0 65 95 74 59 32 68 100
1770.0 155 185 186 211 201 199 218 192 208 153
1810.0 135 153 126 133 131 128 124 105 136 130
1850.0 117 110 111 124 129 151 145 140 144 134
1890.0 135 135 120 114 99 99 106 97 118 103
1930.0 105 120 131 163 163 146 137 131 128 129
1970.0 113 98 95 93 87 94 94 85 82 89
2010.0 81 88 85 85 80 82 76 78 81 81
2050.0 77 74 76 76 76 70 76 71 76 77
2090.0 78 80 77 72 72 74 71 72 70 70
2130.0 64 65 60 58 63 61 60 63 66 68
2170.0 63 66 67 65 67 64 65 67 68 59
2210.0 58 58 55 61 60 52 60 61 56 57
2250.0 55 57 50 47 54 51 46 44 46 40
2290.0 34 27 17 17 17 8 30 23 30 35
2330.0 42 57 48 37 35 38 43 51 58 63
2370.0 62 38 39 33 40 48 52 58 54 52
2410.0 54 59 58 52 54 52 50 51 49 52
2450.0 51 46 47 48 48 47 49 44 41 44
2490.0 48 53 53 50 52 54 46 48 51 48
2530.0 48 47 50 48 50 54 50 50 51 54
2570.0 51 50 53 54 64 60 52 52 55 63
2610.0 56 53 56 60 62 53 53 58 59 65
2650.0 64 70 72 64 62 62 61 62 63 61
2690.0 58 58 62 58 53 55 53 59 60 61
2730.0 61 61 64 68 72 68 68 66 62 61
2770.0 63 62 66 62 71 75 76 79 80 90
2810.0 97 100 110 114 119 128 135 149 170 187
2850.0 228 280 355 470 607 749 837 869 883 865
2890.0 778 663 564 548 591 674 780 894 1041 1197
2930.0 1379 1551 1702 1761 1676 1459 1254 1212 1413 1777
2970.0 2019 1905 1521 1066 773 588 463 380 325 300
3010.0 289 291 292 296 316 353 420 490 538 532
3050.0 483 394 354 369 421 512 592 604 538 432
3090.0 374 359 325 263 225 188 152 119 91 80
3130.0 77 74 66 61 61 67 62 56 57 62
3170.0 59 53 54 57 59 41 48 47 44 49
3210.0 50 44 49 44 41 52 43 46 34 45
3250.0 48 30 39 41 47 46 48 46 43 51
3290.0 47 44 47 48 41 54 49 48 41 33
3330.0 53 44 51 48 54 61 67 82 103 122
3370.0 113 101 74 58 42 47 41 34 23 33
3410.0 42 26 31 36 45 29 22 27 27 28
3450.0 26 29 29 32 26 38 26 27 26 30
3490.0 19 30 29 30 22 29 28 32 25 31
3530.0 44 31 41 30 43 43 15 20 33 48
3570.0 32 41 29 46 43 32 40 35 37 45
3610.0 44 35 27 30 21 23 41 56 45 43
3650.0 20 34 29 32 29 43 14 22 35 35
3690.0 40 24 56 52 62 26 26 33 23 41
3730.0 61 20 46 27 25 7 7 28 31 23
3770.0 13 16 23 14 34 15 34 24 22 16
3810.0 17 25 24 6 12 22 28 31 26 20
3850.0 19 7 31 24 36 37 38 26 56 42
3890.0 33 20 27 31 17 33 9 25 58 35
3930.0 55 34 7 11 67 18 35 35 51 44
##END=
