##TITLE=Benzene, 1-chloro-2,5-diethoxy-4-nitro-
##JCAMP-DX=4.24
##DATA TYPE=INFRARED SPECTRUM
##ORIGIN=Sadtler Research Labs Under US-EPA Contract
##OWNER=NIST Standard Reference Data Program
##CAS REGISTRY NO=91-43-0
##MOLFORM=C 10 H 12 Cl N O 4
##XUNITS=1/CM
##YUNITS=ABSORBANCE
##XFACTOR=1.0
##YFACTOR=0.000161868
##DELTAX=4.0
##FIRSTX=450.0
##LASTX=3966.0
##FIRSTY=0.000000
##MAXX=3966
##MINX=450
##MAXY=1.61868
##MINY=0
##NPOINTS=880
##XYDATA=(X++(Y..Y))
450.0 0 97 148 211 170 192 156 228 167 152
490.0 255 252 112 185 163 169 172 173 187 148
530.0 193 191 184 203 211 203 182 194 175 183
570.0 146 188 162 178 177 198 211 164 202 167
610.0 195 165 197 162 230 225 148 180 170 179
650.0 190 166 178 177 179 181 186 138 174 148
690.0 174 159 175 175 177 179 175 186 176 199
730.0 175 194 214 197 188 183 184 181 183 192
770.0 220 196 212 204 205 218 191 181 174 173
810.0 168 183 182 187 189 197 213 224 235 211
850.0 217 200 206 199 200 193 192 214 225 242
890.0 246 267 249 255 284 367 464 494 492 418
930.0 399 406 485 651 1135 1798 2119 2072 1549 737
970.0 539 550 580 656 827 1169 1933 3199 4041 4236
1010.0 3666 2344 1307 758 617 639 684 675 625 530
1050.0 413 342 283 254 228 221 220 215 224 228
1090.0 246 252 270 278 324 382 426 453 500 665
1130.0 1095 1603 1766 1642 989 400 227 243 237 230
1170.0 222 214 205 202 208 226 240 242 239 230
1210.0 223 221 218 224 225 227 225 229 242 255
1250.0 275 281 288 276 254 233 232 234 227 220
1290.0 210 212 212 217 222 226 248 302 446 631
1330.0 737 709 532 316 227 209 208 202 191 206
1370.0 224 223 263 343 376 393 344 262 231 211
1410.0 199 229 149 196 194 221 213 277 377 419
1450.0 404 315 167 197 221 240 216 251 339 389
1490.0 627 1309 2601 4916 7606 9468 10000 9647 7643 6259
1530.0 4204 2194 1198 759 599 567 506 396 358 318
1570.0 267 233 222 210 246 228 247 226 238 221
1610.0 211 210 178 250 253 353 371 470 619 732
1650.0 715 621 498 327 238 206 168 214 147 136
1690.0 177 202 139 162 178 224 211 167 239 278
1730.0 227 144 182 180 167 152 191 189 178 177
1770.0 126 109 137 129 133 129 113 120 104 135
1810.0 128 125 148 139 138 131 157 163 141 116
1850.0 137 156 151 149 136 114 144 153 149 144
1890.0 137 139 149 152 156 152 150 145 134 149
1930.0 153 150 149 135 134 148 148 145 148 137
1970.0 143 143 145 143 142 125 130 138 138 135
2010.0 140 134 135 144 151 159 167 173 178 181
2050.0 182 177 174 170 164 164 163 160 161 154
2090.0 150 150 150 152 153 156 157 157 152 151
2130.0 148 144 142 144 147 145 142 141 147 143
2170.0 140 145 137 136 135 138 133 133 134 134
2210.0 139 135 139 135 140 143 145 149 150 152
2250.0 149 147 141 139 142 148 148 148 145 137
2290.0 130 126 124 121 121 116 118 113 112 116
2330.0 107 110 107 108 99 99 99 103 114 108
2370.0 99 99 99 108 115 123 134 139 141 138
2410.0 138 141 139 144 142 148 152 155 162 170
2450.0 168 163 168 164 162 159 158 153 155 163
2490.0 170 173 163 154 140 134 133 135 134 134
2530.0 136 132 131 127 130 127 127 126 126 127
2570.0 127 126 126 126 126 128 122 120 117 113
2610.0 112 106 102 99 103 104 113 120 135 149
2650.0 149 152 150 137 137 144 148 162 161 150
2690.0 145 139 136 125 123 127 122 116 116 114
2730.0 112 115 117 119 112 116 115 116 118 118
2770.0 121 126 123 130 119 125 121 120 124 122
2810.0 116 120 115 117 119 124 126 123 121 122
2850.0 123 119 122 121 121 111 115 119 119 120
2890.0 120 120 121 119 124 127 130 130 131 131
2930.0 138 134 140 147 150 155 163 164 160 154
2970.0 147 132 132 129 121 114 120 111 118 118
3010.0 117 120 117 112 124 118 130 124 120 122
3050.0 111 131 111 120 118 114 116 117 123 119
3090.0 114 129 117 124 126 120 126 114 121 119
3130.0 115 125 124 127 125 129 123 123 128 120
3170.0 121 112 119 118 121 113 121 120 118 117
3210.0 119 114 117 122 121 115 120 118 116 122
3250.0 124 122 130 128 126 128 134 120 126 118
3290.0 127 126 120 131 131 135 132 127 127 136
3330.0 136 117 131 122 118 116 126 114 128 119
3370.0 123 133 122 134 126 122 111 123 131 131
3410.0 126 121 117 110 123 120 130 125 128 122
3450.0 115 123 124 121 117 119 123 119 113 120
3490.0 108 114 108 111 113 112 115 117 118 115
3530.0 126 126 138 136 127 111 116 122 117 112
3570.0 121 121 120 122 116 113 110 118 127 108
3610.0 128 125 110 130 122 131 130 114 112 111
3650.0 115 100 115 110 124 121 133 109 108 135
3690.0 113 127 123 107 107 108 109 117 98 117
3730.0 110 110 118 105 119 113 105 104 113 113
3770.0 115 118 125 117 108 117 114 125 117 110
3810.0 123 111 116 111 126 116 105 116 108 115
3850.0 120 128 116 119 117 137 112 112 119 109
3890.0 111 116 101 105 103 99 113 101 112 117
3930.0 107 99 99 99 112 116 128 134 129 112
##END=
