##TITLE=Naphthalene, 2-chloro-
##JCAMP-DX=4.24
##DATA TYPE=INFRARED SPECTRUM
##ORIGIN=Sadtler Research Labs Under US-EPA Contract
##OWNER=NIST Standard Reference Data Program
##CAS REGISTRY NO=91-58-7
##MOLFORM=C 10 H 7 Cl
##XUNITS=1/CM
##YUNITS=ABSORBANCE
##XFACTOR=1.0
##YFACTOR=0.000082275
##DELTAX=4.0
##FIRSTX=450.0
##LASTX=3966.0
##FIRSTY=0.192607
##MAXX=3966
##MINX=450
##MAXY=0.82275
##MINY=0
##NPOINTS=880
##XYDATA=(X++(Y..Y))
450.0 2341 1991 2472 2939 3207 3087 2074 1589 1139 518
490.0 241 149 192 175 201 211 200 271 239 138
530.0 120 48 21 136 84 57 53 178 322 172
570.0 212 172 271 200 367 884 1634 3055 3053 2832
610.0 1809 339 270 457 359 442 551 733 692 739
650.0 509 341 269 271 317 291 188 178 157 159
690.0 78 167 190 173 246 235 561 847 1611 2627
730.0 3756 4774 6175 5986 4022 3207 2388 1701 1106 839
770.0 662 568 620 864 1139 1893 3124 4352 5388 7464
810.0 5564 4203 3103 2063 1362 1407 2192 3671 6325 9008
850.0 10000 9245 6496 3622 2276 1795 1685 1948 2688 1841
890.0 1510 1185 669 353 357 384 419 464 452 567
930.0 937 1874 3312 3996 4096 3276 1817 990 580 434
970.0 387 291 282 247 269 277 357 451 552 532
1010.0 482 321 178 115 51 58 66 172 159 191
1050.0 271 288 444 938 2478 5330 7264 7020 6068 2366
1090.0 464 242 190 182 264 351 643 759 1172 1830
1130.0 2277 2397 2668 2133 1747 1226 595 308 207 171
1170.0 186 233 299 604 977 1053 1171 1062 875 799
1210.0 706 618 584 603 869 1085 1115 1134 885 692
1250.0 596 664 702 763 723 715 600 467 283 177
1290.0 136 122 141 145 204 207 247 255 293 360
1330.0 539 817 1119 1256 1278 1282 1233 1229 1115 932
1370.0 769 582 450 378 326 296 254 222 154 196
1410.0 207 219 315 329 357 390 448 617 873 1346
1450.0 2060 2594 2781 2286 1739 1235 1026 1042 1036 1007
1490.0 1289 2112 3548 4559 4588 3612 1855 611 328 301
1530.0 320 417 500 625 613 624 686 844 1065 1213
1570.0 1631 2010 2529 2829 3044 3182 3348 3364 3092 2634
1610.0 1806 1300 1378 1851 2515 2776 2546 1854 916 525
1650.0 431 458 346 284 288 324 343 421 471 572
1690.0 584 579 598 564 487 435 477 539 520 513
1730.0 471 479 494 548 606 648 588 491 395 344
1770.0 351 345 359 371 377 354 351 317 304 279
1810.0 291 305 343 367 395 361 306 272 268 265
1850.0 203 193 174 166 135 126 163 173 241 315
1890.0 448 558 590 562 534 462 430 448 428 381
1930.0 356 376 442 508 498 419 330 171 87 83
1970.0 71 95 95 74 85 83 75 73 54 63
2010.0 72 70 69 74 63 68 68 68 80 70
2050.0 68 58 60 55 60 67 67 71 78 71
2090.0 77 82 64 67 72 64 65 62 69 63
2130.0 64 39 56 57 50 48 57 53 47 60
2170.0 57 56 60 55 54 55 54 59 55 68
2210.0 65 61 75 58 64 68 76 63 70 57
2250.0 52 53 56 61 70 94 121 155 178 187
2290.0 206 205 174 160 158 153 147 134 117 124
2330.0 143 147 115 121 160 131 138 154 155 170
2370.0 170 126 141 122 95 70 63 55 74 74
2410.0 68 61 67 73 88 82 73 63 55 53
2450.0 54 65 46 66 70 81 98 86 84 93
2490.0 86 70 72 50 44 51 51 25 38 48
2530.0 49 43 46 34 40 42 35 52 65 60
2570.0 47 53 40 51 54 39 47 50 55 42
2610.0 34 40 56 38 50 49 62 57 55 41
2650.0 53 52 51 42 43 38 35 42 41 43
2690.0 40 28 34 38 33 42 34 45 35 32
2730.0 27 20 32 32 22 34 31 30 31 28
2770.0 13 21 43 30 17 29 26 30 28 36
2810.0 35 12 24 44 49 22 27 29 48 58
2850.0 34 56 57 47 55 55 36 63 70 54
2890.0 100 66 64 88 65 84 90 106 125 150
2930.0 169 209 240 207 252 277 243 272 281 278
2970.0 274 293 253 290 294 313 323 336 391 438
3010.0 496 585 754 886 997 1072 1123 1201 1338 1719
3050.0 2415 3585 5298 6788 7319 7322 6438 4788 3575 2861
3090.0 2347 1852 1336 779 401 267 209 180 144 139
3130.0 126 137 101 119 80 104 118 96 85 80
3170.0 77 82 88 49 80 72 66 83 65 68
3210.0 69 61 68 45 82 87 52 61 60 55
3250.0 53 42 43 36 46 38 57 42 44 54
3290.0 82 30 29 26 44 52 32 49 45 34
3330.0 77 46 25 41 35 35 47 56 55 41
3370.0 19 35 47 41 42 51 31 49 67 36
3410.0 62 67 11 53 42 13 42 61 29 51
3450.0 61 41 51 14 27 23 5 24 22 72
3490.0 30 48 39 0 70 45 47 60 54 97
3530.0 45 64 1 29 49 43 73 73 55 76
3570.0 78 68 82 76 43 96 100 91 59 94
3610.0 90 58 79 135 70 124 108 85 86 133
3650.0 141 109 113 133 128 186 142 138 96 106
3690.0 167 145 118 146 146 153 149 109 141 163
3730.0 148 165 203 176 215 174 167 169 164 184
3770.0 165 147 148 150 178 148 140 176 223 227
3810.0 201 189 189 211 230 236 293 301 252 234
3850.0 220 286 257 242 261 281 254 247 293 296
3890.0 271 302 286 276 288 248 271 281 257 245
3930.0 282 275 248 244 267 317 2 24 26 27
##END=
