##TITLE=Naphthalene, 2-methyl-
##JCAMP-DX=4.24
##DATA TYPE=INFRARED SPECTRUM
##ORIGIN=Sadtler Research Labs Under US-EPA Contract
##OWNER=NIST Standard Reference Data Program
##CAS REGISTRY NO=91-57-6
##MOLFORM=C 11 H 10
##XUNITS=1/CM
##YUNITS=ABSORBANCE
##XFACTOR=1.0
##YFACTOR=0.000045798
##DELTAX=4.0
##FIRSTX=450.0
##LASTX=3966.0
##FIRSTY=0.050881
##MAXX=3966
##MINX=450
##MAXY=0.45798
##MINY=0
##NPOINTS=880
##XYDATA=(X++(Y..Y))
450.0 1111 807 1463 2130 2497 4370 3359 2225 1925 1146
490.0 524 247 100 89 75 83 96 120 163 142
530.0 231 129 137 53 14 26 58 43 52 89
570.0 56 94 114 61 69 89 44 31 71 137
610.0 295 562 752 792 895 515 282 152 96 72
650.0 69 74 82 49 0 124 84 179 155 233
690.0 438 332 319 328 265 269 409 813 1572 2510
730.0 3267 4662 5821 3585 3043 2327 1618 1327 1438 1432
770.0 2167 1549 1601 1864 2499 3196 3637 4827 5623 8212
810.0 7994 5224 4384 3043 1974 1571 1700 2073 2679 3276
850.0 2384 1837 1400 964 712 642 667 787 924 877
890.0 648 553 432 337 272 213 164 164 138 171
930.0 250 326 397 559 734 750 797 918 602 423
970.0 314 244 213 195 210 302 418 543 657 761
1010.0 832 837 794 687 573 442 326 300 291 264
1050.0 251 245 227 233 223 208 201 175 166 140
1090.0 124 108 114 152 177 250 349 457 529 561
1130.0 553 605 569 513 475 425 388 324 364 432
1170.0 401 332 346 260 193 200 210 242 301 355
1210.0 364 368 375 316 307 303 333 319 289 295
1250.0 311 372 502 612 674 619 646 561 381 249
1290.0 166 120 109 108 124 134 154 157 162 178
1330.0 220 276 309 346 405 462 509 551 607 652
1370.0 663 689 722 750 755 759 705 600 548 492
1410.0 419 399 435 525 620 727 796 866 875 851
1450.0 858 857 874 891 921 932 860 742 636 562
1490.0 551 717 1151 1877 2470 2578 2414 1897 1088 710
1530.0 612 609 619 593 558 532 481 440 455 489
1570.0 540 612 661 705 811 990 1278 1553 1635 1605
1610.0 1436 1057 787 702 691 817 989 1122 1185 1155
1650.0 958 722 535 411 331 316 347 393 442 495
1690.0 473 437 383 296 213 203 224 240 271 291
1730.0 291 313 355 417 460 481 486 453 363 321
1770.0 321 322 342 357 347 313 289 240 210 239
1810.0 280 303 301 279 244 228 253 268 269 280
1850.0 257 207 171 144 107 97 113 145 184 234
1890.0 319 428 484 530 580 536 465 448 432 389
1930.0 401 460 482 430 352 247 114 55 31 16
1970.0 14 12 9 13 18 17 19 20 20 21
2010.0 19 14 17 18 15 29 31 36 35 34
2050.0 31 25 21 19 11 22 30 31 40 40
2090.0 35 27 22 16 20 13 14 14 18 17
2130.0 19 14 14 15 12 13 15 8 14 11
2170.0 8 6 3 8 8 4 3 4 0 2
2210.0 1 4 4 12 12 15 14 14 13 15
2250.0 18 25 31 34 35 36 44 59 72 82
2290.0 87 90 90 81 79 75 79 84 74 76
2330.0 62 67 80 75 82 79 56 62 67 60
2370.0 36 55 62 52 49 53 56 56 53 52
2410.0 54 57 66 67 62 56 58 56 49 40
2450.0 45 47 42 44 40 40 48 40 40 46
2490.0 47 49 47 47 48 45 51 54 48 40
2530.0 42 40 39 29 36 35 37 37 38 29
2570.0 32 25 27 29 30 35 37 38 43 31
2610.0 35 34 33 43 39 38 37 42 38 39
2650.0 38 43 36 36 36 39 30 32 28 31
2690.0 30 35 39 42 49 53 56 70 76 86
2730.0 117 162 192 223 235 213 169 128 104 94
2770.0 92 87 96 107 108 117 115 117 132 151
2810.0 158 177 198 229 244 275 322 385 470 573
2850.0 715 921 1199 1533 1878 2163 2339 2400 2319 2162
2890.0 2010 1903 1910 1989 2135 2322 2539 2850 3367 4137
2930.0 4885 5172 5025 4470 3699 3128 2994 3091 2996 2991
2970.0 3010 2957 2816 2641 2543 2377 2229 2149 2171 2362
3010.0 2717 3218 3704 4037 4214 4139 3981 4112 4715 5841
3050.0 7305 8707 9638 10000 9682 8590 6910 5273 4075 3237
3090.0 2637 2154 1704 1309 952 701 524 407 321 248
3130.0 201 181 168 157 143 135 132 116 113 117
3170.0 118 116 124 105 97 86 70 65 66 62
3210.0 62 57 57 66 75 78 81 74 72 73
3250.0 62 30 40 31 30 26 18 15 11 39
3290.0 34 28 23 25 16 22 21 19 19 34
3330.0 42 28 27 14 19 23 15 23 27 10
3370.0 18 33 24 24 30 24 42 46 23 27
3410.0 31 24 39 37 33 46 42 36 20 36
3450.0 41 40 41 30 42 33 17 29 28 11
3490.0 35 30 23 17 26 30 36 29 23 31
3530.0 27 28 24 29 22 23 31 29 28 15
3570.0 19 25 31 15 27 34 8 8 14 22
3610.0 10 0 20 15 32 33 30 44 71 43
3650.0 56 56 38 44 40 18 27 27 27 37
3690.0 50 34 21 21 30 47 35 38 40 67
3730.0 58 31 37 33 43 40 31 41 46 38
3770.0 37 46 30 33 35 47 50 39 55 33
3810.0 40 51 46 43 23 27 10 43 39 70
3850.0 65 41 31 20 11 68 58 40 51 32
3890.0 17 54 73 56 93 41 58 44 58 52
3930.0 82 57 75 92 65 48 34 38 37 20
##END=
