##TITLE=2-Naphthalenamine
##JCAMP-DX=4.24
##DATA TYPE=INFRARED SPECTRUM
##ORIGIN=Sadtler Research Labs Under US-EPA Contract
##OWNER=NIST Standard Reference Data Program
##CAS REGISTRY NO=91-59-8
##MOLFORM=C 10 H 9 N
##XUNITS=1/CM
##YUNITS=ABSORBANCE
##XFACTOR=1.0
##YFACTOR=0.000061737
##DELTAX=4.0
##FIRSTX=450.0
##LASTX=3966.0
##FIRSTY=0.129277
##MAXX=3966
##MINX=450
##MAXY=0.61737
##MINY=0
##NPOINTS=880
##XYDATA=(X++(Y..Y))
450.0 2094 2045 2071 2095 2047 1632 1302 1087 887 754
490.0 691 704 728 761 714 733 680 671 627 540
530.0 495 520 464 480 467 425 373 337 417 425
570.0 401 400 510 445 549 534 598 602 637 755
610.0 920 1288 1516 1446 1594 1470 1600 2009 2724 3110
650.0 3574 3461 3133 2577 2207 1755 1639 1511 1403 1353
690.0 1322 1283 1143 1082 956 921 913 1053 1453 1825
730.0 2303 2748 3302 3507 2333 1926 1426 964 602 470
770.0 390 435 506 720 1000 1381 1728 2106 2701 2404
810.0 1868 1798 1770 1912 2303 2738 3518 3409 2754 2176
850.0 1647 1163 874 751 736 569 477 414 296 247
890.0 233 285 308 307 318 271 268 236 250 238
930.0 228 188 263 274 404 635 587 526 457 269
970.0 145 97 85 86 97 79 63 51 65 119
1010.0 260 356 348 308 224 96 59 74 92 102
1050.0 129 142 178 216 251 289 352 404 441 463
1090.0 480 465 411 377 336 316 350 494 652 665
1130.0 715 773 662 598 584 678 620 530 519 607
1170.0 814 1301 1604 1596 1529 1153 607 342 292 385
1210.0 707 1234 1564 1703 1678 1234 641 320 198 222
1250.0 377 634 846 983 1169 1572 2509 3419 3589 3372
1290.0 2621 1138 296 69 4 0 16 52 103 116
1330.0 145 200 236 313 406 526 655 705 733 690
1370.0 718 831 1038 1245 1328 1268 967 645 341 205
1410.0 137 129 74 88 61 74 72 171 327 505
1450.0 601 706 900 1058 1309 1496 1614 1474 1228 1052
1490.0 830 732 902 1319 2065 3328 3818 3697 3069 1831
1530.0 759 430 318 285 242 273 260 283 379 484
1570.0 594 697 855 916 1031 1204 1487 1818 2179 2593
1610.0 3069 3635 4344 5593 7476 9013 9763 10000 8618 6628
1650.0 4457 3098 2283 2130 2095 1966 1599 1289 983 720
1690.0 580 469 381 311 303 280 268 255 282 294
1730.0 322 317 279 249 198 173 142 152 178 202
1770.0 216 197 179 151 150 147 151 162 172 182
1810.0 174 163 172 180 181 175 159 149 101 93
1850.0 72 103 102 134 139 171 197 261 293 310
1890.0 320 321 292 276 280 300 259 257 257 294
1930.0 324 312 286 225 144 90 69 61 49 60
1970.0 54 51 60 53 61 59 57 53 67 53
2010.0 58 56 54 57 68 76 85 95 99 110
2050.0 106 113 103 106 101 114 121 130 122 122
2090.0 114 105 97 103 89 79 77 72 78 77
2130.0 64 71 71 73 66 61 67 71 63 75
2170.0 92 73 87 93 86 69 78 62 61 59
2210.0 65 55 56 62 59 66 67 58 59 67
2250.0 67 70 69 73 71 83 87 109 121 114
2290.0 130 141 126 125 128 138 119 135 135 126
2330.0 119 149 111 143 151 142 164 130 193 168
2370.0 101 129 117 85 94 83 83 83 84 84
2410.0 84 86 85 85 81 88 87 81 79 89
2450.0 89 88 89 97 97 99 99 102 100 92
2490.0 95 95 93 110 102 110 111 110 102 96
2530.0 90 90 97 93 87 99 88 99 99 98
2570.0 99 98 99 102 95 95 104 105 102 103
2610.0 103 103 103 96 95 96 113 103 116 116
2650.0 119 112 104 104 106 106 100 100 92 99
2690.0 104 99 110 109 105 96 118 111 95 111
2730.0 104 95 104 105 113 113 112 113 117 115
2770.0 106 106 100 84 92 84 92 75 86 85
2810.0 96 95 98 101 111 118 118 111 127 119
2850.0 112 119 121 111 116 117 119 116 106 121
2890.0 130 123 132 138 124 142 155 140 140 160
2930.0 163 180 207 220 247 304 323 374 385 413
2970.0 430 454 487 503 539 577 608 691 767 921
3010.0 1144 1444 1749 2016 2193 2241 2156 2076 2145 2524
3050.0 3014 3628 4169 4256 4169 3971 3354 2586 1935 1425
3090.0 1084 927 759 636 510 392 268 206 178 155
3130.0 131 138 127 114 118 109 122 97 89 113
3170.0 104 124 100 109 115 123 112 129 145 161
3210.0 157 180 211 196 187 161 158 144 137 148
3250.0 120 103 92 77 67 84 68 68 77 88
3290.0 81 95 61 76 78 73 88 68 63 62
3330.0 64 70 79 86 87 95 77 99 89 101
3370.0 125 111 145 169 211 313 422 615 811 954
3410.0 1084 1112 975 816 630 436 292 217 185 133
3450.0 140 126 154 181 218 267 325 391 467 522
3490.0 549 568 570 556 488 450 384 278 220 152
3530.0 155 111 137 98 76 68 77 60 55 70
3570.0 68 65 81 96 103 109 106 84 92 74
3610.0 73 110 89 85 85 86 93 103 146 107
3650.0 163 162 168 122 125 111 89 95 92 123
3690.0 137 99 107 96 106 102 85 79 81 90
3730.0 96 106 107 117 112 66 84 92 71 89
3770.0 75 75 81 76 83 85 65 75 62 74
3810.0 70 85 65 84 74 85 110 106 123 122
3850.0 97 111 104 138 128 139 131 121 118 122
3890.0 117 108 99 102 77 84 104 111 111 104
3930.0 112 87 109 121 120 124 148 146 154 155
##END=
