##TITLE=Quinoline, 2-methyl-
##JCAMP-DX=4.24
##DATA TYPE=INFRARED SPECTRUM
##ORIGIN=Sadtler Research Labs Under US-EPA Contract
##OWNER=NIST Standard Reference Data Program
##CAS REGISTRY NO=91-63-4
##MOLFORM=C 10 H 9 N
##XUNITS=1/CM
##YUNITS=ABSORBANCE
##XFACTOR=1.0
##YFACTOR=0.000069144
##DELTAX=4.0
##FIRSTX=450.0
##LASTX=3966.0
##FIRSTY=0.055453
##MAXX=3966
##MINX=450
##MAXY=0.69144
##MINY=0
##NPOINTS=880
##XYDATA=(X++(Y..Y))
450.0 802 473 294 1136 957 1304 1738 781 945 441
490.0 541 269 74 121 133 109 99 282 109 174
530.0 36 176 58 95 126 90 85 36 104 1
570.0 102 118 63 8 102 99 25 88 188 433
610.0 793 1252 994 1249 1085 508 282 123 93 47
650.0 69 35 44 56 61 125 121 84 49 92
690.0 66 123 122 149 102 121 194 289 776 1419
730.0 2499 3019 4279 6933 4422 3644 2989 2131 1800 1629
770.0 1947 2170 2816 3139 2613 2355 3043 3679 4931 6134
810.0 8061 10000 7911 6587 4994 3230 1943 1044 539 310
850.0 189 156 126 143 114 150 167 215 248 324
890.0 337 295 267 258 210 161 170 170 172 171
930.0 236 298 385 468 552 649 536 489 441 513
970.0 475 342 372 340 342 355 475 707 946 1208
1010.0 1382 1236 906 678 412 329 327 332 342 318
1050.0 299 264 247 227 221 202 181 163 165 184
1090.0 228 293 388 642 1129 1464 1433 1488 1329 816
1130.0 759 866 956 1033 1000 636 415 270 171 129
1170.0 105 97 81 103 86 120 164 269 433 803
1210.0 1506 2408 2725 2760 2753 1821 861 599 572 587
1250.0 580 594 511 485 443 438 440 410 408 508
1290.0 708 931 1337 2011 2699 2963 2938 2596 1730 1045
1330.0 826 819 777 734 656 633 574 595 691 893
1370.0 1154 1326 1513 1452 1213 874 765 690 770 891
1410.0 1144 1748 2641 3245 3383 3481 2931 1994 1544 1423
1450.0 1315 1248 1038 893 812 766 816 977 1411 2132
1490.0 2940 4075 5433 7107 7181 6603 5802 3781 2242 1495
1530.0 1291 1207 1233 1370 1667 2024 2347 2497 2596 2544
1570.0 2212 1927 1859 1871 2351 3390 4849 6824 7430 7531
1610.0 7217 6193 5688 5406 5496 4413 3434 1975 1273 924
1650.0 724 639 475 401 276 259 224 312 353 352
1690.0 359 322 260 219 224 249 234 207 214 236
1730.0 215 199 194 187 210 264 361 385 391 364
1770.0 308 241 224 210 193 162 156 179 196 256
1810.0 268 276 292 294 278 300 358 391 356 292
1850.0 221 127 71 50 35 24 39 63 94 156
1890.0 211 242 250 264 287 342 410 488 514 517
1930.0 486 417 418 444 471 470 403 313 176 64
1970.0 21 17 13 17 30 39 47 53 58 54
2010.0 52 40 38 33 28 28 25 27 21 33
2050.0 30 43 44 51 62 75 76 73 73 64
2090.0 61 56 61 55 46 41 39 41 39 48
2130.0 45 43 36 32 32 35 32 28 27 20
2170.0 18 9 7 4 1 1 2 2 0 4
2210.0 2 9 14 21 26 27 31 31 33 47
2250.0 71 90 114 127 126 130 119 110 87 75
2290.0 62 51 42 40 32 22 27 33 33 34
2330.0 36 31 42 33 57 66 51 57 63 92
2370.0 89 98 85 69 57 53 47 44 45 40
2410.0 47 48 52 53 57 64 68 74 82 88
2450.0 90 93 91 82 82 81 77 75 79 78
2490.0 73 65 58 45 40 39 37 41 45 54
2530.0 49 58 54 51 49 42 40 38 45 43
2570.0 50 49 62 70 88 101 110 111 104 90
2610.0 76 72 66 61 59 53 51 50 52 43
2650.0 41 39 33 29 32 33 34 35 38 36
2690.0 28 31 25 23 23 31 36 46 67 84
2730.0 105 110 110 89 67 47 42 39 34 34
2770.0 39 45 42 49 50 56 63 74 89 95
2810.0 106 121 136 159 185 212 257 302 371 444
2850.0 532 626 724 808 853 891 872 853 839 813
2890.0 818 825 846 883 938 1021 1182 1469 1976 2685
2930.0 3308 3594 3542 3130 2508 2005 1694 1590 1546 1343
2970.0 1218 1094 946 813 725 716 761 890 1101 1333
3010.0 1576 1805 1919 1970 2040 2148 2442 2965 3757 4778
3050.0 5951 7027 7811 8211 7848 7318 6443 5157 4032 3053
3090.0 2267 1764 1428 1208 1043 893 731 583 443 324
3130.0 231 159 141 101 90 81 77 79 75 83
3170.0 87 88 84 80 77 82 71 71 64 57
3210.0 53 53 46 39 51 43 45 31 37 33
3250.0 18 13 11 11 13 23 21 15 16 27
3290.0 19 19 13 8 19 20 15 21 29 24
3330.0 22 23 16 9 15 20 14 26 15 19
3370.0 17 13 15 20 29 21 29 28 24 26
3410.0 31 41 41 39 36 38 34 39 33 21
3450.0 31 24 8 19 15 19 30 23 25 24
3490.0 23 23 24 33 30 24 29 32 33 39
3530.0 44 34 31 33 38 26 23 15 22 23
3570.0 33 31 31 42 32 42 39 19 21 15
3610.0 11 16 12 21 24 31 26 26 18 13
3650.0 12 22 20 13 18 0 24 23 42 36
3690.0 32 31 38 41 45 45 37 38 46 29
3730.0 30 28 39 35 19 43 41 47 38 52
3770.0 18 27 28 24 34 24 23 10 18 14
3810.0 26 8 32 20 5 2 0 8 14 17
3850.0 0 6 11 8 0 17 15 7 0 10
3890.0 11 5 15 8 27 32 26 39 23 23
3930.0 22 57 69 68 62 75 77 44 61 32
##END=
