##TITLE=Quinoline, 6-methyl-
##JCAMP-DX=4.24
##DATA TYPE=INFRARED SPECTRUM
##ORIGIN=Sadtler Research Labs Under US-EPA Contract
##OWNER=NIST Standard Reference Data Program
##CAS REGISTRY NO=91-62-3
##MOLFORM=C 10 H 9 N
##XUNITS=1/CM
##YUNITS=ABSORBANCE
##XFACTOR=1.0
##YFACTOR=0.000118732
##DELTAX=4.0
##FIRSTX=450.0
##LASTX=3966.0
##FIRSTY=0.006768
##MAXX=3966
##MINX=450
##MAXY=1.18732
##MINY=0
##NPOINTS=880
##XYDATA=(X++(Y..Y))
450.0 57 182 513 715 853 1073 1718 1260 823 780
490.0 548 443 316 423 555 403 365 309 242 211
530.0 213 192 194 132 109 64 40 18 51 15
570.0 6 67 61 75 115 190 115 217 391 796
610.0 1059 886 1032 882 359 227 124 88 60 36
650.0 27 17 15 19 27 75 86 73 100 64
690.0 107 118 278 269 501 860 522 344 365 180
730.0 160 88 211 311 501 611 817 1180 993 892
770.0 892 929 1062 1385 1487 2199 2551 1376 1485 1271
810.0 1538 2271 3481 4517 6126 10000 6376 5112 3995 2579
850.0 1420 908 802 1035 1058 1484 1657 1312 1327 1407
890.0 1313 1448 1560 1557 1581 1641 1473 1315 1043 670
930.0 400 286 241 250 317 334 345 408 454 394
970.0 435 534 360 301 263 214 214 270 380 437
1010.0 487 551 611 721 862 880 849 667 429 287
1050.0 245 217 202 195 194 188 183 169 164 184
1090.0 218 316 456 666 911 1381 1530 1237 1412 1211
1130.0 711 578 477 389 346 296 274 298 332 328
1170.0 302 255 210 172 157 157 200 267 354 386
1210.0 417 497 499 493 503 570 697 799 882 1034
1250.0 1195 1224 1193 1109 984 685 402 257 177 161
1290.0 198 216 234 275 337 427 593 706 726 825
1330.0 886 803 717 704 694 732 842 1053 1371 1710
1370.0 1764 1710 1488 1114 740 603 443 334 280 276
1410.0 284 322 395 479 509 565 609 662 728 795
1450.0 829 847 952 912 802 760 710 741 900 1503
1490.0 2771 4564 5378 5710 5167 3247 1783 870 625 473
1530.0 458 398 458 489 552 626 842 1174 1689 2037
1570.0 2188 2276 2151 1913 1916 2355 2694 2687 2416 1903
1610.0 1123 667 568 511 543 506 530 515 456 379
1650.0 316 296 232 187 183 154 144 96 121 149
1690.0 170 188 259 236 228 198 198 228 330 397
1730.0 450 484 468 385 340 356 312 284 264 289
1770.0 326 448 555 763 1044 1417 1764 2104 2399 2626
1810.0 2497 2162 1805 1302 831 491 355 244 249 244
1850.0 280 362 520 680 789 850 877 819 646 550
1890.0 468 351 289 296 350 396 428 464 459 451
1930.0 462 464 439 424 328 238 162 83 48 39
1970.0 40 41 44 40 44 41 41 38 49 42
2010.0 46 33 30 24 18 19 21 28 36 41
2050.0 41 41 45 37 27 22 24 25 34 39
2090.0 50 58 53 50 41 33 30 35 28 30
2130.0 26 31 34 32 32 31 32 35 40 41
2170.0 37 29 20 10 5 8 6 5 7 9
2210.0 11 12 11 10 11 17 22 26 33 37
2250.0 51 67 78 81 90 81 68 62 57 50
2290.0 41 33 26 22 18 23 22 22 30 38
2330.0 49 67 68 83 89 53 19 28 77 112
2370.0 130 138 133 117 98 82 75 69 64 64
2410.0 57 56 57 52 52 56 59 55 56 60
2450.0 65 68 67 67 69 70 75 75 81 81
2490.0 80 83 84 81 79 83 86 85 84 85
2530.0 82 78 73 66 68 75 71 66 59 57
2570.0 58 60 68 76 84 84 78 80 77 75
2610.0 71 72 72 74 70 69 71 64 56 64
2650.0 55 57 58 51 49 47 48 47 47 50
2690.0 55 50 56 60 64 66 70 73 74 80
2730.0 98 120 154 172 188 181 156 133 109 96
2770.0 91 94 93 96 97 103 103 105 114 125
2810.0 138 153 164 181 197 214 231 256 292 334
2850.0 404 501 644 842 1067 1266 1390 1436 1418 1353
2890.0 1278 1213 1165 1147 1198 1297 1451 1699 2088 2607
2930.0 3018 3137 3002 2599 2058 1679 1553 1593 1577 1527
2970.0 1581 1691 1811 1889 1939 1930 1820 1686 1668 1895
3010.0 2431 3118 3691 4119 4445 4497 4459 4412 4293 4242
3050.0 4023 3700 3551 3556 3677 3829 3905 3861 3657 3116
3090.0 2328 1550 946 592 399 293 237 195 158 141
3130.0 131 122 110 99 101 96 97 102 104 104
3170.0 97 96 98 108 112 121 119 120 128 112
3210.0 105 90 88 70 71 78 78 69 62 57
3250.0 55 58 60 49 43 37 28 40 37 32
3290.0 18 30 37 53 52 53 55 63 54 47
3330.0 56 53 42 43 43 47 48 58 55 37
3370.0 47 41 43 46 35 51 57 36 55 56
3410.0 48 39 44 42 46 37 49 43 41 44
3450.0 55 51 31 49 38 43 46 50 39 29
3490.0 41 32 43 42 29 31 30 29 38 35
3530.0 38 43 34 43 36 43 23 23 31 5
3570.0 51 18 41 24 22 65 37 36 45 20
3610.0 52 33 33 52 46 91 66 94 81 91
3650.0 103 94 120 98 109 59 74 68 55 34
3690.0 62 59 42 53 48 31 64 66 23 44
3730.0 38 38 45 63 54 74 57 46 51 75
3770.0 45 63 60 52 61 60 53 14 28 35
3810.0 22 31 23 46 28 5 7 21 14 41
3850.0 0 21 36 9 24 36 4 5 27 35
3890.0 23 25 3 32 59 46 31 58 31 31
3930.0 68 47 43 32 26 10 59 94 48 76
##END=
