##TITLE=Benzenamine, N,N-diethyl-
##JCAMP-DX=4.24
##DATA TYPE=INFRARED SPECTRUM
##ORIGIN=Sadtler Research Labs Under US-EPA Contract
##OWNER=NIST Standard Reference Data Program
##CAS REGISTRY NO=91-66-7
##MOLFORM=C 10 H 15 N
##XUNITS=1/CM
##YUNITS=ABSORBANCE
##XFACTOR=1.0
##YFACTOR=0.000050797
##DELTAX=4.0
##FIRSTX=450.0
##LASTX=3966.0
##FIRSTY=0.006400
##MAXX=3966
##MINX=450
##MAXY=0.50797
##MINY=0
##NPOINTS=880
##XYDATA=(X++(Y..Y))
450.0 126 109 109 130 141 142 159 185 205 230
490.0 311 344 367 349 318 290 308 282 293 311
530.0 301 299 330 205 221 190 233 242 214 218
570.0 163 139 129 129 78 17 97 74 47 56
610.0 58 59 34 58 18 21 55 45 46 83
650.0 55 149 170 216 307 553 694 1072 1588 2032
690.0 2631 2594 2086 1638 1186 813 693 691 742 854
730.0 1055 1467 2129 2814 3404 3214 2529 1874 1285 867
770.0 619 591 613 737 884 938 951 848 653 457
810.0 317 223 186 148 119 98 99 97 105 117
850.0 145 176 219 243 246 240 208 180 188 209
890.0 237 262 272 245 194 148 130 118 110 110
930.0 97 100 88 79 79 80 88 91 108 114
970.0 122 153 201 276 387 491 583 654 736 855
1010.0 972 1043 1044 1037 1145 1383 1559 1574 1430 1146
1050.0 884 809 877 1027 1214 1414 1516 1519 1445 1340
1090.0 1274 1252 1232 1162 1049 917 806 736 674 676
1130.0 746 934 1267 1675 2053 2244 2161 1853 1478 1178
1170.0 1024 1087 1320 1731 2206 2652 2920 2934 2649 2194
1210.0 1704 1277 1010 889 880 972 1163 1507 2015 2785
1250.0 3811 4833 5574 5702 5153 4184 3104 2199 1624 1306
1290.0 1142 1058 1000 959 946 966 984 1038 1117 1252
1330.0 1461 1762 2196 2703 3292 3880 4323 4457 4203 3817
1370.0 3685 3882 4185 4338 4166 3512 2773 2143 1626 1219
1410.0 925 723 621 537 517 492 521 563 657 818
1450.0 999 1144 1260 1300 1333 1402 1467 1539 1775 2355
1490.0 3559 5558 8111 10000 9950 8256 5781 3322 1810 1145
1530.0 855 715 649 626 624 629 675 739 821 970
1570.0 1186 1477 1800 2292 3048 4199 5794 7258 7899 7470
1610.0 6105 4389 2935 1916 1258 846 645 520 433 385
1650.0 352 329 294 270 251 232 216 187 186 185
1690.0 169 175 196 214 220 212 215 194 161 154
1730.0 147 147 134 128 148 152 146 145 146 131
1770.0 129 126 109 105 105 106 116 104 117 123
1810.0 123 133 129 123 124 115 108 89 87 79
1850.0 73 70 80 100 102 116 110 106 99 98
1890.0 117 125 156 174 205 227 238 238 229 214
1930.0 195 170 145 116 82 72 70 57 66 69
1970.0 79 87 88 84 76 55 39 19 25 15
2010.0 7 7 0 7 7 8 6 8 8 12
2050.0 5 12 9 18 26 34 37 44 47 46
2090.0 45 45 45 46 40 34 34 28 16 14
2130.0 5 6 6 4 4 13 8 13 15 23
2170.0 21 13 21 14 24 24 24 26 23 23
2210.0 35 39 43 44 45 34 23 23 12 13
2250.0 25 25 25 26 12 26 27 27 27 31
2290.0 42 44 48 58 74 79 87 80 85 76
2330.0 62 52 60 57 55 62 76 76 66 42
2370.0 40 48 45 57 54 60 70 70 71 61
2410.0 61 49 62 50 52 39 52 53 53 53
2450.0 53 42 53 52 52 54 54 54 54 55
2490.0 60 64 64 64 76 65 75 76 78 95
2530.0 95 107 110 122 126 120 117 119 107 107
2570.0 108 108 109 118 118 118 117 124 119 121
2610.0 108 108 109 109 119 109 121 120 120 131
2650.0 132 131 141 149 160 161 172 181 182 190
2690.0 181 193 192 196 203 198 203 212 211 222
2730.0 232 243 242 255 256 263 278 294 312 314
2770.0 335 361 382 411 444 493 548 630 735 865
2810.0 1023 1203 1372 1526 1629 1665 1667 1627 1597 1565
2850.0 1536 1528 1549 1606 1720 1943 2284 2651 2930 3020
2890.0 2934 2731 2507 2369 2305 2291 2293 2349 2501 2825
2930.0 3262 3861 4336 4529 4355 3894 3368 3116 3305 3976
2970.0 5095 6427 7615 7937 7334 5851 4165 2700 1796 1333
3010.0 1087 998 1001 1100 1319 1559 1773 1947 2031 1960
3050.0 1832 1638 1546 1684 2014 2286 2305 2095 1756 1393
3090.0 1347 1430 1442 1389 1239 1006 782 612 494 395
3130.0 293 240 193 168 150 150 142 141 141 121
3170.0 110 91 92 94 75 76 77 74 54 63
3210.0 55 54 43 44 34 44 27 46 37 51
3250.0 28 29 37 33 47 26 55 37 48 32
3290.0 42 25 36 49 19 25 19 38 37 8
3330.0 18 6 19 12 24 28 51 13 44 35
3370.0 19 27 48 29 8 19 11 29 24 25
3410.0 40 43 28 23 19 43 10 21 42 30
3450.0 38 12 10 35 19 44 39 26 30 23
3490.0 33 32 23 43 24 48 34 29 27 24
3530.0 19 42 44 24 33 42 16 42 35 36
3570.0 32 43 34 35 26 34 35 43 55 54
3610.0 44 43 43 39 46 37 41 46 38 53
3650.0 43 35 36 50 64 53 37 45 47 40
3690.0 45 38 39 48 38 47 45 48 46 49
3730.0 60 59 66 50 53 54 38 37 39 59
3770.0 48 50 53 48 50 40 39 39 38 39
3810.0 40 31 27 39 40 41 43 44 39 41
3850.0 40 46 42 41 30 40 49 41 39 41
3890.0 44 51 44 49 59 62 62 72 60 60
3930.0 61 61 63 62 62 66 73 73 73 73
##END=
