##TITLE=Benzenamine, N,N-diethyl-3-methyl-
##JCAMP-DX=4.24
##DATA TYPE=INFRARED SPECTRUM
##ORIGIN=Sadtler Research Labs Under US-EPA Contract
##OWNER=NIST Standard Reference Data Program
##CAS REGISTRY NO=91-67-8
##MOLFORM=C 11 H 17 N
##XUNITS=1/CM
##YUNITS=ABSORBANCE
##XFACTOR=1.0
##YFACTOR=0.000076758
##DELTAX=4.0
##FIRSTX=450.0
##LASTX=3966.0
##FIRSTY=0.019343
##MAXX=3966
##MINX=450
##MAXY=0.76758
##MINY=0
##NPOINTS=880
##XYDATA=(X++(Y..Y))
450.0 252 250 220 164 163 98 54 38 67 86
490.0 55 62 31 78 152 135 139 139 197 240
530.0 161 147 54 149 70 120 143 61 116 86
570.0 118 151 136 61 102 100 154 25 106 102
610.0 26 80 32 60 34 105 65 20 108 62
650.0 144 146 157 151 94 244 272 540 840 1238
690.0 1596 1853 1668 1338 1043 868 487 339 244 258
730.0 298 246 241 710 579 983 1347 2017 2581 2823
770.0 2514 2107 1901 1588 1467 1161 959 709 500 370
810.0 309 292 314 379 504 674 806 859 732 651
850.0 548 443 377 326 265 259 213 186 136 130
890.0 153 140 139 149 153 156 200 243 270 328
930.0 424 479 460 447 401 283 260 188 212 267
970.0 230 296 324 388 521 634 728 774 764 778
1010.0 946 1249 1555 1872 2052 2024 1823 1562 1314 1215
1050.0 1141 1167 1216 1332 1528 1679 1775 1798 1722 1686
1090.0 1731 1795 1719 1539 1349 1195 1050 1072 1100 1302
1130.0 1605 1986 2360 2443 2220 1877 1506 1264 1182 1317
1170.0 1557 1852 2103 2383 2691 2957 3207 3186 2862 2351
1210.0 1761 1265 967 797 711 693 709 821 968 1265
1250.0 1737 2451 3459 4534 5377 5659 5168 4231 3190 2316
1290.0 1797 1506 1361 1283 1281 1290 1306 1378 1486 1644
1330.0 1868 2173 2571 3026 3485 3900 4199 4288 4110 3856
1370.0 3844 4131 4542 4668 4279 3478 2694 2057 1604 1313
1410.0 1093 980 960 991 1138 1321 1593 1867 2174 2357
1450.0 2394 2336 2183 2178 2135 2153 2203 2485 3081 4145
1490.0 5469 6486 6662 6027 4775 3573 2865 2422 2140 1986
1530.0 1879 1727 1610 1394 1308 1235 1180 1180 1328 1676
1570.0 2159 2875 3688 4505 5198 6013 7160 8734 9918 10000
1610.0 8692 6552 4456 3039 2046 1388 960 663 553 425
1650.0 360 237 281 266 246 216 229 234 248 210
1690.0 269 274 227 216 272 290 274 203 220 211
1730.0 198 140 169 160 164 156 163 168 180 176
1770.0 171 147 177 168 171 182 177 200 189 201
1810.0 194 180 160 155 128 127 130 131 129 95
1850.0 100 92 79 71 66 54 78 78 77 85
1890.0 99 123 152 178 204 201 196 157 135 111
1930.0 98 90 77 64 54 50 60 67 66 67
1970.0 73 60 60 47 48 43 33 35 31 32
2010.0 36 34 28 27 35 28 28 32 33 28
2050.0 30 37 29 36 27 42 34 34 34 29
2090.0 27 23 33 22 23 20 15 22 15 15
2130.0 10 15 9 11 15 15 13 11 15 19
2170.0 14 18 14 32 47 46 37 32 32 30
2210.0 36 34 30 25 26 16 17 23 4 23
2250.0 23 16 17 20 23 27 38 35 51 50
2290.0 51 52 64 58 57 48 31 37 28 6
2330.0 30 5 8 7 28 36 28 17 35 32
2370.0 37 50 55 62 63 65 63 65 71 65
2410.0 78 78 78 78 84 80 73 70 67 66
2450.0 76 74 62 63 62 62 62 64 63 60
2490.0 58 57 53 62 59 64 85 84 86 100
2530.0 106 122 125 136 139 132 119 120 120 120
2570.0 120 122 122 122 119 137 120 123 120 110
2610.0 109 110 117 117 116 124 123 128 132 131
2650.0 139 134 152 155 158 165 185 197 207 206
2690.0 228 239 238 245 241 247 260 271 292 317
2730.0 345 371 398 399 403 399 394 393 399 410
2770.0 426 442 477 496 550 603 676 777 904 1066
2810.0 1255 1463 1648 1814 1935 1971 1988 1982 1961 1963
2850.0 1978 2016 2130 2304 2586 2966 3426 3821 4021 4001
2890.0 3795 3527 3335 3254 3283 3365 3565 3862 4309 4959
2930.0 5620 6221 6540 6397 5857 5063 4346 4018 4210 4911
2970.0 6078 7319 8391 8597 7778 6332 4648 3260 2420 1949
3010.0 1700 1589 1605 1712 1864 2015 2123 2243 2423 2633
3050.0 2814 2814 2597 2238 1848 1568 1412 1338 1294 1238
3090.0 1180 1092 986 875 755 646 547 464 385 323
3130.0 277 240 197 174 177 149 151 139 117 110
3170.0 105 103 103 87 76 78 68 57 56 48
3210.0 51 43 35 36 49 36 29 23 34 29
3250.0 36 28 26 8 39 26 26 39 43 36
3290.0 33 26 24 36 37 34 28 36 17 29
3330.0 30 17 21 16 24 13 8 26 17 18
3370.0 19 26 27 27 34 21 24 29 33 29
3410.0 7 22 46 27 28 24 16 23 38 30
3450.0 34 23 11 24 21 30 23 35 20 21
3490.0 13 34 34 22 10 22 26 26 13 11
3530.0 30 14 31 18 18 12 38 32 29 23
3570.0 27 41 32 33 35 26 41 48 34 36
3610.0 8 8 14 12 32 0 20 33 55 56
3650.0 44 63 63 76 64 36 20 14 39 34
3690.0 24 34 50 53 59 66 41 54 61 64
3730.0 53 47 44 62 14 37 46 63 63 62
3770.0 71 71 68 63 75 67 61 72 63 66
3810.0 59 60 54 47 67 67 60 51 56 67
3850.0 68 52 71 89 75 89 89 88 83 89
3890.0 84 76 84 71 79 97 105 105 98 99
3930.0 105 113 109 106 107 111 16 22 22 22
##END=
