##TITLE=Cyclohexanamine, N,N-diethyl-
##JCAMP-DX=4.24
##DATA TYPE=INFRARED SPECTRUM
##ORIGIN=Sadtler Research Labs Under US-EPA Contract
##OWNER=NIST Standard Reference Data Program
##CAS REGISTRY NO=91-65-6
##MOLFORM=C 10 H 21 N
##XUNITS=1/CM
##YUNITS=ABSORBANCE
##XFACTOR=1.0
##YFACTOR=0.000068506
##DELTAX=4.0
##FIRSTX=450.0
##LASTX=3966.0
##FIRSTY=0.004932
##MAXX=3966
##MINX=450
##MAXY=0.68506
##MINY=0
##NPOINTS=880
##XYDATA=(X++(Y..Y))
450.0 72 102 119 163 190 172 129 98 91 153
490.0 123 134 161 117 79 47 61 143 180 81
530.0 104 61 67 152 157 117 55 30 72 120
570.0 206 170 208 142 82 122 127 174 138 134
610.0 109 84 87 53 153 104 88 128 47 46
650.0 125 97 89 82 53 18 93 77 76 80
690.0 84 41 82 68 129 125 101 93 77 93
730.0 102 134 129 136 76 119 155 167 199 174
770.0 208 190 188 222 283 315 283 242 196 187
810.0 248 282 246 185 202 128 121 123 161 211
850.0 177 146 95 65 88 123 151 184 234 234
890.0 278 307 255 220 170 155 139 145 170 197
930.0 212 194 136 172 196 207 258 271 243 236
970.0 209 209 218 205 200 184 198 220 266 311
1010.0 349 358 323 310 344 372 404 438 459 518
1050.0 609 752 946 1143 1250 1288 1264 1116 967 782
1090.0 697 628 588 552 580 572 563 527 494 478
1130.0 435 449 369 338 283 235 238 297 319 396
1170.0 417 475 536 556 603 746 842 979 1093 1135
1210.0 1021 831 589 450 368 302 244 269 276 317
1250.0 374 457 521 542 439 394 306 267 268 262
1290.0 311 360 403 411 437 403 366 358 360 409
1330.0 457 524 550 596 603 570 573 563 601 705
1370.0 869 1013 1180 1225 1183 1001 757 520 363 283
1410.0 245 224 211 164 186 200 239 287 456 651
1450.0 836 962 922 886 753 674 564 479 376 325
1490.0 245 202 169 136 132 102 102 99 97 99
1530.0 85 64 84 56 95 97 91 63 21 80
1570.0 81 81 70 94 76 75 82 82 100 89
1610.0 103 94 56 73 86 60 88 49 63 48
1650.0 46 13 76 72 53 39 52 41 79 34
1690.0 54 62 24 17 59 55 54 37 49 51
1730.0 46 34 48 44 43 36 36 43 40 56
1770.0 52 35 47 44 50 61 48 55 47 46
1810.0 38 54 54 53 49 42 37 41 43 34
1850.0 51 44 43 35 43 42 51 44 46 42
1890.0 32 43 51 49 47 41 32 39 41 41
1930.0 53 53 41 44 33 39 58 65 43 53
1970.0 44 43 50 44 49 47 42 37 42 46
2010.0 42 48 33 33 41 39 47 49 46 38
2050.0 39 35 39 48 45 52 44 36 36 44
2090.0 45 49 45 41 38 43 41 49 55 42
2130.0 41 41 40 55 55 46 44 40 37 50
2170.0 56 60 52 45 45 45 45 44 57 45
2210.0 47 44 39 43 48 48 50 48 34 40
2250.0 42 41 45 40 36 31 37 38 47 44
2290.0 32 31 23 30 38 46 37 43 36 27
2330.0 35 26 47 68 39 68 60 66 103 107
2370.0 63 62 75 76 82 91 91 84 83 61
2410.0 70 76 78 84 77 68 66 69 67 73
2450.0 76 64 64 56 64 73 78 75 73 64
2490.0 71 80 77 72 72 72 64 80 88 85
2530.0 93 84 77 72 81 80 93 94 96 95
2570.0 96 110 118 127 135 139 140 140 150 145
2610.0 148 147 146 147 162 163 184 194 189 188
2650.0 193 199 222 248 256 264 257 235 228 230
2690.0 229 244 237 255 261 276 286 300 300 295
2730.0 301 302 316 317 325 332 349 354 375 400
2770.0 421 450 474 511 557 647 747 876 1039 1199
2810.0 1367 1488 1529 1486 1379 1216 1096 996 945 1012
2850.0 1253 1811 2612 3260 3436 3104 2505 2027 1762 1561
2890.0 1440 1372 1429 1615 1892 2213 2598 3121 3931 5313
2930.0 7182 8940 10000 9329 7480 5308 3558 2618 2408 2711
2970.0 3217 3715 3776 3355 2616 1885 1277 872 639 491
3010.0 419 378 325 291 265 227 214 209 203 204
3050.0 181 152 144 139 122 137 126 120 113 109
3090.0 117 123 122 111 110 95 102 103 107 109
3130.0 117 95 96 105 105 121 126 111 97 83
3170.0 82 91 98 91 92 76 72 73 75 76
3210.0 77 63 55 62 71 64 81 74 61 61
3250.0 52 62 87 78 71 72 49 43 58 60
3290.0 68 70 58 49 59 53 61 73 59 44
3330.0 44 52 63 74 55 52 41 39 55 72
3370.0 72 67 60 38 51 63 62 73 63 54
3410.0 66 59 64 69 89 69 83 62 62 67
3450.0 72 59 68 63 47 73 64 82 85 49
3490.0 33 56 65 75 85 65 57 45 48 56
3530.0 78 70 64 63 56 64 72 66 69 66
3570.0 51 69 71 63 89 72 73 66 52 61
3610.0 64 79 83 62 75 27 76 71 75 82
3650.0 53 60 44 67 60 76 72 41 61 58
3690.0 54 75 75 55 61 54 41 70 63 66
3730.0 60 36 33 60 22 68 52 57 49 49
3770.0 40 57 66 65 64 61 51 56 53 57
3810.0 55 64 35 42 58 65 68 61 50 55
3850.0 55 39 76 72 66 58 45 52 60 69
3890.0 88 89 73 62 64 74 82 88 81 74
3930.0 75 68 82 82 72 70 0 5 5 5
##END=
