##TITLE=6-Methyl-1,2,3,4-tetrahydroquinoline
##JCAMP-DX=4.24
##DATA TYPE=INFRARED SPECTRUM
##ORIGIN=Sadtler Research Labs Under US-EPA Contract
##OWNER=NIST Standard Reference Data Program
##CAS REGISTRY NO=91-61-2
##MOLFORM=C 10 H 13 N
##XUNITS=1/CM
##YUNITS=ABSORBANCE
##XFACTOR=1.0
##YFACTOR=0.000091675
##DELTAX=4.0
##FIRSTX=450.0
##LASTX=3966.0
##FIRSTY=0.026769
##MAXX=3966
##MINX=450
##MAXY=0.91675
##MINY=0
##NPOINTS=880
##XYDATA=(X++(Y..Y))
450.0 292 332 270 218 76 104 127 124 204 207
490.0 229 258 252 282 285 319 292 328 291 299
530.0 299 278 289 287 256 215 144 104 82 126
570.0 181 245 306 342 382 353 328 306 281 262
610.0 246 268 263 300 320 369 397 392 401 364
650.0 334 303 285 242 244 211 187 181 161 152
690.0 135 126 116 109 86 73 57 55 53 36
730.0 33 37 45 39 33 26 18 13 8 12
770.0 1 40 85 224 461 837 1267 1706 2356 2360
810.0 1726 1360 912 538 294 191 134 88 97 104
850.0 131 144 154 138 127 142 197 246 302 408
890.0 358 262 186 116 60 28 12 5 9 17
930.0 41 30 31 39 49 55 41 24 6 4
970.0 12 19 33 60 91 129 152 174 200 211
1010.0 195 168 143 81 44 25 22 31 48 54
1050.0 63 68 77 102 144 199 258 320 396 476
1090.0 509 506 450 332 215 152 129 127 164 238
1130.0 380 545 635 705 788 741 643 630 503 349
1170.0 305 354 474 676 867 899 837 661 408 245
1210.0 184 166 171 185 215 249 316 447 708 1225
1250.0 1961 2663 3129 3113 2632 1964 1404 1159 1285 1844
1290.0 2897 4095 4697 4559 3738 2247 1154 782 711 702
1330.0 735 842 927 1142 1555 1990 2165 2053 1742 1193
1370.0 709 435 342 300 258 253 238 229 287 320
1410.0 324 385 309 412 457 608 730 969 1337 1524
1450.0 1564 1573 1519 1617 1791 1838 1699 1522 1367 1237
1490.0 1382 1931 2971 4960 7558 9542 10000 8628 5988 3086
1530.0 1540 940 623 433 375 393 328 232 246 278
1570.0 248 261 288 333 416 435 478 485 529 575
1610.0 743 1039 1331 1523 1426 1227 752 375 236 158
1650.0 67 68 117 138 122 97 50 100 23 7
1690.0 61 80 6 23 60 113 74 15 108 154
1730.0 119 57 116 110 80 60 90 84 77 92
1770.0 47 33 70 60 63 51 34 50 32 81
1810.0 81 79 92 79 62 36 58 77 69 68
1850.0 131 179 176 164 135 69 79 75 65 61
1890.0 46 51 55 55 48 50 44 46 33 53
1930.0 58 53 52 31 39 49 48 49 49 35
1970.0 34 35 31 29 25 11 10 22 22 21
2010.0 24 19 13 20 25 20 25 20 16 19
2050.0 20 20 19 14 6 13 9 10 9 14
2090.0 12 14 16 15 12 8 4 2 1 0
2130.0 4 5 8 8 7 7 5 5 9 11
2170.0 13 13 10 5 6 5 5 3 4 7
2210.0 4 0 0 0 3 7 8 11 12 13
2250.0 12 12 13 14 11 14 12 16 16 15
2290.0 18 23 28 23 25 32 30 31 32 33
2330.0 30 19 27 45 35 50 35 34 41 36
2370.0 36 46 40 47 40 30 23 17 15 14
2410.0 13 17 18 17 17 17 20 21 25 29
2450.0 32 30 27 26 21 19 21 23 24 27
2490.0 29 29 29 32 34 34 35 42 44 53
2530.0 59 63 67 79 90 102 104 104 98 83
2570.0 62 51 42 34 35 36 36 41 43 46
2610.0 47 49 52 63 70 78 89 91 96 104
2650.0 113 119 123 128 119 117 113 116 123 135
2690.0 148 165 186 188 190 180 176 171 168 174
2730.0 194 224 261 288 308 316 311 325 355 373
2770.0 389 390 392 403 424 458 515 580 673 780
2810.0 896 1020 1151 1311 1523 1828 2230 2632 2949 3102
2850.0 3134 3035 2948 2925 2909 2919 2874 2717 2495 2267
2890.0 2122 2079 2128 2227 2293 2406 2662 3099 3826 4762
2930.0 5644 6190 6523 6667 6734 6990 6827 6357 5099 3708
2970.0 2560 1786 1417 1306 1279 1322 1433 1635 1928 2229
3010.0 2449 2534 2515 2356 2052 1699 1421 1252 1234 1313
3050.0 1333 1279 1164 913 631 454 344 291 254 232
3090.0 221 201 187 172 155 131 112 100 97 96
3130.0 99 100 90 84 64 53 40 37 31 22
3170.0 19 24 20 25 23 26 25 26 26 25
3210.0 24 25 28 25 22 23 24 26 29 29
3250.0 30 26 25 20 17 21 21 21 19 20
3290.0 15 18 18 16 13 12 18 24 18 17
3330.0 24 20 18 24 24 27 24 28 26 28
3370.0 32 30 26 32 37 32 33 44 52 61
3410.0 72 98 126 178 251 356 468 532 529 487
3450.0 381 266 170 113 88 66 59 47 44 40
3490.0 46 46 45 49 51 58 37 40 36 32
3530.0 26 27 24 19 19 23 26 16 18 20
3570.0 25 27 27 16 20 19 14 17 17 16
3610.0 5 6 13 12 14 12 15 9 17 18
3650.0 8 9 12 16 21 0 12 4 15 7
3690.0 16 15 15 5 17 6 19 10 19 23
3730.0 18 17 23 23 12 21 25 35 30 29
3770.0 20 29 19 25 25 28 20 15 17 18
3810.0 28 21 17 21 18 22 25 19 13 19
3850.0 13 23 25 21 27 9 21 40 26 24
3890.0 27 24 27 12 28 24 28 18 30 29
3930.0 37 45 25 30 36 35 24 40 31 20
##END=
