##TITLE=Benzylamine, p-butoxy-.alpha.-methyl-
##JCAMP-DX=4.24
##DATA TYPE=INFRARED SPECTRUM
##ORIGIN=Sadtler Research Labs Under US-EPA Contract
##OWNER=NIST Standard Reference Data Program
##CAS REGISTRY NO=91553-11-6
##MOLFORM=C 12 H 19 N O
##XUNITS=1/CM
##YUNITS=ABSORBANCE
##XFACTOR=1.0
##YFACTOR=0.000086426
##DELTAX=4.0
##FIRSTX=450.0
##LASTX=3966.0
##FIRSTY=0.004235
##MAXX=3966
##MINX=450
##MAXY=0.86426
##MINY=0
##NPOINTS=880
##XYDATA=(X++(Y..Y))
450.0 49 39 82 86 156 180 247 267 334 362
490.0 461 459 478 464 442 443 413 423 359 374
530.0 324 370 373 405 432 457 479 482 475 449
570.0 390 328 307 277 254 256 212 195 175 175
610.0 165 178 173 172 181 197 194 210 201 162
650.0 160 140 132 133 117 203 197 144 174 194
690.0 233 247 265 282 296 304 305 344 356 403
730.0 429 496 548 558 534 471 368 316 276 266
770.0 263 263 272 284 271 283 309 366 386 457
810.0 492 563 747 1038 1495 1991 2208 2159 1798 1459
850.0 1108 882 694 576 640 652 682 695 722 775
890.0 940 1090 1258 1440 1462 1424 1145 865 692 645
930.0 717 628 402 428 480 576 679 778 1062 1338
970.0 1150 1133 1211 1220 1214 1188 1149 1046 1098 1268
1010.0 1489 1587 1582 1621 1614 1546 1423 1308 1134 1119
1050.0 931 905 876 946 1166 1128 1076 854 613 537
1090.0 404 420 481 552 692 671 805 754 777 605
1130.0 546 491 545 559 550 565 652 843 1248 2167
1170.0 3429 3701 2935 1528 823 640 680 823 1032 1390
1210.0 1859 2470 3106 3725 4345 5099 6250 7759 9476 10000
1250.0 9166 6988 4946 3487 2688 2346 2311 2453 2582 2604
1290.0 2408 2182 1958 1785 1603 1392 1234 1065 942 815
1330.0 694 603 537 503 480 463 445 462 444 461
1370.0 482 559 711 951 1114 1169 1059 867 784 756
1410.0 741 709 590 563 540 555 537 589 601 597
1450.0 653 693 783 924 1141 1530 1679 1681 1461 1129
1490.0 1002 1328 2241 4191 7155 8833 7957 4436 1983 1010
1530.0 679 480 374 258 285 286 301 238 400 478
1570.0 599 700 789 745 833 1037 1485 2146 2941 3560
1610.0 3505 2964 2074 1582 1430 1525 1316 975 609 448
1650.0 202 225 169 147 130 118 24 134 0 50
1690.0 51 116 56 125 89 130 143 88 163 159
1730.0 125 52 142 102 110 116 167 147 143 152
1770.0 100 103 118 151 104 147 90 146 167 257
1810.0 250 263 238 162 145 73 102 61 87 50
1850.0 87 91 106 103 110 116 145 167 157 148
1890.0 122 113 102 90 85 70 67 60 52 68
1930.0 72 76 80 78 78 94 96 104 107 110
1970.0 109 112 111 106 102 91 94 97 103 105
2010.0 107 107 106 106 104 103 104 109 105 115
2050.0 111 111 106 106 96 98 96 93 92 81
2090.0 75 69 66 64 59 60 56 56 54 52
2130.0 47 44 40 38 40 35 33 32 34 31
2170.0 34 30 34 32 31 36 36 39 37 43
2210.0 42 49 48 48 51 54 57 55 62 61
2250.0 64 66 69 69 66 72 79 99 108 133
2290.0 147 172 189 201 221 249 228 217 231 185
2330.0 205 185 155 219 246 196 276 206 265 245
2370.0 220 198 190 177 131 92 71 68 73 81
2410.0 82 84 88 85 88 84 87 89 89 92
2450.0 96 101 102 107 107 110 114 118 121 117
2490.0 120 114 116 115 115 115 124 132 138 141
2530.0 141 145 142 139 141 134 127 119 114 111
2570.0 111 108 107 107 104 100 96 105 103 94
2610.0 93 94 93 95 108 99 87 97 96 94
2650.0 108 121 96 97 106 105 119 150 140 105
2690.0 128 124 134 166 176 122 154 149 160 198
2730.0 246 172 201 209 221 256 316 202 224 208
2770.0 211 250 306 188 224 225 221 324 311 243
2810.0 295 292 328 456 371 382 438 460 606 691
2850.0 748 904 1015 1201 1412 1576 1796 2013 2218 2297
2890.0 2226 2042 1919 1921 2039 2188 2315 2504 2636 2874
2930.0 2977 3178 3417 3678 3872 3699 3615 3580 3897 4092
2970.0 4172 3884 3297 2580 1919 1516 1269 1181 1031 1006
3010.0 1238 1397 1314 1076 945 1019 1116 1158 1235 1214
3050.0 1017 874 783 737 722 768 811 798 814 867
3090.0 1118 1361 1344 1074 671 502 431 376 354 320
3130.0 301 263 252 238 223 216 213 214 196 203
3170.0 198 201 194 189 183 182 184 180 181 176
3210.0 177 170 167 156 149 149 149 143 135 136
3250.0 133 126 124 115 116 108 106 109 102 109
3290.0 101 94 94 88 90 93 85 90 96 90
3330.0 106 126 101 82 88 81 78 83 79 79
3370.0 80 74 80 81 78 78 83 81 70 74
3410.0 71 83 75 77 73 74 82 81 79 74
3450.0 76 73 73 76 71 77 75 71 82 75
3490.0 73 73 70 76 92 77 93 70 77 105
3530.0 81 80 82 74 112 88 76 102 62 153
3570.0 109 97 91 83 127 103 124 63 90 64
3610.0 131 93 100 87 52 130 82 73 95 84
3650.0 144 97 103 100 58 145 75 167 50 112
3690.0 75 102 70 78 77 92 118 103 88 126
3730.0 92 137 87 144 123 101 162 57 95 104
3770.0 80 72 70 92 70 79 100 75 113 89
3810.0 79 115 63 153 75 87 105 106 103 128
3850.0 75 140 148 82 125 140 110 79 159 116
3890.0 124 102 109 168 145 100 108 140 113 114
3930.0 107 117 115 141 116 123 105 116 118 127
##END=
