##TITLE=Methanesulfonamide, N,N-dimethyl-
##JCAMP-DX=4.24
##DATA TYPE=INFRARED SPECTRUM
##ORIGIN=Sadtler Research Labs Under US-EPA Contract
##OWNER=NIST Standard Reference Data Program
##CAS REGISTRY NO=918-05-8
##MOLFORM=C 3 H 9 N O 2 S
##XUNITS=1/CM
##YUNITS=ABSORBANCE
##XFACTOR=1.0
##YFACTOR=0.000130740
##DELTAX=4.0
##FIRSTX=450.0
##LASTX=3966.0
##FIRSTY=0.000000
##MAXX=3966
##MINX=450
##MAXY=1.3074
##MINY=0
##NPOINTS=880
##XYDATA=(X++(Y..Y))
450.0 0 142 116 138 228 331 493 757 860 1018
490.0 1294 1464 1429 1674 1645 1605 1513 1802 2085 1561
530.0 1253 1121 885 620 407 281 194 180 158 153
570.0 145 141 126 142 125 152 151 128 157 145
610.0 163 140 189 164 184 219 280 393 555 816
650.0 1040 1249 1442 1551 1444 1276 1082 752 412 289
690.0 171 191 149 171 141 154 152 173 195 219
730.0 271 354 507 726 1074 1556 2125 2776 3395 3897
770.0 4177 4061 3636 3049 2419 1714 1114 687 457 338
810.0 269 246 212 198 188 176 179 180 172 171
850.0 170 177 178 191 197 208 225 227 231 252
890.0 265 279 306 339 379 436 520 631 786 1016
930.0 1321 1726 2228 2851 3598 4417 5079 5482 5712 5495
970.0 4923 4209 3365 2461 1727 1249 961 785 669 595
1010.0 546 510 486 475 455 460 464 481 512 544
1050.0 576 603 633 627 595 554 504 447 391 358
1090.0 336 324 317 317 310 317 327 353 395 474
1130.0 615 858 1273 1934 2926 4108 5325 6215 7330 8127
1170.0 6734 5626 5013 3869 2590 1725 1326 1189 1153 1142
1210.0 1113 1059 990 916 845 781 752 759 806 896
1250.0 1022 1165 1306 1418 1479 1490 1430 1331 1208 1084
1290.0 969 892 861 880 964 1082 1217 1297 1652 2071
1330.0 1973 2223 2862 3671 4853 6200 7654 8869 9856 10000
1370.0 9189 8051 6504 4870 3337 2131 1398 1058 918 881
1410.0 880 921 876 796 780 748 700 679 693 728
1450.0 781 822 865 906 932 928 889 848 794 730
1490.0 642 567 495 432 389 357 328 313 295 286
1530.0 278 270 268 262 259 256 256 251 246 239
1570.0 240 238 243 237 247 248 254 259 266 266
1610.0 267 264 259 251 245 237 225 218 202 196
1650.0 181 174 166 155 148 145 142 138 135 139
1690.0 131 131 133 136 135 134 137 141 133 132
1730.0 132 130 125 117 114 114 114 112 115 112
1770.0 115 114 111 111 112 111 114 113 113 112
1810.0 115 119 116 118 118 120 121 121 123 126
1850.0 123 122 121 119 118 117 118 117 117 115
1890.0 120 123 125 127 132 137 141 146 146 146
1930.0 144 138 137 132 131 126 122 123 123 123
1970.0 123 127 126 124 125 123 122 119 116 117
2010.0 118 116 117 118 121 120 120 120 121 120
2050.0 120 120 120 122 121 122 126 128 130 134
2090.0 136 137 138 138 137 134 133 132 130 128
2130.0 129 128 125 123 123 123 122 121 118 117
2170.0 119 117 118 120 118 115 116 115 115 115
2210.0 116 117 115 115 114 116 115 119 119 120
2250.0 121 123 124 128 129 132 137 140 141 144
2290.0 146 146 148 154 158 163 164 164 169 166
2330.0 165 162 153 150 166 139 167 152 169 160
2370.0 160 149 152 148 141 130 130 127 123 126
2410.0 127 128 124 124 123 123 119 121 121 121
2450.0 123 121 122 123 123 122 126 128 129 135
2490.0 137 143 148 159 162 168 171 172 168 169
2530.0 165 156 148 142 137 133 130 127 127 125
2570.0 125 127 129 129 130 131 128 129 129 130
2610.0 131 130 134 133 132 133 134 131 129 129
2650.0 130 132 131 130 127 130 131 132 133 131
2690.0 136 136 139 139 142 146 151 150 155 160
2730.0 164 165 168 173 175 179 181 188 194 201
2770.0 211 222 238 256 280 311 361 425 508 596
2810.0 690 779 837 872 886 871 844 825 834 869
2850.0 919 979 1037 1086 1125 1151 1169 1185 1207 1239
2890.0 1281 1321 1366 1405 1435 1457 1479 1502 1539 1585
2930.0 1650 1734 1805 1896 1977 1974 1955 1926 1818 1663
2970.0 1499 1308 1107 934 790 672 598 557 546 549
3010.0 565 575 580 583 553 515 474 425 375 336
3050.0 302 280 266 254 248 239 236 228 222 221
3090.0 213 210 208 202 198 193 189 183 182 176
3130.0 172 166 162 159 159 154 154 150 149 145
3170.0 142 141 138 134 134 136 132 129 134 127
3210.0 129 130 130 124 128 125 123 122 124 126
3250.0 120 120 121 121 121 120 124 123 124 122
3290.0 124 123 124 122 129 128 125 128 122 124
3330.0 121 124 128 131 128 128 130 132 132 126
3370.0 124 135 129 129 124 127 126 126 129 128
3410.0 128 127 128 123 125 124 121 124 126 122
3450.0 128 121 123 127 126 128 124 122 123 121
3490.0 124 125 122 126 123 121 121 124 123 125
3530.0 124 125 125 125 123 122 120 120 124 122
3570.0 121 121 124 122 123 124 115 124 119 124
3610.0 118 122 121 125 128 127 120 128 122 119
3650.0 123 118 121 114 124 119 122 123 120 122
3690.0 121 121 117 126 123 120 126 120 119 128
3730.0 126 122 118 127 118 132 126 122 124 114
3770.0 126 123 124 131 127 129 131 115 125 129
3810.0 130 122 129 130 117 120 125 120 114 117
3850.0 111 126 129 123 116 121 122 124 134 128
3890.0 134 126 129 120 138 125 118 122 123 126
3930.0 114 121 111 112 130 126 134 120 124 131
##END=
