##TITLE=Pilocarpine
##JCAMP-DX=4.24
##DATA TYPE=INFRARED SPECTRUM
##ORIGIN=Sadtler Research Labs Under US-EPA Contract
##OWNER=NIST Standard Reference Data Program
##CAS REGISTRY NO=92-13-7
##MOLFORM=C 11 H 16 N 2 O 2
##XUNITS=1/CM
##YUNITS=ABSORBANCE
##XFACTOR=1.0
##YFACTOR=0.000165747
##DELTAX=4.0
##FIRSTX=450.0
##LASTX=3966.0
##FIRSTY=0.012928
##MAXX=3966
##MINX=450
##MAXY=1.65747
##MINY=0
##NPOINTS=880
##XYDATA=(X++(Y..Y))
450.0 78 123 139 125 102 104 121 124 141 162
490.0 180 198 206 188 167 120 89 74 66 50
530.0 62 72 90 116 160 182 201 213 206 219
570.0 260 316 384 421 406 346 244 187 166 199
610.0 247 288 344 395 433 485 501 438 349 242
650.0 173 121 70 37 18 14 22 10 18 20
690.0 33 33 41 53 78 98 129 159 212 293
730.0 431 597 773 941 979 955 888 765 648 617
770.0 710 942 1161 1186 1108 836 624 600 727 818
810.0 858 917 839 776 705 597 498 398 308 256
850.0 226 238 276 347 425 530 610 599 622 623
890.0 675 633 492 432 349 300 271 257 259 283
930.0 320 369 437 489 513 529 526 515 526 534
970.0 535 517 476 435 423 438 480 553 644 793
1010.0 1014 1234 1382 1477 1504 1509 1478 1359 1176 878
1050.0 600 471 405 369 347 337 337 347 374 439
1090.0 556 780 1152 1682 2393 3035 3483 3978 3636 2963
1130.0 2399 1452 976 870 786 706 608 503 417 373
1170.0 352 342 355 369 381 395 422 464 529 621
1210.0 765 972 1244 1572 1772 1803 1835 1636 1402 1374
1250.0 1479 1694 2023 2542 3421 4915 6985 8930 10000 9983
1290.0 8623 6936 5316 4109 3243 2649 2266 1980 1759 1489
1330.0 1196 963 724 523 399 330 287 258 246 272
1370.0 344 468 659 910 1114 1154 1038 801 550 377
1410.0 313 374 465 723 1067 1520 1907 2222 2416 2280
1450.0 1931 1681 1318 1166 1120 996 919 806 731 710
1490.0 794 1023 1436 2206 3279 4378 4989 4873 4076 2894
1530.0 1995 1311 894 629 489 430 410 411 482 594
1570.0 751 967 1229 1491 1666 1827 1998 2284 2651 3154
1610.0 3528 3497 3146 2497 1746 1052 601 353 261 208
1650.0 175 156 170 170 181 205 230 289 318 391
1690.0 508 769 1179 2029 3349 5146 6755 7480 7124 5904
1730.0 4126 2812 1890 1195 695 432 316 249 219 195
1770.0 171 140 152 135 132 114 102 94 78 88
1810.0 80 80 75 71 56 49 44 45 33 27
1850.0 40 43 48 50 50 47 61 70 79 83
1890.0 81 81 72 65 53 46 37 27 19 17
1930.0 15 16 14 6 10 10 11 9 13 10
1970.0 14 16 20 23 28 30 31 39 42 49
2010.0 55 67 79 91 103 111 120 123 127 128
2050.0 126 119 112 103 90 80 66 57 46 45
2090.0 41 38 33 24 16 11 7 5 3 1
2130.0 1 0 1 2 3 2 3 3 1 3
2170.0 0 2 1 3 6 7 8 11 13 16
2210.0 21 25 31 33 36 39 40 45 49 55
2250.0 59 65 67 68 72 72 71 67 63 59
2290.0 58 55 51 47 44 43 33 32 31 28
2330.0 20 21 27 17 42 39 38 44 41 46
2370.0 53 54 63 64 60 56 56 53 51 50
2410.0 48 49 44 44 43 40 39 38 33 34
2450.0 34 33 34 31 32 30 32 31 31 34
2490.0 37 36 38 38 39 38 42 43 45 48
2530.0 54 59 68 76 85 95 105 110 114 114
2570.0 120 123 134 141 145 148 151 154 155 155
2610.0 147 137 123 107 101 99 101 101 109 108
2650.0 107 108 103 100 97 98 100 109 118 137
2690.0 163 204 269 367 519 723 924 1109 1266 1302
2730.0 1218 1068 858 641 467 352 293 267 266 286
2770.0 332 403 492 578 633 678 716 777 900 1055
2810.0 1188 1284 1286 1187 1050 881 711 600 577 645
2850.0 709 715 670 554 417 336 293 272 266 270
2890.0 280 292 309 335 371 414 451 477 490 481
2930.0 477 511 593 718 808 875 906 878 855 849
2970.0 836 752 659 571 498 445 411 400 413 454
3010.0 538 654 730 710 628 489 358 299 279 264
3050.0 250 239 230 225 233 261 289 305 312 288
3090.0 253 218 185 155 133 117 98 85 75 69
3130.0 63 61 57 54 55 54 51 47 47 49
3170.0 51 43 45 42 38 38 33 32 31 32
3210.0 31 31 30 28 29 30 28 25 26 23
3250.0 21 19 18 17 17 18 18 15 16 18
3290.0 18 15 16 16 15 15 19 17 20 14
3330.0 21 16 20 17 16 18 12 14 12 16
3370.0 13 15 21 18 22 25 33 49 72 94
3410.0 122 135 136 125 92 75 53 40 27 27
3450.0 17 18 13 15 15 13 16 10 14 13
3490.0 17 15 19 16 18 20 19 19 14 14
3530.0 16 16 15 22 20 20 24 18 22 23
3570.0 23 26 29 40 47 43 44 34 27 26
3610.0 22 28 28 26 25 32 31 31 29 23
3650.0 37 33 33 33 30 34 32 37 28 28
3690.0 32 37 28 23 23 29 27 31 30 31
3730.0 30 27 28 28 36 28 28 29 36 34
3770.0 37 32 28 25 27 30 26 41 34 36
3810.0 29 32 34 40 36 31 37 33 37 32
3850.0 33 28 31 34 41 42 32 28 41 38
3890.0 32 41 33 25 32 29 28 33 37 26
3930.0 36 33 42 20 30 31 31 41 36 43
##END=
