##TITLE=10H-Phenothiazine, 2-(trifluoromethyl)-
##JCAMP-DX=4.24
##DATA TYPE=INFRARED SPECTRUM
##ORIGIN=Sadtler Research Labs Under US-EPA Contract
##OWNER=NIST Standard Reference Data Program
##CAS REGISTRY NO=92-30-8
##MOLFORM=C 13 H 8 F 3 N S
##XUNITS=1/CM
##YUNITS=ABSORBANCE
##XFACTOR=1.0
##YFACTOR=0.000210550
##DELTAX=4.0
##FIRSTX=450.0
##LASTX=3966.0
##FIRSTY=0.007159
##MAXX=3966
##MINX=450
##MAXY=2.1055
##MINY=0
##NPOINTS=880
##XYDATA=(X++(Y..Y))
450.0 34 94 114 150 197 235 220 173 144 139
490.0 109 120 127 117 135 150 166 190 195 187
530.0 134 108 87 70 59 55 41 40 30 32
570.0 21 11 33 34 26 24 14 18 23 10
610.0 10 0 12 5 8 17 21 58 116 192
650.0 252 216 147 92 51 70 101 103 147 220
690.0 303 302 226 147 137 166 244 347 444 456
730.0 527 802 1261 1628 1273 764 391 233 240 240
770.0 167 93 70 50 46 57 75 92 153 291
810.0 465 591 469 291 154 86 85 97 109 121
850.0 151 240 384 544 606 460 276 149 84 66
890.0 68 69 70 78 96 114 155 240 454 882
930.0 1254 1051 525 212 120 98 92 95 101 107
970.0 108 107 98 88 83 84 90 91 92 94
1010.0 103 116 141 173 246 394 470 357 232 197
1050.0 213 249 290 334 425 658 951 1096 1171 1505
1090.0 1996 2097 1734 1219 901 823 878 997 1245 1618
1130.0 1969 2442 3384 4702 5132 3964 2542 1660 1487 1869
1170.0 2623 3195 2919 2021 1153 633 411 314 281 292
1210.0 335 420 587 1019 1759 2125 1495 740 436 383
1250.0 420 465 431 366 351 436 665 949 953 806
1290.0 769 814 804 772 774 875 1099 1601 2645 4983
1330.0 7909 10000 5136 1840 701 377 237 206 214 230
1370.0 277 408 557 630 574 387 290 249 205 209
1410.0 263 324 534 724 1124 1794 2554 2484 1633 962
1450.0 992 1613 2876 4377 4943 4267 3052 1948 1132 775
1490.0 651 527 516 503 649 792 714 555 436 297
1530.0 259 219 226 250 201 150 169 272 316 452
1570.0 681 722 520 312 208 219 210 228 242 288
1610.0 285 237 213 120 122 57 90 86 66 92
1650.0 162 167 116 92 88 79 103 46 110 120
1690.0 76 65 137 131 105 63 87 137 79 57
1730.0 86 135 74 74 104 135 102 93 84 54
1770.0 74 71 30 37 33 45 58 54 73 34
1810.0 32 32 15 24 33 45 32 24 53 72
1850.0 41 16 22 25 47 82 73 79 76 60
1890.0 46 29 17 15 22 30 43 57 70 42
1930.0 22 13 8 19 13 3 2 5 1 12
1970.0 8 5 6 6 7 18 17 9 7 6
2010.0 4 6 10 5 1 1 0 3 3 2
2050.0 0 3 2 5 10 6 7 9 13 15
2090.0 21 21 20 20 15 13 10 9 8 9
2130.0 9 11 12 15 17 22 23 23 23 18
2170.0 15 11 9 8 8 7 8 10 9 10
2210.0 9 11 10 11 11 12 12 13 12 12
2250.0 11 13 14 15 17 19 21 23 25 25
2290.0 26 24 23 26 26 28 28 28 23 17
2330.0 7 1 5 0 0 21 12 12 0 0
2370.0 1 5 4 10 11 11 10 9 10 10
2410.0 11 12 8 8 8 8 8 9 9 11
2450.0 12 14 13 14 13 13 15 16 14 15
2490.0 16 13 12 15 15 21 26 34 48 62
2530.0 74 74 65 51 38 30 24 19 14 11
2570.0 10 7 6 9 10 8 11 11 11 14
2610.0 17 17 11 8 4 1 1 1 2 4
2650.0 5 10 14 14 11 6 6 4 6 8
2690.0 8 11 11 9 11 11 8 7 7 6
2730.0 5 8 7 9 10 11 9 11 12 10
2770.0 8 9 9 8 5 5 6 8 9 10
2810.0 9 13 14 14 17 15 15 17 14 16
2850.0 14 13 14 15 16 19 22 25 27 27
2890.0 28 30 27 24 25 24 26 24 29 32
2930.0 33 34 37 36 40 40 42 43 44 42
2970.0 37 36 33 32 30 32 33 38 49 60
3010.0 80 102 128 149 155 143 129 126 133 147
3050.0 161 173 181 206 243 286 313 319 299 256
3090.0 202 156 121 93 76 56 44 33 23 17
3130.0 17 15 12 13 12 14 11 13 15 16
3170.0 12 15 15 15 15 15 16 13 12 12
3210.0 14 11 10 12 9 10 8 6 7 10
3250.0 12 11 9 11 10 11 12 11 12 13
3290.0 14 14 16 18 18 18 20 23 23 24
3330.0 27 30 33 33 34 37 38 40 46 49
3370.0 47 49 52 57 63 67 71 72 74 71
3410.0 69 67 69 77 98 143 220 270 269 193
3450.0 97 46 21 17 16 20 28 31 30 17
3490.0 10 4 7 2 2 2 7 3 2 1
3530.0 2 1 3 2 4 3 3 1 5 4
3570.0 8 5 7 8 10 11 12 6 3 5
3610.0 6 0 8 7 2 0 1 0 1 8
3650.0 4 5 7 9 10 2 0 4 10 3
3690.0 7 9 6 7 10 7 5 5 6 5
3730.0 4 8 6 2 9 0 2 13 11 12
3770.0 6 10 11 8 4 7 6 8 5 7
3810.0 9 5 8 9 3 6 3 5 9 8
3850.0 7 10 3 9 14 9 9 7 9 10
3890.0 15 13 14 17 12 9 14 8 11 10
3930.0 5 8 13 21 16 13 16 14 11 12
##END=
