##TITLE=1,1'-Bicyclohexyl
##JCAMP-DX=4.24
##DATA TYPE=INFRARED SPECTRUM
##ORIGIN=Sadtler Research Labs Under US-EPA Contract
##OWNER=NIST Standard Reference Data Program
##CAS REGISTRY NO=92-51-3
##MOLFORM=C 12 H 22
##XUNITS=1/CM
##YUNITS=ABSORBANCE
##XFACTOR=1.0
##YFACTOR=0.000176831
##DELTAX=4.0
##FIRSTX=450.0
##LASTX=3966.0
##FIRSTY=0.043677
##MAXX=3966
##MINX=450
##MAXY=1.76831
##MINY=0
##NPOINTS=880
##XYDATA=(X++(Y..Y))
450.0 247 177 3 111 23 102 9 43 62 26
490.0 17 144 133 96 68 86 73 92 55 74
530.0 44 68 74 79 55 100 142 160 92 112
570.0 75 77 55 72 73 97 70 98 69 83
610.0 75 86 92 94 65 56 73 69 85 62
650.0 90 77 72 72 72 73 72 79 63 72
690.0 74 69 74 85 78 68 63 75 54 46
730.0 73 73 72 67 67 66 72 76 78 78
770.0 105 89 71 42 56 71 73 51 52 48
810.0 63 32 37 29 78 77 110 80 129 173
850.0 185 164 102 94 89 100 107 125 140 163
890.0 169 170 160 129 105 93 82 81 72 65
930.0 65 70 66 65 72 73 76 48 79 110
970.0 52 67 73 80 113 123 139 138 127 116
1010.0 115 87 91 86 90 99 93 85 73 70
1050.0 64 65 54 59 56 60 60 56 58 58
1090.0 63 56 64 59 60 58 59 58 56 57
1130.0 54 54 56 57 54 55 52 53 51 56
1170.0 65 64 63 62 56 50 55 57 66 77
1210.0 74 72 60 55 54 55 53 54 57 64
1250.0 79 107 143 198 240 229 188 127 100 96
1290.0 88 78 73 73 71 72 70 62 58 58
1330.0 67 77 82 105 146 179 185 158 121 93
1370.0 84 76 77 69 60 58 48 50 54 60
1410.0 50 62 46 64 53 74 89 181 322 547
1450.0 733 853 775 578 378 257 155 93 64 52
1490.0 36 52 46 37 49 38 17 33 34 34
1530.0 22 24 48 33 29 21 35 38 56 22
1570.0 34 25 48 14 26 23 24 21 23 25
1610.0 17 29 37 24 28 16 34 28 23 25
1650.0 34 42 40 12 25 26 33 15 24 31
1690.0 22 22 39 34 28 16 16 24 21 15
1730.0 15 27 23 18 14 10 17 16 19 15
1770.0 18 22 14 10 13 17 18 14 9 15
1810.0 12 10 14 11 9 12 13 8 14 10
1850.0 9 11 11 9 9 7 12 12 10 11
1890.0 12 10 14 11 14 10 10 11 6 11
1930.0 14 13 10 7 7 10 9 7 7 7
1970.0 7 8 8 6 9 4 6 5 8 7
2010.0 9 8 6 5 8 9 8 7 4 7
2050.0 7 8 4 5 3 5 2 0 3 1
2090.0 1 0 2 1 1 2 1 2 4 5
2130.0 5 7 5 4 2 4 4 4 4 5
2170.0 3 6 5 8 9 6 8 5 6 6
2210.0 8 6 6 9 10 11 10 12 10 10
2250.0 12 11 8 9 9 9 11 8 9 7
2290.0 10 12 12 13 15 20 16 15 18 18
2330.0 21 25 26 37 32 24 28 15 46 48
2370.0 52 48 44 34 29 21 20 19 18 21
2410.0 19 22 20 20 18 18 19 15 15 16
2450.0 14 14 14 15 16 16 20 22 26 25
2490.0 26 23 21 23 22 21 23 24 24 28
2530.0 32 28 29 27 27 29 28 28 29 28
2570.0 30 33 36 42 47 52 58 62 68 72
2610.0 73 73 72 67 67 61 66 71 78 84
2650.0 87 97 107 124 137 141 141 132 118 104
2690.0 96 90 89 82 85 84 81 77 73 68
2730.0 66 62 64 62 58 58 59 62 62 66
2770.0 66 72 81 92 101 121 138 154 164 167
2810.0 166 168 175 184 197 222 266 360 553 924
2850.0 1561 2543 3815 4592 4285 3233 2020 1266 901 733
2890.0 721 809 1019 1309 1697 2177 2846 3808 5167 7048
2930.0 8907 10000 9742 8250 5899 3705 2293 1549 1126 773
2970.0 474 305 217 175 152 131 118 105 103 94
3010.0 91 89 87 87 84 82 76 68 50 47
3050.0 46 42 40 46 40 41 47 48 49 48
3090.0 53 49 48 43 42 41 40 40 41 43
3130.0 42 52 47 53 58 59 54 54 53 44
3170.0 43 43 40 34 38 38 36 36 38 34
3210.0 36 32 34 35 35 31 31 34 31 28
3250.0 30 28 31 30 28 36 38 34 38 29
3290.0 30 31 37 36 29 30 27 37 33 31
3330.0 31 33 36 30 38 37 34 28 40 42
3370.0 39 26 38 42 29 41 45 44 43 44
3410.0 37 38 43 41 33 37 41 40 44 33
3450.0 39 35 36 28 29 33 29 33 24 33
3490.0 32 35 30 23 22 23 35 31 25 19
3530.0 23 26 25 18 20 20 20 19 15 21
3570.0 14 22 17 16 16 8 5 19 12 19
3610.0 13 20 21 7 15 20 27 23 17 13
3650.0 24 31 20 20 18 12 28 37 26 12
3690.0 26 16 14 10 20 20 28 24 9 0
3730.0 35 28 19 22 27 27 41 23 14 29
3770.0 30 25 39 19 23 34 21 10 21 27
3810.0 15 24 34 26 31 30 44 13 26 28
3850.0 23 34 28 32 21 38 16 26 4 33
3890.0 38 25 34 33 30 29 54 21 16 24
3930.0 21 16 30 65 66 26 20 48 44 73
##END=
