##TITLE=Biphenyl
##JCAMP-DX=4.24
##DATA TYPE=INFRARED SPECTRUM
##ORIGIN=Sadtler Research Labs Under US-EPA Contract
##OWNER=NIST Standard Reference Data Program
##CAS REGISTRY NO=92-52-4
##MOLFORM=C 12 H 10
##XUNITS=1/CM
##YUNITS=ABSORBANCE
##XFACTOR=1.0
##YFACTOR=0.000082959
##DELTAX=4.0
##FIRSTX=450.0
##LASTX=3966.0
##FIRSTY=0.000000
##MAXX=3966
##MINX=450
##MAXY=0.82959
##MINY=0
##NPOINTS=880
##XYDATA=(X++(Y..Y))
450.0 0 25 71 35 181 310 537 451 506 803
490.0 1140 848 629 498 422 481 554 580 559 539
530.0 683 507 343 498 469 438 434 304 373 260
570.0 248 173 19 78 170 236 120 418 997 1399
610.0 1287 1488 580 163 356 256 163 166 66 305
650.0 229 403 451 793 964 1315 1503 2129 3254 4715
690.0 6460 7612 9004 8510 6912 5561 4124 3715 3946 5232
730.0 6826 8240 10000 8109 6338 4628 3086 2122 1540 1268
770.0 1345 1244 1186 1122 793 464 370 158 197 220
810.0 253 177 105 162 167 190 178 237 162 181
850.0 189 298 442 407 449 439 324 214 159 327
890.0 305 450 428 473 420 441 380 324 349 263
930.0 195 202 158 170 187 172 135 175 215 238
970.0 177 152 195 245 357 386 497 684 1082 1692
1010.0 1657 1515 1100 514 279 318 364 495 617 600
1050.0 550 501 573 717 836 884 867 768 625 427
1090.0 344 199 217 194 248 214 169 169 161 152
1130.0 117 105 75 85 84 122 102 109 142 167
1170.0 221 321 329 303 218 161 126 92 101 116
1210.0 90 116 167 118 147 201 222 203 177 203
1250.0 160 152 146 148 148 229 217 162 204 208
1290.0 164 162 178 151 175 177 187 218 229 242
1330.0 215 218 158 135 115 89 95 100 119 167
1370.0 204 199 255 225 218 215 162 159 162 192
1410.0 257 334 391 576 791 969 942 957 875 713
1450.0 598 520 546 665 933 1376 2252 3844 5162 4878
1490.0 4114 2196 641 289 213 273 306 304 298 296
1530.0 296 272 260 211 232 270 242 279 390 459
1570.0 535 649 714 905 1283 1856 2307 2364 2014 1363
1610.0 864 621 545 487 370 271 208 155 156 203
1650.0 246 248 291 287 264 275 316 329 317 286
1690.0 244 196 172 143 172 181 188 191 249 273
1730.0 285 316 349 365 389 373 360 352 304 253
1770.0 210 211 236 294 387 555 648 704 614 486
1810.0 357 316 297 276 237 178 148 137 130 142
1850.0 193 225 291 347 401 440 504 545 559 535
1890.0 480 412 337 279 205 160 183 214 271 330
1930.0 402 486 555 592 629 686 673 611 478 331
1970.0 152 127 97 97 103 116 92 93 91 90
2010.0 92 82 84 78 55 78 86 96 88 93
2050.0 96 80 81 83 87 86 76 66 71 74
2090.0 70 76 66 60 65 74 61 58 64 51
2130.0 70 70 75 76 67 67 69 81 65 84
2170.0 93 74 91 80 81 81 75 76 88 71
2210.0 74 82 66 81 83 74 77 84 79 90
2250.0 84 93 98 99 101 111 93 122 118 124
2290.0 137 137 154 185 226 281 299 328 345 331
2330.0 359 337 368 335 376 339 389 396 443 425
2370.0 329 277 234 183 124 83 80 75 62 91
2410.0 81 79 89 83 89 90 85 85 78 74
2450.0 71 67 84 72 79 69 74 71 79 71
2490.0 81 63 58 82 78 76 76 72 96 67
2530.0 70 83 81 83 75 87 87 71 61 82
2570.0 65 75 80 63 93 92 91 105 114 98
2610.0 87 92 97 105 116 116 92 70 70 78
2650.0 59 80 46 58 64 61 60 49 53 47
2690.0 40 52 38 57 51 53 41 58 43 47
2730.0 47 54 55 54 54 66 82 83 69 81
2770.0 89 69 53 66 71 53 52 76 66 58
2810.0 70 63 75 70 95 83 83 101 96 105
2850.0 106 107 125 129 168 180 199 219 206 221
2890.0 204 185 184 145 164 144 152 155 176 208
2930.0 194 204 201 212 204 185 176 191 180 165
2970.0 179 212 203 246 230 233 276 309 401 563
3010.0 737 984 1312 1859 2659 3784 4764 5143 5052 4274
3050.0 3413 3293 3743 5012 6870 7880 7947 7129 5370 4241
3090.0 3664 3234 2783 2286 1949 1590 1246 931 649 517
3130.0 377 304 269 250 248 233 233 210 215 179
3170.0 138 110 106 95 94 99 72 71 95 82
3210.0 63 78 59 48 55 56 28 76 85 63
3250.0 65 71 46 49 28 77 83 64 31 60
3290.0 35 55 78 63 75 40 43 65 54 66
3330.0 56 72 54 45 54 61 67 47 38 79
3370.0 61 85 89 47 54 69 61 49 55 77
3410.0 71 29 75 41 85 92 59 40 41 60
3450.0 81 92 63 91 58 53 61 74 47 53
3490.0 59 63 47 76 46 46 65 38 50 50
3530.0 58 99 81 89 66 60 33 27 60 51
3570.0 99 65 89 74 45 66 114 107 74 79
3610.0 66 59 64 76 88 89 56 67 95 121
3650.0 109 126 103 107 105 115 93 66 81 114
3690.0 111 131 108 94 102 82 73 74 89 102
3730.0 67 90 65 38 55 40 70 77 96 82
3770.0 61 43 59 72 95 87 45 76 57 67
3810.0 58 115 41 65 44 43 59 88 78 49
3850.0 69 53 78 49 64 71 96 105 110 129
3890.0 67 59 59 57 42 60 67 55 65 30
3930.0 25 25 33 61 69 73 22 25 25 25
##END=
