##TITLE=1,1'-Biphenyl, 4-bromo-
##JCAMP-DX=4.24
##DATA TYPE=INFRARED SPECTRUM
##ORIGIN=Sadtler Research Labs Under US-EPA Contract
##OWNER=NIST Standard Reference Data Program
##CAS REGISTRY NO=92-66-0
##MOLFORM=C 12 H 9 Br
##XUNITS=1/CM
##YUNITS=ABSORBANCE
##XFACTOR=1.0
##YFACTOR=0.000037515
##DELTAX=4.0
##FIRSTX=450.0
##LASTX=3966.0
##FIRSTY=0.000000
##MAXX=3966
##MINX=450
##MAXY=0.37515
##MINY=0
##NPOINTS=880
##XYDATA=(X++(Y..Y))
450.0 0 349 925 556 626 318 642 1110 779 1035
490.0 1109 1711 1963 1619 1511 1267 987 818 963 682
530.0 870 884 1019 1014 909 977 752 556 639 668
570.0 440 581 582 419 491 373 288 348 502 489
610.0 341 485 508 480 455 420 433 540 522 550
650.0 473 645 870 889 911 1082 1187 1522 1903 2551
690.0 3489 4219 4502 4255 3569 2777 2089 1694 1368 1039
730.0 1082 1262 1634 2368 4530 6961 8433 7189 5833 4524
770.0 3203 2073 1428 1067 912 768 742 862 868 1090
810.0 1333 1901 2668 3393 3951 3882 3424 2539 1797 1202
850.0 900 726 634 601 598 549 546 580 519 463
890.0 531 532 501 504 407 559 540 498 472 436
930.0 463 438 377 381 372 391 502 474 495 411
970.0 416 367 451 531 680 1006 1326 2059 4234 8646
1010.0 7962 4954 2106 1461 757 714 1120 1125 923 776
1050.0 740 914 1262 1619 2199 3270 5081 6097 5369 3314
1090.0 1638 1092 934 856 834 742 672 573 585 527
1130.0 452 495 515 522 499 458 488 442 490 520
1170.0 551 682 782 784 710 639 612 595 583 599
1210.0 635 744 754 790 759 686 656 629 594 618
1250.0 613 671 684 699 708 646 725 756 777 703
1290.0 643 634 635 663 689 674 697 699 732 757
1330.0 755 748 679 640 664 671 694 696 724 745
1370.0 759 834 949 998 1221 1328 1347 1333 1081 995
1410.0 787 754 720 787 808 929 1050 1302 1375 1536
1450.0 1431 1591 1520 1988 2848 5494 8192 10000 9669 8121
1490.0 5627 3052 1905 1606 1767 2057 1435 1250 969 835
1530.0 801 756 999 886 842 714 812 1031 961 841
1570.0 933 947 1046 1061 1177 1298 1831 1931 2356 1994
1610.0 1293 1175 802 855 690 806 793 933 861 912
1650.0 1033 927 871 606 808 694 714 486 585 543
1690.0 494 442 553 645 430 425 383 517 449 353
1730.0 548 436 655 446 479 479 448 456 492 507
1770.0 604 706 596 563 542 551 715 667 586 519
1810.0 441 439 423 427 402 445 343 379 354 434
1850.0 389 424 445 448 545 570 610 645 708 818
1890.0 875 867 769 686 608 544 455 487 430 479
1930.0 489 524 571 561 619 583 631 635 586 475
1970.0 385 353 353 342 356 342 353 350 347 353
2010.0 343 345 338 342 337 339 342 335 326 330
2050.0 331 335 341 332 327 336 331 331 331 335
2090.0 335 334 333 317 324 329 326 318 320 324
2130.0 321 317 333 323 329 333 336 328 315 324
2170.0 311 316 318 320 321 317 318 322 328 328
2210.0 316 317 324 308 313 326 325 332 335 335
2250.0 338 341 349 355 357 360 366 364 381 383
2290.0 401 402 427 420 431 466 479 500 488 448
2330.0 454 460 480 478 509 484 586 539 539 504
2370.0 437 436 402 383 365 341 331 329 325 315
2410.0 316 308 314 326 326 327 321 323 323 318
2450.0 313 326 316 312 310 315 317 313 311 317
2490.0 325 316 324 331 329 319 324 318 331 330
2530.0 323 321 327 338 347 341 342 338 338 343
2570.0 348 348 343 360 358 363 361 372 370 371
2610.0 363 349 347 331 320 326 327 323 319 318
2650.0 321 320 331 330 330 340 330 317 316 312
2690.0 317 329 317 312 306 298 300 299 310 307
2730.0 304 306 292 312 310 318 321 320 326 331
2770.0 338 335 343 338 330 331 348 350 350 368
2810.0 364 363 366 361 366 369 396 404 452 474
2850.0 516 531 508 513 511 495 490 492 494 482
2890.0 494 502 505 529 529 546 581 611 645 642
2930.0 637 598 575 523 529 507 516 505 506 498
2970.0 497 494 491 481 486 498 504 536 578 637
3010.0 712 837 1019 1295 1733 2406 3234 3599 3134 2323
3050.0 1928 1988 2214 2646 3510 4586 4712 3870 3056 2857
3090.0 2705 2460 2135 1809 1519 1246 1020 855 743 650
3130.0 576 536 518 505 493 480 482 485 468 462
3170.0 461 449 412 427 441 433 435 427 421 414
3210.0 415 430 422 430 422 417 429 432 436 426
3250.0 412 424 442 426 444 436 416 436 465 424
3290.0 445 437 437 441 468 444 443 436 434 470
3330.0 427 442 458 460 433 461 461 451 452 463
3370.0 470 486 473 464 460 462 474 470 442 476
3410.0 470 456 457 417 449 444 443 467 447 430
3450.0 434 448 445 418 415 438 448 420 421 398
3490.0 441 420 436 394 402 397 415 423 403 357
3530.0 430 464 422 426 366 381 457 394 383 329
3570.0 322 408 366 423 346 414 364 437 386 430
3610.0 382 393 501 324 479 468 404 423 426 430
3650.0 597 434 591 368 492 420 547 535 403 547
3690.0 423 581 371 509 440 517 485 468 404 424
3730.0 438 504 487 419 628 378 639 377 488 450
3770.0 457 485 441 481 405 399 482 470 563 461
3810.0 630 467 583 514 567 502 528 523 541 498
3850.0 505 679 503 497 453 533 467 505 495 591
3890.0 408 608 499 481 447 556 467 546 451 422
3930.0 525 346 569 470 474 385 468 617 436 547
##END=
