##TITLE=p-Hydroxybiphenyl
##JCAMP-DX=4.24
##DATA TYPE=INFRARED SPECTRUM
##ORIGIN=Sadtler Research Labs Under US-EPA Contract
##OWNER=NIST Standard Reference Data Program
##CAS REGISTRY NO=92-69-3
##MOLFORM=C 12 H 10 O
##XUNITS=1/CM
##YUNITS=ABSORBANCE
##XFACTOR=1.0
##YFACTOR=0.000093079
##DELTAX=4.0
##FIRSTX=450.0
##LASTX=3966.0
##FIRSTY=0.000000
##MAXX=3966
##MINX=450
##MAXY=0.93079
##MINY=0
##NPOINTS=880
##XYDATA=(X++(Y..Y))
450.0 0 303 317 277 455 453 388 412 383 519
490.0 458 713 783 911 1193 1166 1142 903 937 646
530.0 589 636 683 708 809 811 956 1291 1650 1403
570.0 752 425 510 406 381 349 219 270 290 287
610.0 405 332 241 302 256 258 296 339 385 372
650.0 365 430 426 423 413 561 659 694 927 1216
690.0 1722 2173 2258 2073 1690 1425 1187 989 712 582
730.0 563 617 659 775 1135 1567 1975 2585 2659 2202
770.0 1589 1210 791 597 480 485 503 597 709 800
810.0 990 1155 1428 1779 2182 2627 2770 2257 1595 1059
850.0 736 544 437 418 373 338 331 312 299 270
890.0 306 363 373 395 367 413 385 350 332 317
930.0 311 315 276 307 303 282 327 266 275 244
970.0 268 276 263 277 295 308 327 382 497 618
1010.0 575 530 408 370 343 404 461 507 494 424
1050.0 373 370 426 458 514 549 557 536 562 608
1090.0 722 941 1102 1129 1010 780 690 654 672 754
1130.0 937 1112 1178 1081 929 896 1084 1521 2876 5645
1170.0 8874 10000 9348 6619 4284 2864 1976 1488 1220 1108
1210.0 1051 1014 993 996 997 1034 1095 1242 1559 2341
1250.0 3750 5216 5930 5282 3673 2336 1648 1316 1032 810
1290.0 687 569 489 488 508 535 635 907 1250 1427
1330.0 1374 1144 901 815 768 682 599 520 473 446
1370.0 439 446 439 438 417 402 411 428 453 522
1410.0 581 748 908 1057 1009 884 721 715 726 815
1450.0 906 999 863 825 776 1001 1344 2065 3121 4149
1490.0 4571 3997 2827 1895 1546 2462 3419 4628 4150 2683
1530.0 1528 763 727 647 608 640 705 807 829 847
1570.0 934 949 1001 1004 1100 1235 1441 1545 1840 2039
1610.0 2358 2787 2432 2093 1330 894 676 558 489 439
1650.0 438 403 381 326 390 363 381 324 330 304
1690.0 294 292 292 295 233 236 224 246 238 234
1730.0 299 269 349 288 310 306 286 275 262 250
1770.0 262 278 267 275 291 303 340 321 294 290
1810.0 276 280 272 268 254 263 242 269 263 291
1850.0 290 315 331 346 385 390 416 440 449 439
1890.0 401 355 316 290 279 272 258 279 265 287
1930.0 296 315 332 325 350 350 354 336 310 283
1970.0 266 258 254 253 262 260 260 266 269 273
2010.0 263 257 252 250 248 247 246 246 245 246
2050.0 247 248 253 258 263 276 279 283 287 286
2090.0 284 278 266 249 248 248 243 236 234 235
2130.0 233 232 231 229 231 234 236 236 233 231
2170.0 234 235 241 239 236 232 236 234 237 233
2210.0 231 233 234 236 237 245 244 244 240 239
2250.0 244 247 250 252 256 265 268 269 273 273
2290.0 281 285 301 305 319 338 335 342 343 331
2330.0 338 333 340 332 337 368 400 369 352 332
2370.0 294 283 273 276 269 261 253 251 252 259
2410.0 267 279 301 330 352 363 361 335 307 289
2450.0 270 266 257 250 246 245 249 246 249 247
2490.0 254 258 263 274 278 285 281 276 271 258
2530.0 255 245 242 244 236 233 237 236 236 236
2570.0 236 239 244 248 250 256 254 257 253 248
2610.0 251 251 248 240 238 236 238 233 234 233
2650.0 231 232 239 234 232 234 230 229 228 234
2690.0 233 236 230 232 228 224 228 225 224 225
2730.0 225 224 218 227 228 230 232 232 239 239
2770.0 243 238 240 242 232 239 234 232 235 238
2810.0 230 236 236 239 237 236 250 256 267 277
2850.0 290 300 289 285 290 285 288 293 298 298
2890.0 299 301 303 318 319 324 330 343 359 357
2930.0 350 339 324 300 292 285 273 274 278 276
2970.0 278 274 276 293 313 351 397 461 542 620
3010.0 685 744 832 992 1303 1782 2218 2325 2065 1598
3050.0 1260 1196 1295 1545 1921 2154 2100 1799 1434 1223
3090.0 1111 997 887 789 687 597 531 458 431 397
3130.0 372 349 329 321 311 297 295 293 283 282
3170.0 286 275 269 273 279 271 274 269 266 269
3210.0 271 281 273 281 272 273 277 279 287 280
3250.0 276 283 284 278 288 287 285 288 298 284
3290.0 298 289 294 295 292 290 295 284 288 306
3330.0 291 301 313 316 310 326 322 321 326 317
3370.0 325 334 330 337 331 311 308 329 317 326
3410.0 325 331 323 310 325 324 331 329 333 319
3450.0 320 336 321 326 326 311 334 318 312 304
3490.0 323 319 307 309 296 303 325 319 325 273
3530.0 295 329 324 326 280 284 333 291 312 252
3570.0 232 315 278 313 268 253 284 267 301 317
3610.0 270 308 331 305 426 441 632 943 1606 2692
3650.0 3839 4149 3413 1929 938 588 410 367 310 345
3690.0 278 329 306 296 303 312 262 307 272 258
3730.0 294 275 249 303 320 229 363 302 320 316
3770.0 318 327 315 327 304 322 338 329 326 329
3810.0 373 340 335 283 316 352 333 340 316 334
3850.0 392 342 326 352 324 348 331 359 335 394
3890.0 324 367 343 316 281 378 354 344 386 329
3930.0 355 291 363 347 365 329 367 388 344 372
##END=
