##TITLE=[1,1'-Biphenyl]-4-amine
##JCAMP-DX=4.24
##DATA TYPE=INFRARED SPECTRUM
##ORIGIN=Sadtler Research Labs Under US-EPA Contract
##OWNER=NIST Standard Reference Data Program
##CAS REGISTRY NO=92-67-1
##MOLFORM=C 12 H 11 N
##XUNITS=1/CM
##YUNITS=ABSORBANCE
##XFACTOR=1.0
##YFACTOR=0.000058804
##DELTAX=4.0
##FIRSTX=450.0
##LASTX=3966.0
##FIRSTY=0.054923
##MAXX=3966
##MINX=450
##MAXY=0.58804
##MINY=0
##NPOINTS=880
##XYDATA=(X++(Y..Y))
450.0 934 752 588 998 1197 726 1177 1158 1051 1207
490.0 1301 1563 1828 2147 2107 1917 1631 1530 1280 1119
530.0 960 1109 1328 1332 1475 1420 1554 2211 2331 2051
570.0 1172 484 352 237 158 253 382 344 307 432
610.0 454 384 565 658 637 879 1135 1373 2075 2995
650.0 3856 4655 4691 4148 3752 3101 3218 3235 3452 3990
690.0 4530 4997 5169 4478 3596 2990 2599 2280 1907 1600
730.0 1389 1300 1365 1734 2486 3173 4198 5358 5488 4397
770.0 3025 2282 1605 1204 1019 840 799 907 1123 1187
810.0 1640 2173 2847 3392 3750 3362 2805 2090 1403 963
850.0 660 538 474 348 295 293 230 169 180 200
890.0 243 203 186 147 166 177 141 97 99 36
930.0 2 34 21 39 77 97 98 103 98 117
970.0 137 176 175 166 172 228 267 348 528 668
1010.0 623 521 309 266 233 279 419 461 486 404
1050.0 404 470 572 654 768 800 840 834 834 772
1090.0 682 620 495 380 407 399 518 593 683 749
1130.0 701 585 466 367 260 217 157 169 189 164
1170.0 595 1562 2403 2841 2414 1666 896 350 77 79
1210.0 38 98 90 135 226 267 415 507 614 841
1250.0 1086 1515 2263 3395 5054 6806 8068 8289 6993 5021
1290.0 2834 1250 501 250 176 125 94 80 76 90
1330.0 79 61 24 26 78 88 98 83 45 57
1370.0 32 11 20 26 18 17 11 27 54 111
1410.0 147 228 231 331 343 371 396 480 582 647
1450.0 622 630 572 621 853 1293 2045 3387 5210 7503
1490.0 8393 7370 4770 2332 1496 2448 4097 6832 7224 5754
1530.0 3765 1456 764 632 556 670 689 766 919 1086
1570.0 1200 1228 1342 1258 1359 1550 1800 2431 3158 3893
1610.0 4911 6256 7542 9677 10000 9579 7703 4752 3420 1942
1650.0 1370 1136 753 749 505 363 359 245 217 183
1690.0 194 242 150 212 220 215 173 50 105 96
1730.0 81 101 108 167 168 143 164 91 54 29
1770.0 7 18 47 66 100 150 197 194 171 150
1810.0 110 119 108 87 74 64 95 98 104 107
1850.0 139 192 222 286 347 383 476 501 490 420
1890.0 293 185 121 87 81 83 112 141 175 227
1930.0 265 294 300 289 302 305 290 230 154 90
1970.0 55 49 46 58 59 58 61 56 61 62
2010.0 54 68 64 63 74 68 81 72 71 78
2050.0 70 78 88 90 91 86 81 72 70 68
2090.0 63 63 67 65 72 68 62 55 36 31
2130.0 19 19 13 23 19 19 20 6 13 23
2170.0 18 23 32 37 39 35 35 21 14 12
2210.0 2 5 6 20 21 6 14 11 13 14
2250.0 22 30 37 45 42 53 52 56 62 62
2290.0 57 55 61 74 90 91 120 120 120 120
2330.0 118 135 136 143 133 121 130 105 132 89
2370.0 78 80 62 46 38 27 38 48 48 47
2410.0 53 61 62 61 69 72 67 68 80 80
2450.0 85 89 89 77 66 60 48 42 54 57
2490.0 47 52 53 59 57 58 76 86 97 101
2530.0 114 115 121 124 137 134 134 133 130 123
2570.0 119 119 115 113 121 119 126 129 128 129
2610.0 121 118 114 105 96 101 91 100 91 89
2650.0 87 82 82 75 93 87 89 85 79 88
2690.0 78 78 77 87 84 83 94 88 84 78
2730.0 69 79 86 79 89 108 96 93 90 95
2770.0 92 85 97 94 99 94 103 97 91 84
2810.0 86 92 94 94 92 96 94 104 96 107
2850.0 119 123 141 152 173 181 195 223 223 240
2890.0 254 249 244 232 206 197 188 177 165 163
2930.0 176 173 174 175 178 178 169 172 175 203
2970.0 231 259 311 378 484 618 775 943 1095 1224
3010.0 1330 1496 1853 2439 3449 4791 5614 5487 4425 3070
3050.0 2394 2430 2724 3330 4045 4344 4023 3339 2578 2220
3090.0 2035 1799 1553 1323 1086 852 653 534 450 420
3130.0 405 373 319 298 260 251 247 221 198 182
3170.0 158 154 153 140 155 146 148 163 186 222
3210.0 249 253 224 230 243 239 230 197 201 182
3250.0 144 136 123 111 100 107 88 103 94 103
3290.0 113 111 94 92 96 127 115 113 117 121
3330.0 137 143 150 161 174 192 209 211 247 279
3370.0 279 311 329 350 387 448 557 699 911 1133
3410.0 1173 1231 1191 1066 863 520 288 247 220 233
3450.0 253 239 273 273 311 349 386 468 517 572
3490.0 564 582 594 565 563 495 413 329 249 170
3530.0 153 126 109 88 70 57 71 66 56 68
3570.0 54 59 64 46 42 65 46 56 58 17
3610.0 43 59 26 57 31 42 19 28 40 38
3650.0 29 39 42 54 61 30 40 0 20 13
3690.0 48 34 37 47 32 46 47 7 21 23
3730.0 69 24 48 42 25 7 2 2 49 46
3770.0 42 1 6 2 2 2 2 2 2 24
3810.0 2 32 5 2 2 11 19 0 4 38
3850.0 67 65 78 23 57 104 2 45 52 13
3890.0 76 91 5 105 40 22 10 2 2 60
3930.0 23 36 69 78 17 18 13 19 41 55
##END=
