##TITLE=Phenothiazine
##JCAMP-DX=4.24
##DATA TYPE=INFRARED SPECTRUM
##ORIGIN=Sadtler Research Labs Under US-EPA Contract
##OWNER=NIST Standard Reference Data Program
##CAS REGISTRY NO=92-84-2
##MOLFORM=C 12 H 9 N S
##XUNITS=1/CM
##YUNITS=ABSORBANCE
##XFACTOR=1.0
##YFACTOR=0.000071069
##DELTAX=4.0
##FIRSTX=450.0
##LASTX=3966.0
##FIRSTY=0.001990
##MAXX=3966
##MINX=450
##MAXY=0.71069
##MINY=0
##NPOINTS=880
##XYDATA=(X++(Y..Y))
450.0 28 73 46 41 77 30 94 0 169 83
490.0 186 138 142 118 34 110 101 72 33 66
530.0 127 144 139 160 198 232 268 233 211 178
570.0 219 188 187 119 218 253 174 279 226 227
610.0 151 167 161 150 132 149 160 129 183 158
650.0 218 204 219 175 162 186 161 186 239 322
690.0 325 297 238 256 334 472 722 824 829 949
730.0 1540 2341 3408 4403 3380 2294 1380 670 350 235
770.0 197 174 135 114 103 98 79 75 81 48
810.0 65 41 46 57 88 124 144 179 124 122
850.0 103 106 106 123 123 169 210 219 212 155
890.0 119 70 63 46 52 69 86 128 132 132
930.0 89 84 55 51 50 44 64 58 80 64
970.0 89 75 66 46 57 53 53 58 58 75
1010.0 66 89 111 167 318 557 662 595 406 158
1050.0 96 85 149 196 218 215 146 147 138 150
1090.0 118 97 75 79 101 178 325 503 707 795
1130.0 730 536 326 197 162 141 140 134 112 108
1170.0 73 57 33 36 30 30 32 33 43 33
1210.0 66 73 103 122 151 175 224 330 432 616
1250.0 806 917 851 675 475 419 512 670 1053 1708
1290.0 2539 3122 3105 2595 1722 1127 700 425 240 182
1330.0 139 152 141 155 146 169 191 227 337 364
1370.0 428 429 417 351 342 378 475 862 1296 1561
1410.0 1451 1015 563 316 209 321 495 634 1232 1338
1450.0 2154 2506 5085 7977 9042 10000 6569 3789 1889 1342
1490.0 1259 908 826 639 689 554 543 541 450 391
1530.0 325 378 304 372 304 310 316 394 661 875
1570.0 1226 1347 1216 897 600 517 514 559 453 364
1610.0 250 180 127 94 91 85 99 85 92 69
1650.0 119 106 147 118 135 105 125 92 113 103
1690.0 64 58 66 70 55 52 59 83 62 53
1730.0 72 95 78 97 138 167 198 206 201 191
1770.0 177 146 103 99 97 107 118 111 110 73
1810.0 73 54 52 48 56 75 89 108 120 121
1850.0 74 53 36 63 79 120 129 133 128 98
1890.0 81 57 58 64 102 145 174 167 129 67
1930.0 39 33 20 28 20 17 14 15 21 24
1970.0 26 17 15 10 19 15 12 8 10 12
2010.0 8 11 15 15 12 14 7 10 10 6
2050.0 6 4 6 9 13 8 14 10 11 21
2090.0 21 23 17 23 25 31 36 32 33 32
2130.0 33 31 34 31 37 35 33 28 21 22
2170.0 18 23 13 19 14 11 10 12 7 9
2210.0 13 10 8 8 12 4 8 13 9 7
2250.0 9 17 14 21 14 21 25 28 32 31
2290.0 40 40 43 42 54 57 58 58 52 50
2330.0 35 30 12 40 31 39 25 24 30 12
2370.0 23 24 36 28 30 25 25 19 19 22
2410.0 23 24 23 26 20 24 21 28 36 45
2450.0 47 43 47 46 45 40 41 48 47 53
2490.0 42 43 41 41 41 52 62 73 88 103
2530.0 110 109 112 103 100 87 81 56 40 43
2570.0 34 33 33 45 40 48 45 40 35 30
2610.0 30 30 26 23 33 34 34 33 24 36
2650.0 30 30 23 24 24 24 22 19 21 25
2690.0 26 26 40 44 36 35 36 31 35 26
2730.0 36 31 29 32 33 36 25 25 31 19
2770.0 17 18 17 20 22 18 20 20 15 17
2810.0 18 28 22 28 22 35 25 34 34 39
2850.0 35 35 32 35 35 31 43 32 31 33
2890.0 33 35 25 31 13 22 25 12 11 25
2930.0 23 26 33 45 42 32 37 40 43 46
2970.0 45 52 53 58 53 69 92 118 164 237
3010.0 321 384 419 437 422 402 407 395 391 381
3050.0 415 495 642 834 982 1079 1101 1077 1002 876
3090.0 748 584 433 290 180 111 80 57 42 47
3130.0 36 35 32 36 39 34 44 39 37 41
3170.0 45 47 42 40 39 33 28 28 26 26
3210.0 30 34 20 20 20 26 26 23 30 24
3250.0 22 20 24 26 33 40 37 29 28 40
3290.0 35 34 25 43 41 34 42 41 29 39
3330.0 28 30 35 45 40 40 40 39 33 43
3370.0 34 47 46 45 47 46 53 51 50 50
3410.0 59 65 87 129 209 322 403 435 407 303
3450.0 187 112 67 61 52 51 50 53 55 68
3490.0 64 67 59 35 40 40 22 26 31 43
3530.0 35 26 31 44 47 41 37 42 28 34
3570.0 37 28 41 41 46 32 35 32 22 41
3610.0 41 41 24 30 23 29 18 23 34 36
3650.0 35 28 40 32 34 31 29 35 50 23
3690.0 4 25 41 51 35 12 26 26 29 23
3730.0 56 17 31 19 11 9 21 15 46 40
3770.0 20 29 35 33 34 22 29 17 21 26
3810.0 36 29 30 35 29 34 52 4 12 43
3850.0 45 69 53 29 50 58 33 37 55 59
3890.0 57 56 73 55 52 45 77 59 50 45
3930.0 59 66 47 58 54 65 77 68 52 54
##END=
