##TITLE=1,1'-Biphenyl, 4-nitro-
##JCAMP-DX=4.24
##DATA TYPE=INFRARED SPECTRUM
##ORIGIN=Sadtler Research Labs Under US-EPA Contract
##OWNER=NIST Standard Reference Data Program
##CAS REGISTRY NO=92-93-3
##MOLFORM=C 12 H 9 N O 2
##XUNITS=1/CM
##YUNITS=ABSORBANCE
##XFACTOR=1.0
##YFACTOR=0.000086783
##DELTAX=4.0
##FIRSTX=450.0
##LASTX=3966.0
##FIRSTY=0.000000
##MAXX=3966
##MINX=450
##MAXY=0.86783
##MINY=0
##NPOINTS=880
##XYDATA=(X++(Y..Y))
450.0 0 155 384 502 581 375 507 483 517 490
490.0 427 413 337 382 381 394 314 360 347 427
530.0 412 444 406 394 380 352 346 301 354 327
570.0 343 325 364 305 297 379 405 370 368 387
610.0 378 377 370 350 361 321 339 333 353 317
650.0 369 381 420 387 417 596 696 723 959 1191
690.0 1545 1757 1940 1816 1641 1347 1154 965 904 1041
730.0 1358 1797 2237 2710 2800 2618 1989 1305 1015 959
770.0 941 838 709 580 478 414 406 412 419 423
810.0 451 475 527 543 528 538 599 830 1317 2498
850.0 3930 4355 3450 2034 1190 801 544 437 355 347
890.0 333 340 345 346 351 338 342 305 290 266
930.0 259 266 247 255 251 256 256 275 285 287
970.0 283 272 256 245 269 287 338 401 608 923
1010.0 1088 926 587 388 322 298 309 320 313 305
1050.0 291 297 311 335 365 389 402 399 406 421
1090.0 471 542 610 665 693 703 686 644 551 442
1130.0 350 308 293 285 289 278 286 282 284 286
1170.0 303 330 374 443 497 495 422 350 309 307
1210.0 300 305 317 338 364 383 400 387 372 358
1250.0 369 369 381 417 458 511 546 591 611 643
1290.0 663 711 797 908 1016 1069 1085 1044 1028 1063
1330.0 1250 1662 2572 4382 7086 9503 10000 7670 5218 3579
1370.0 2580 1797 1304 1101 996 916 812 756 663 598
1410.0 550 501 513 488 471 502 548 643 656 730
1450.0 719 734 753 672 711 839 1218 1833 2143 2208
1490.0 1763 1234 1058 934 1089 1219 1445 1916 2790 3823
1530.0 5217 6130 6631 5992 4838 3402 2224 1848 1377 1326
1570.0 1363 1545 1533 1784 1889 2418 2799 3416 2960 2377
1610.0 1777 1239 950 651 596 468 475 461 412 433
1650.0 446 470 364 343 330 345 391 324 408 387
1690.0 331 268 352 299 277 225 244 283 227 215
1730.0 232 302 260 278 283 298 278 253 255 226
1770.0 262 266 250 262 300 346 405 388 348 268
1810.0 232 230 212 221 213 220 192 184 193 202
1850.0 190 169 180 182 206 224 216 210 214 225
1890.0 243 248 229 217 211 230 251 271 295 282
1930.0 280 264 260 258 257 238 244 253 259 249
1970.0 215 192 173 173 169 179 176 174 174 174
2010.0 170 170 176 169 170 170 169 175 174 177
2050.0 172 176 173 177 172 174 169 171 173 174
2090.0 177 173 176 173 177 174 178 176 180 184
2130.0 181 186 184 188 186 187 182 184 184 185
2170.0 187 186 191 190 191 194 199 197 202 203
2210.0 205 208 206 212 208 210 208 209 203 203
2250.0 204 206 201 204 207 206 206 206 205 200
2290.0 196 184 170 167 161 150 166 184 190 194
2330.0 202 208 216 227 191 167 211 219 259 221
2370.0 201 187 180 185 193 209 213 211 212 206
2410.0 207 207 209 207 209 208 211 208 218 222
2450.0 225 232 232 233 230 233 220 218 210 205
2490.0 198 195 195 191 191 190 188 187 193 189
2530.0 188 189 188 190 186 188 190 193 188 190
2570.0 191 191 195 194 197 194 196 199 199 200
2610.0 202 201 197 190 179 184 178 182 183 184
2650.0 181 180 181 179 180 177 180 180 184 186
2690.0 197 205 211 210 209 212 208 208 207 204
2730.0 195 193 197 194 197 194 197 198 197 192
2770.0 198 196 193 193 193 192 190 192 194 195
2810.0 195 198 197 203 209 211 215 220 229 230
2850.0 234 246 259 274 293 307 317 335 331 321
2890.0 295 280 267 259 254 251 254 248 251 252
2930.0 258 257 260 271 278 283 281 276 266 257
2970.0 247 243 241 243 239 250 257 261 275 288
3010.0 301 316 340 392 474 596 766 891 906 783
3050.0 661 650 732 864 1091 1357 1459 1364 1138 1010
3090.0 943 816 683 585 512 463 415 377 337 313
3130.0 300 288 276 270 271 269 274 257 260 248
3170.0 247 243 240 241 240 247 240 248 244 252
3210.0 250 249 246 247 247 246 241 238 242 237
3250.0 235 233 236 236 242 239 237 235 237 243
3290.0 236 237 239 243 240 240 240 239 237 241
3330.0 241 236 242 233 240 232 236 235 228 237
3370.0 234 232 229 236 231 231 236 230 223 225
3410.0 231 225 231 225 222 225 222 222 224 225
3450.0 213 223 212 211 216 214 219 218 214 200
3490.0 217 215 208 196 199 207 211 214 215 193
3530.0 212 211 201 208 198 199 208 194 208 191
3570.0 182 189 198 185 201 190 202 172 202 199
3610.0 198 198 200 192 196 216 176 167 195 206
3650.0 246 188 181 187 174 248 184 230 154 212
3690.0 225 182 187 199 188 224 202 195 219 185
3730.0 241 262 223 196 333 180 232 158 154 211
3770.0 193 190 179 220 167 201 193 264 212 278
3810.0 169 240 239 251 215 189 245 286 219 180
3850.0 267 345 192 223 239 271 199 219 218 259
3890.0 198 255 192 301 169 193 210 244 208 218
3930.0 259 215 219 219 221 219 251 223 241 216
##END=
