##TITLE=2-Propanol, 1,1,1,3,3,3-hexafluoro-
##JCAMP-DX=4.24
##DATA TYPE=INFRARED SPECTRUM
##ORIGIN=Sadtler Research Labs Under US-EPA Contract
##OWNER=NIST Standard Reference Data Program
##CAS REGISTRY NO=920-66-1
##MOLFORM=C 3 H 2 F 6 O
##XUNITS=1/CM
##YUNITS=ABSORBANCE
##XFACTOR=1.0
##YFACTOR=0.000061365
##DELTAX=4.0
##FIRSTX=450.0
##LASTX=3966.0
##FIRSTY=0.008407
##MAXX=3966
##MINX=450
##MAXY=0.61365
##MINY=0
##NPOINTS=880
##XYDATA=(X++(Y..Y))
450.0 137 217 273 298 298 236 97 114 62 63
490.0 101 120 165 162 192 224 282 243 254 299
530.0 294 239 202 187 189 176 153 169 168 140
570.0 50 64 64 32 57 59 50 44 49 62
610.0 46 63 33 53 38 9 48 35 59 44
650.0 50 40 41 60 33 150 349 895 1559 1788
690.0 1992 1648 1088 391 162 132 99 126 172 292
730.0 369 525 623 499 367 300 148 72 77 59
770.0 31 22 35 45 41 41 42 43 49 71
810.0 100 163 245 376 541 715 816 782 701 595
850.0 450 301 222 163 142 164 222 330 616 984
890.0 1228 1347 1217 941 557 249 178 146 140 126
930.0 130 126 106 113 103 110 99 91 83 88
970.0 81 79 72 81 89 89 84 79 77 89
1010.0 89 100 109 113 111 123 131 152 162 188
1050.0 226 267 308 351 387 412 457 509 610 790
1090.0 1140 1766 2766 4262 5959 7381 7977 7636 6302 4377
1130.0 2756 1918 1453 1186 1036 962 966 995 1108 1304
1170.0 1634 2110 2801 3714 4893 6299 7735 8962 9785 10000
1210.0 9060 8128 7242 6597 6536 6727 7022 7182 7159 6774
1250.0 6285 5867 5634 5598 5490 5422 5236 4559 4130 3979
1290.0 4100 4530 4968 5261 5035 4332 3398 2484 1698 1143
1330.0 822 691 662 681 743 814 920 1097 1368 1799
1370.0 2233 2559 2578 2359 1896 1385 996 807 698 643
1410.0 604 580 582 539 497 431 387 323 249 194
1450.0 154 125 108 96 67 70 64 51 36 52
1490.0 41 41 50 42 53 51 44 34 47 28
1530.0 40 21 26 17 17 25 20 19 25 16
1570.0 23 17 25 17 20 25 17 19 17 17
1610.0 19 13 22 15 27 9 28 12 20 15
1650.0 19 19 25 8 20 16 22 7 16 14
1690.0 17 15 23 27 31 35 46 38 57 55
1730.0 51 49 29 23 15 10 18 16 14 12
1770.0 17 12 12 10 24 14 25 11 16 14
1810.0 13 13 11 14 9 14 9 18 16 24
1850.0 24 29 27 19 19 12 20 10 10 8
1890.0 10 3 6 8 9 10 8 10 10 9
1930.0 13 9 13 9 7 13 13 11 14 10
1970.0 14 17 20 20 23 23 23 32 28 29
2010.0 28 28 20 20 14 18 21 22 18 16
2050.0 15 14 15 16 9 10 12 15 19 18
2090.0 19 24 22 20 21 18 21 20 27 23
2130.0 29 31 31 31 26 21 24 20 18 16
2170.0 14 16 23 18 13 20 23 25 27 32
2210.0 34 29 29 24 20 26 27 21 18 16
2250.0 19 21 24 21 20 20 26 25 29 38
2290.0 42 46 57 57 59 76 83 84 101 99
2330.0 93 79 71 67 72 85 95 70 45 28
2370.0 11 22 26 34 39 34 38 40 39 34
2410.0 39 38 41 42 39 43 38 33 35 33
2450.0 29 29 28 31 28 35 33 40 34 34
2490.0 37 35 36 33 29 31 24 24 27 23
2530.0 20 19 24 28 27 23 27 26 26 22
2570.0 21 27 28 26 28 21 23 22 25 21
2610.0 24 24 19 19 17 14 14 14 16 19
2650.0 17 17 16 18 18 22 27 17 15 18
2690.0 9 12 15 17 19 14 13 8 11 12
2730.0 6 6 10 7 13 11 7 9 6 9
2770.0 9 5 5 1 4 9 8 9 11 13
2810.0 7 10 16 9 16 13 15 10 15 11
2850.0 14 7 10 7 18 14 10 19 20 25
2890.0 23 12 18 16 17 25 25 23 35 43
2930.0 52 71 89 100 108 111 110 90 78 73
2970.0 77 76 69 77 83 79 62 49 43 24
3010.0 15 15 11 9 11 18 19 11 14 12
3050.0 7 9 15 17 6 13 15 11 19 20
3090.0 14 13 8 10 13 8 10 6 19 13
3130.0 12 10 9 7 7 6 4 3 6 7
3170.0 8 8 6 11 12 1 3 12 11 15
3210.0 7 14 9 12 10 5 12 11 2 3
3250.0 6 11 15 8 15 16 15 7 1 11
3290.0 14 21 15 5 11 18 17 8 7 11
3330.0 8 12 13 18 19 13 16 9 2 15
3370.0 11 15 10 15 23 11 14 11 15 18
3410.0 12 14 8 21 7 3 6 13 21 12
3450.0 25 14 8 9 7 9 14 22 29 18
3490.0 14 13 11 10 9 14 12 21 7 13
3530.0 11 13 16 12 30 8 14 20 9 24
3570.0 38 15 29 25 43 39 37 31 58 101
3610.0 188 320 499 701 924 1014 860 734 566 438
3650.0 399 435 469 578 603 599 495 359 238 163
3690.0 89 66 53 44 42 26 30 34 24 18
3730.0 25 12 24 25 77 0 28 11 1 17
3770.0 15 5 17 23 14 31 17 23 10 47
3810.0 22 50 9 17 13 13 24 37 25 18
3850.0 39 51 14 27 26 47 36 40 26 47
3890.0 14 38 14 44 35 19 28 14 20 36
3930.0 20 20 14 9 43 28 21 9 26 10
##END=
