##TITLE=1,4-Pentadien-3-ol
##JCAMP-DX=4.24
##DATA TYPE=INFRARED SPECTRUM
##ORIGIN=Sadtler Research Labs Under US-EPA Contract
##OWNER=NIST Standard Reference Data Program
##CAS REGISTRY NO=922-65-6
##MOLFORM=C 5 H 8 O
##XUNITS=1/CM
##YUNITS=ABSORBANCE
##XFACTOR=1.0
##YFACTOR=0.000062445
##DELTAX=4.0
##FIRSTX=450.0
##LASTX=3966.0
##FIRSTY=0.130885
##MAXX=3966
##MINX=450
##MAXY=0.62445
##MINY=0
##NPOINTS=880
##XYDATA=(X++(Y..Y))
450.0 2096 893 353 679 501 569 461 454 393 454
490.0 602 403 662 518 669 516 608 630 614 524
530.0 520 564 542 587 634 669 696 764 858 939
570.0 1011 1060 1093 1195 1240 1042 997 928 829 721
610.0 629 632 553 565 586 621 640 720 738 832
650.0 898 939 927 925 933 817 906 860 928 911
690.0 963 908 924 908 817 721 566 488 374 281
730.0 230 148 131 94 95 54 66 45 35 34
770.0 25 17 17 26 3 30 9 23 24 43
810.0 59 57 105 141 215 251 381 447 561 686
850.0 812 928 1037 1157 1252 1334 1352 1354 1320 1359
890.0 1411 1549 1844 2379 3298 4592 6277 7773 8996 9774
930.0 10000 9970 9036 7544 6206 5281 4758 4595 4803 5394
970.0 6281 7324 8321 9099 9180 9266 9657 9714 9115 8451
1010.0 7988 7631 7280 6968 6612 6171 5662 5059 4308 3648
1050.0 3146 2811 2566 2431 2352 2334 2346 2348 2421 2483
1090.0 2568 2688 2822 3014 3266 3545 3787 3962 3988 3943
1130.0 3782 3454 2953 2488 2119 1841 1664 1528 1449 1376
1170.0 1316 1251 1191 1141 1121 1196 1298 1504 1761 2094
1210.0 2436 2750 2916 3012 3178 3228 3091 2872 2647 2431
1250.0 2268 2147 2051 1989 1949 1949 1979 2036 2066 2113
1290.0 2149 2192 2212 2210 2194 2163 2151 2119 2095 2065
1330.0 2035 2014 1994 1979 1952 1909 1860 1806 1750 1685
1370.0 1579 1499 1409 1345 1321 1356 1491 1755 2132 2493
1410.0 2906 3284 3529 3493 3319 2940 2505 2078 1514 1091
1450.0 783 612 522 433 339 335 305 274 249 246
1490.0 217 235 221 204 214 227 162 179 168 146
1530.0 111 114 142 128 128 116 144 136 210 144
1570.0 161 174 214 178 199 201 203 228 245 290
1610.0 316 424 499 642 761 955 1060 1159 1173 1186
1650.0 1074 1039 758 543 412 329 247 244 179 243
1690.0 181 189 220 235 198 179 209 186 195 170
1730.0 203 226 259 218 251 265 252 233 183 166
1770.0 132 149 121 127 125 135 116 108 101 97
1810.0 87 103 107 128 170 213 319 447 619 781
1850.0 906 952 956 926 854 713 541 382 269 199
1890.0 160 141 123 121 120 123 121 132 133 131
1930.0 132 124 133 127 144 158 167 183 199 194
1970.0 212 208 213 204 179 165 151 132 112 102
2010.0 93 85 65 64 60 53 51 35 54 58
2050.0 40 36 17 3 4 17 33 54 69 85
2090.0 94 83 81 81 83 79 79 71 69 70
2130.0 66 66 70 74 61 64 68 69 68 67
2170.0 65 64 63 58 57 59 58 60 52 51
2210.0 54 58 57 54 53 56 58 59 58 56
2250.0 57 64 57 62 64 60 63 66 71 79
2290.0 88 97 102 106 113 136 137 134 144 124
2330.0 104 102 113 82 71 93 141 116 93 18
2370.0 3 3 8 21 37 45 50 52 57 56
2410.0 60 57 63 61 58 56 55 49 58 42
2450.0 39 34 35 31 25 25 22 30 25 24
2490.0 30 25 26 34 27 30 35 33 30 43
2530.0 39 34 34 35 33 44 42 44 50 49
2570.0 42 43 35 34 33 25 21 29 27 33
2610.0 43 52 60 70 70 70 79 87 72 59
2650.0 63 55 87 108 102 91 65 45 29 8
2690.0 3 12 13 14 19 27 25 27 32 31
2730.0 24 24 23 25 35 42 34 33 39 42
2770.0 36 27 20 27 30 22 40 41 53 82
2810.0 137 174 230 304 421 533 679 883 1056 1265
2850.0 1442 1640 1821 1975 2078 2113 2121 2095 2022 1908
2890.0 1773 1614 1464 1304 1156 1050 955 876 805 761
2930.0 714 677 641 613 583 577 574 628 716 841
2970.0 1038 1300 1606 1961 2210 2475 2625 2568 2529 2485
3010.0 2406 2311 2232 2159 1995 1847 1717 1526 1239 1045
3050.0 940 912 984 1112 1320 1570 1991 2458 3072 3312
3090.0 3852 4032 3467 3004 2773 2186 1515 933 603 366
3130.0 261 178 150 120 88 106 98 98 82 103
3170.0 85 81 74 74 68 61 64 39 50 27
3210.0 36 11 25 26 12 25 12 18 5 21
3250.0 17 18 23 16 30 24 46 39 67 49
3290.0 64 74 79 81 93 92 102 138 127 135
3330.0 129 81 137 98 34 53 50 51 56 58
3370.0 72 71 89 99 120 130 134 139 135 162
3410.0 150 131 118 82 87 76 70 84 64 75
3450.0 62 75 85 92 79 88 83 60 75 48
3490.0 62 89 59 57 48 77 31 39 60 41
3530.0 36 56 57 70 82 81 92 63 88 86
3570.0 113 119 106 120 114 134 143 158 181 257
3610.0 330 396 499 692 901 1345 1715 2027 2214 2233
3650.0 2251 2194 2003 1634 1326 957 686 453 314 222
3690.0 173 58 31 48 40 59 61 59 12 60
3730.0 21 20 0 17 71 3 49 3 3 3
3770.0 3 3 3 3 3 3 3 6 3 3
3810.0 3 3 3 3 3 3 3 3 13 23
3850.0 29 10 3 3 3 3 3 3 3 3
3890.0 3 3 3 3 3 3 3 11 3 4
3930.0 5 0 24 10 44 51 13 3 3 3
##END=
