##TITLE=Succinic acid diisopropyl ester
##JCAMP-DX=4.24
##DATA TYPE=INFRARED SPECTRUM
##ORIGIN=Sadtler Research Labs Under US-EPA Contract
##OWNER=NIST Standard Reference Data Program
##CAS REGISTRY NO=924-88-9
##MOLFORM=C 10 H 18 O 4
##XUNITS=1/CM
##YUNITS=ABSORBANCE
##XFACTOR=1.0
##YFACTOR=0.000057422
##DELTAX=4.0
##FIRSTX=450.0
##LASTX=3966.0
##FIRSTY=0.011197
##MAXX=3966
##MINX=450
##MAXY=0.57422
##MINY=0
##NPOINTS=880
##XYDATA=(X++(Y..Y))
450.0 195 78 96 42 9 73 60 58 229 232
490.0 114 39 200 207 144 160 267 142 197 162
530.0 267 166 251 304 359 166 260 245 303 323
570.0 372 501 326 290 340 371 297 455 420 512
610.0 268 382 418 389 431 543 521 407 318 308
650.0 389 300 362 377 320 182 322 375 396 311
690.0 421 370 350 313 390 352 313 386 383 352
730.0 316 415 417 407 290 458 372 335 354 427
770.0 414 421 405 461 427 373 513 510 554 535
810.0 612 578 664 745 926 852 801 649 525 467
850.0 443 512 563 605 688 811 769 711 637 652
890.0 573 558 549 547 481 551 598 668 702 792
930.0 914 932 959 997 1057 1145 1309 1395 1366 1264
970.0 1321 1311 1249 1160 1176 1125 1079 1011 963 820
1010.0 700 691 663 634 609 668 679 669 661 712
1050.0 658 712 697 738 731 751 791 879 928 1083
1090.0 1340 1725 2442 3687 5689 7206 7536 6448 5295 4403
1130.0 4102 4027 4094 4029 4088 4055 4215 4702 5678 6606
1170.0 6534 6071 5582 5086 4407 3957 3594 3391 3203 3335
1210.0 3448 3545 3435 3436 3331 3240 3169 3165 3185 3129
1250.0 3223 3258 3290 3206 3203 3023 2793 2525 2364 2132
1290.0 1921 1779 1708 1651 1658 1683 1701 1620 1511 1541
1330.0 1593 1732 1819 1862 1776 1674 1646 1780 1958 2326
1370.0 2702 2978 2974 2777 2474 2038 1563 1167 944 808
1410.0 790 842 931 922 957 974 956 900 895 841
1450.0 792 748 781 829 831 908 921 793 607 490
1490.0 406 371 306 330 313 271 260 282 279 277
1530.0 253 278 259 215 266 258 267 237 243 240
1570.0 235 217 244 244 240 221 246 242 221 236
1610.0 259 248 251 261 245 248 243 305 278 286
1650.0 286 313 287 288 302 340 305 314 355 357
1690.0 381 411 495 549 596 675 757 802 970 1205
1730.0 1663 2381 3684 5587 7837 9481 10000 8761 6608 4495
1770.0 2944 2068 1554 1329 1151 1002 818 702 590 514
1810.0 423 403 367 311 280 269 258 234 220 232
1850.0 214 177 191 174 171 153 162 155 141 122
1890.0 143 116 115 135 135 120 98 124 125 120
1930.0 122 142 115 111 98 119 100 97 105 104
1970.0 85 95 91 100 91 92 115 81 79 71
2010.0 87 76 91 91 100 62 80 81 78 79
2050.0 75 79 64 57 60 79 52 68 58 73
2090.0 31 48 56 55 40 44 40 31 13 30
2130.0 48 29 29 30 30 6 19 22 28 12
2170.0 34 21 12 8 25 24 17 21 32 20
2210.0 12 40 27 40 18 39 28 28 30 47
2250.0 44 42 29 45 25 24 49 47 52 36
2290.0 47 39 39 30 76 38 55 41 64 32
2330.0 44 71 97 37 46 75 30 0 15 118
2370.0 54 48 58 74 40 63 58 76 49 49
2410.0 56 49 49 56 68 54 49 54 52 32
2450.0 59 57 59 49 60 47 44 41 74 67
2490.0 56 62 58 61 48 59 77 67 57 79
2530.0 57 67 46 71 68 50 51 57 52 59
2570.0 69 69 56 41 63 47 51 52 75 54
2610.0 51 50 77 42 52 69 67 49 41 62
2650.0 52 46 55 78 45 51 43 69 52 53
2690.0 71 61 38 58 54 62 63 58 72 52
2730.0 61 72 71 78 100 99 90 47 73 72
2770.0 68 64 69 80 54 45 73 80 57 84
2810.0 72 93 73 101 115 116 116 151 124 124
2850.0 126 159 181 182 243 269 305 375 522 607
2890.0 637 593 591 520 506 530 596 591 658 777
2930.0 995 1192 1383 1535 1575 1544 1371 1169 975 956
2970.0 1124 1550 2209 3329 4160 4150 3204 2292 1597 1064
3010.0 720 526 383 265 209 171 177 106 115 100
3050.0 102 57 85 90 93 60 79 82 59 66
3090.0 80 95 65 65 92 74 48 104 83 83
3130.0 48 84 65 48 69 98 80 75 85 85
3170.0 75 73 118 105 98 88 111 88 89 73
3210.0 124 85 85 84 87 86 78 98 104 80
3250.0 62 95 65 79 82 103 76 67 77 98
3290.0 64 96 100 106 68 69 116 85 70 112
3330.0 130 75 80 77 111 65 96 113 93 60
3370.0 88 91 96 87 115 102 73 99 93 97
3410.0 74 116 108 96 53 105 88 79 95 117
3450.0 106 62 85 109 117 115 152 143 159 122
3490.0 151 140 122 102 115 80 78 58 96 70
3530.0 51 97 71 73 54 82 80 81 71 127
3570.0 110 180 243 276 205 126 111 80 35 47
3610.0 75 50 64 47 80 39 43 69 73 56
3650.0 71 55 70 47 56 63 48 48 38 39
3690.0 11 23 20 37 12 29 29 19 2 8
3730.0 26 26 14 17 7 1 3 11 29 4
3770.0 4 3 3 1 1 8 4 1 3 1
3810.0 1 1 1 3 1 1 1 1 1 1
3850.0 1 1 1 1 1 1 1 1 1 1
3890.0 1 1 1 1 1 1 1 1 1 1
3930.0 1 1 5 1 1 1 1 1 1 1
##END=
