##TITLE=Diallyl succinate
##JCAMP-DX=4.24
##DATA TYPE=INFRARED SPECTRUM
##ORIGIN=Sadtler Research Labs Under US-EPA Contract
##OWNER=NIST Standard Reference Data Program
##CAS REGISTRY NO=925-16-6
##MOLFORM=C 10 H 14 O 4
##XUNITS=1/CM
##YUNITS=ABSORBANCE
##XFACTOR=1.0
##YFACTOR=0.000106836
##DELTAX=4.0
##FIRSTX=450.0
##LASTX=3966.0
##FIRSTY=0.000000
##MAXX=3966
##MINX=450
##MAXY=1.06836
##MINY=0
##NPOINTS=880
##XYDATA=(X++(Y..Y))
450.0 0 83 296 91 178 128 232 141 251 241
490.0 192 151 100 155 96 201 169 194 196 165
530.0 194 118 171 317 297 273 390 336 332 297
570.0 275 273 285 320 285 410 329 342 307 383
610.0 379 379 375 356 335 303 330 261 239 233
650.0 232 210 205 201 192 186 153 156 130 167
690.0 130 155 119 115 136 94 119 85 109 96
730.0 141 79 63 86 84 105 91 96 86 83
770.0 102 99 98 82 82 125 146 141 163 168
810.0 176 180 198 211 230 265 286 300 303 319
850.0 301 292 306 283 309 330 328 311 319 304
890.0 321 344 392 453 537 673 847 1089 1369 1716
930.0 1977 2003 1712 1304 1006 848 792 793 861 947
970.0 1076 1261 1518 1960 2562 3132 3248 2970 2566 2329
1010.0 2129 1992 1863 1722 1548 1371 1230 1096 1014 940
1050.0 888 844 824 789 723 663 599 576 565 587
1090.0 613 662 709 758 838 942 1128 1381 1723 2080
1130.0 2460 2856 3383 4228 5467 7060 8473 9238 8915 8009
1170.0 6955 5958 5124 4423 3903 3536 3342 3282 3341 3416
1210.0 3460 3412 3285 3164 3068 3058 3077 3118 3105 3040
1250.0 2906 2764 2633 2526 2485 2498 2543 2526 2431 2242
1290.0 2015 1814 1673 1587 1545 1546 1529 1463 1314 1170
1330.0 1098 1156 1317 1484 1550 1462 1349 1311 1390 1509
1370.0 1657 1769 1747 1578 1336 1101 909 782 689 675
1410.0 710 800 932 1017 1077 1071 1062 1015 976 940
1450.0 915 883 824 711 576 468 390 324 262 239
1490.0 219 194 191 179 184 179 174 169 174 159
1530.0 158 150 150 158 148 137 132 148 139 131
1570.0 126 125 127 124 126 126 127 131 136 136
1610.0 140 147 156 161 173 182 207 247 283 355
1650.0 406 409 347 284 252 224 219 208 234 242
1690.0 250 272 317 365 413 492 574 697 785 918
1730.0 1099 1402 1870 2652 4019 5886 8182 9681 10000 8560
1770.0 6579 4622 3190 2326 1799 1431 1145 912 744 604
1810.0 509 437 380 343 309 287 263 250 244 243
1850.0 238 235 244 249 252 245 216 197 179 166
1890.0 159 147 144 136 136 133 130 133 131 126
1930.0 118 118 118 117 111 114 118 121 124 125
1970.0 130 132 129 133 131 136 136 132 127 128
2010.0 129 127 123 125 121 120 117 120 118 116
2050.0 109 110 111 111 109 103 104 102 101 104
2090.0 103 107 107 109 107 107 105 106 103 103
2130.0 102 101 98 98 97 95 94 92 91 90
2170.0 89 92 90 93 90 89 91 93 90 89
2210.0 90 87 89 88 87 86 84 86 81 81
2250.0 83 85 79 83 79 80 79 81 79 76
2290.0 79 74 71 72 69 69 75 70 78 81
2330.0 80 81 83 82 71 75 59 64 59 69
2370.0 78 76 77 75 77 82 83 82 81 79
2410.0 82 80 76 80 74 76 73 79 76 72
2450.0 74 72 70 69 66 64 68 68 69 67
2490.0 67 69 65 61 60 63 61 62 64 62
2530.0 60 59 63 57 62 59 59 59 56 58
2570.0 63 64 65 65 70 66 64 68 68 63
2610.0 71 70 69 70 72 69 72 68 69 68
2650.0 66 64 55 55 56 50 50 49 46 45
2690.0 45 46 52 50 54 54 54 58 60 59
2730.0 57 60 68 67 67 64 71 69 73 70
2770.0 72 71 63 65 77 69 73 76 77 76
2810.0 77 82 83 85 91 98 101 108 104 108
2850.0 113 116 131 139 140 157 180 197 231 285
2890.0 312 333 342 330 318 293 293 296 347 408
2930.0 524 675 828 936 1009 1069 1127 1135 1040 876
2970.0 718 630 580 563 574 592 629 622 578 523
3010.0 464 413 385 394 424 420 368 297 244 204
3050.0 183 178 164 175 174 201 227 273 336 390
3090.0 455 539 577 565 484 380 268 182 133 118
3130.0 93 89 92 77 71 66 61 68 58 60
3170.0 63 69 46 58 54 67 56 59 62 62
3210.0 59 63 55 58 52 58 51 56 51 57
3250.0 70 68 55 46 53 64 45 59 60 55
3290.0 47 50 58 56 57 53 55 45 58 65
3330.0 47 49 50 47 66 61 59 51 56 62
3370.0 60 70 67 62 68 59 51 58 65 67
3410.0 64 56 58 63 71 72 65 65 60 65
3450.0 57 69 64 81 69 75 78 93 108 114
3490.0 144 150 152 166 142 122 118 135 114 91
3530.0 92 91 91 98 79 83 110 105 107 127
3570.0 144 243 292 285 254 169 131 108 100 96
3610.0 87 102 99 89 87 92 85 85 87 103
3650.0 97 108 88 103 103 88 100 109 101 101
3690.0 110 103 105 98 107 101 106 95 118 108
3730.0 109 86 94 101 93 123 98 85 106 104
3770.0 95 106 93 102 108 82 91 101 115 121
3810.0 93 92 88 99 94 85 91 98 84 91
3850.0 78 102 113 111 118 88 100 103 118 91
3890.0 89 99 106 126 88 77 110 82 108 109
3930.0 114 102 125 125 102 91 93 102 115 109
##END=
