##TITLE=Butanedioic acid, dipropyl ester
##JCAMP-DX=4.24
##DATA TYPE=INFRARED SPECTRUM
##ORIGIN=Sadtler Research Labs Under US-EPA Contract
##OWNER=NIST Standard Reference Data Program
##CAS REGISTRY NO=925-15-5
##MOLFORM=C 10 H 18 O 4
##XUNITS=1/CM
##YUNITS=ABSORBANCE
##XFACTOR=1.0
##YFACTOR=0.000118143
##DELTAX=4.0
##FIRSTX=450.0
##LASTX=3966.0
##FIRSTY=0.002954
##MAXX=3966
##MINX=450
##MAXY=1.18143
##MINY=0
##NPOINTS=880
##XYDATA=(X++(Y..Y))
450.0 25 16 203 0 126 210 122 154 53 202
490.0 204 98 109 182 124 113 116 114 59 111
530.0 152 184 143 140 201 230 131 200 138 187
570.0 206 112 185 182 261 179 189 172 160 193
610.0 185 167 205 159 177 229 269 307 283 243
650.0 217 225 190 209 134 80 94 126 19 69
690.0 74 107 96 113 80 63 56 106 56 70
730.0 105 82 165 196 125 51 137 171 125 182
770.0 163 123 120 105 161 143 124 110 112 148
810.0 161 178 189 179 199 230 266 293 273 279
850.0 266 288 301 293 306 297 281 282 305 312
890.0 357 382 428 457 463 462 474 454 420 431
930.0 423 451 461 510 533 594 650 697 792 920
970.0 1088 1206 1265 1370 1441 1495 1510 1429 1265 1161
1010.0 972 861 841 809 785 791 836 933 1054 1129
1050.0 1245 1354 1541 1675 1617 1389 1110 864 706 640
1090.0 626 685 692 746 829 961 1088 1338 1536 1784
1130.0 2079 2462 2900 3595 4588 5715 7004 8079 8370 8246
1170.0 7216 6269 5451 4724 4208 3805 3555 3464 3444 3515
1210.0 3548 3539 3464 3329 3237 3183 3254 3291 3275 3276
1250.0 3190 3091 3014 2943 2895 2813 2737 2612 2481 2365
1290.0 2192 2005 1840 1681 1623 1635 1670 1670 1577 1452
1330.0 1332 1295 1392 1560 1700 1811 1892 1835 1609 1348
1370.0 1171 1080 1113 1123 1097 1103 1114 1087 918 762
1410.0 686 693 787 840 857 872 883 899 847 843
1450.0 785 785 812 927 914 922 800 710 594 467
1490.0 393 302 277 233 225 201 173 185 160 154
1530.0 151 109 156 107 132 121 111 128 96 107
1570.0 107 94 115 83 109 84 107 96 97 106
1610.0 86 117 97 115 123 110 129 140 119 135
1650.0 133 133 174 127 182 146 192 175 211 221
1690.0 250 272 336 417 496 585 689 840 943 1153
1730.0 1410 1806 2634 3724 5609 7915 9475 10000 8768 6769
1770.0 4887 3160 2222 1635 1216 1029 785 637 559 429
1810.0 401 336 286 272 222 221 179 183 158 151
1850.0 146 120 123 124 111 121 110 105 113 102
1890.0 109 105 98 104 93 101 84 99 96 91
1930.0 95 88 91 90 86 87 87 84 84 83
1970.0 85 84 82 82 81 84 85 85 87 83
2010.0 86 83 78 86 84 88 91 85 87 87
2050.0 92 89 86 90 83 87 83 77 84 78
2090.0 81 80 77 81 75 74 71 67 67 61
2130.0 63 58 59 58 52 58 55 50 54 48
2170.0 52 51 47 53 48 48 49 53 53 50
2210.0 53 52 46 52 46 48 49 45 45 40
2250.0 42 47 42 43 41 41 39 40 41 42
2290.0 44 43 43 49 47 56 57 56 64 62
2330.0 67 62 87 64 94 51 94 51 89 69
2370.0 69 64 50 51 43 38 39 35 41 37
2410.0 39 42 38 44 36 38 35 32 36 31
2450.0 28 31 22 24 25 23 24 22 23 22
2490.0 23 23 23 26 23 20 24 19 22 19
2530.0 19 18 16 19 20 19 20 17 23 23
2570.0 19 21 21 29 27 26 30 28 31 29
2610.0 26 31 28 29 29 29 29 24 30 27
2650.0 27 33 29 30 29 29 37 34 38 44
2690.0 42 42 39 44 43 44 49 50 50 55
2730.0 58 71 74 76 89 88 90 85 90 91
2770.0 87 91 89 91 87 85 92 90 92 98
2810.0 102 111 119 128 144 149 165 173 191 204
2850.0 223 254 296 369 448 516 576 647 782 992
2890.0 1182 1258 1216 1138 1080 1021 989 999 1077 1257
2930.0 1526 1815 2007 2132 2255 2343 2396 2469 2645 2900
2970.0 3148 3404 3611 3636 3248 2546 1827 1308 972 742
3010.0 579 472 386 330 283 248 225 203 189 176
3050.0 164 155 145 135 135 122 128 117 113 113
3090.0 106 110 105 98 97 99 92 90 86 86
3130.0 79 80 76 78 77 71 81 76 72 76
3170.0 74 75 74 64 75 66 73 65 67 60
3210.0 58 60 60 62 68 53 57 56 51 52
3250.0 52 55 56 51 55 52 53 54 49 50
3290.0 51 52 53 50 53 47 52 59 48 53
3330.0 52 51 53 52 50 56 53 50 53 58
3370.0 55 60 56 51 63 59 58 60 55 61
3410.0 59 63 69 62 60 55 57 59 60 66
3450.0 63 59 66 67 72 82 86 97 116 124
3490.0 143 134 146 118 113 94 88 75 65 58
3530.0 59 68 64 55 62 47 66 47 78 56
3570.0 90 104 129 119 107 84 72 75 53 70
3610.0 42 52 58 69 52 72 46 86 54 64
3650.0 53 65 79 68 100 35 104 38 103 58
3690.0 49 89 67 79 64 60 66 67 72 43
3730.0 66 73 52 100 28 102 32 97 61 62
3770.0 81 56 83 71 88 93 65 79 50 78
3810.0 106 59 103 67 98 74 98 92 66 91
3850.0 46 105 70 101 79 83 93 57 100 93
3890.0 98 71 68 69 66 109 68 95 84 99
3930.0 80 79 104 95 79 88 102 105 85 109
##END=
