##TITLE=2-Hexen-1-ol, (E)-
##JCAMP-DX=4.24
##DATA TYPE=INFRARED SPECTRUM
##ORIGIN=Sadtler Research Labs Under US-EPA Contract
##OWNER=NIST Standard Reference Data Program
##CAS REGISTRY NO=928-95-0
##MOLFORM=C 6 H 12 O
##XUNITS=1/CM
##YUNITS=ABSORBANCE
##XFACTOR=1.0
##YFACTOR=0.000084015
##DELTAX=4.0
##FIRSTX=450.0
##LASTX=3966.0
##FIRSTY=0.058390
##MAXX=3966
##MINX=450
##MAXY=0.84015
##MINY=0
##NPOINTS=880
##XYDATA=(X++(Y..Y))
450.0 695 222 6 297 101 164 48 99 103 153
490.0 186 36 147 0 150 306 278 180 172 198
530.0 161 105 156 169 24 107 101 88 63 65
570.0 102 60 103 158 137 117 88 105 112 76
610.0 57 151 128 147 127 126 151 148 196 124
650.0 150 128 142 125 113 51 82 115 97 103
690.0 90 126 113 150 125 131 136 154 170 164
730.0 177 183 166 178 199 242 262 262 263 276
770.0 275 251 252 259 240 289 264 219 202 191
810.0 167 151 154 156 154 176 172 186 205 232
850.0 244 270 287 309 316 341 380 384 420 433
890.0 469 498 543 583 639 734 802 895 970 1059
930.0 1152 1265 1411 1635 1942 2365 2904 3512 4224 4812
970.0 5219 5568 5707 5529 5296 5228 5152 5092 4967 4865
1010.0 4649 4342 4056 3817 3622 3397 3229 3124 3058 2963
1050.0 2803 2563 2341 2193 2095 2085 2154 2294 2387 2458
1090.0 2421 2292 2091 1854 1596 1377 1201 1079 1006 954
1130.0 937 927 910 894 865 841 840 864 893 931
1170.0 962 1003 1027 1028 1039 1023 1006 986 981 979
1210.0 978 977 966 947 917 902 863 831 797 780
1250.0 766 784 784 808 827 838 842 823 822 823
1290.0 829 846 867 876 888 911 915 931 949 978
1330.0 1021 1096 1185 1215 1251 1300 1348 1427 1624 1883
1370.0 2222 2633 3022 3251 3266 3134 2784 2318 1890 1562
1410.0 1307 1117 986 892 849 849 908 981 1075 1166
1450.0 1276 1370 1448 1473 1433 1348 1201 1024 818 659
1490.0 531 405 343 273 233 196 180 152 137 121
1530.0 110 99 84 85 90 84 79 70 57 62
1570.0 55 51 48 55 54 57 54 56 51 47
1610.0 58 53 56 59 67 68 81 89 102 121
1650.0 156 205 301 395 491 533 511 437 305 187
1690.0 127 110 113 147 193 240 251 261 277 217
1730.0 183 199 215 265 309 315 312 271 233 225
1770.0 198 175 163 145 131 121 112 111 105 92
1810.0 75 67 54 47 44 34 40 29 30 32
1850.0 33 27 27 21 22 18 12 12 12 10
1890.0 17 11 18 19 14 13 17 10 11 12
1930.0 8 6 12 17 18 23 27 29 29 37
1970.0 38 41 45 47 53 56 54 58 57 58
2010.0 62 60 62 60 54 60 64 60 54 51
2050.0 44 45 41 39 37 34 35 35 37 31
2090.0 30 28 19 24 18 16 11 8 7 10
2130.0 11 12 14 12 10 14 13 16 12 10
2170.0 12 11 15 14 15 14 9 10 12 6
2210.0 11 11 11 11 9 10 13 16 15 14
2250.0 22 13 16 20 22 21 25 24 26 28
2290.0 23 34 30 32 26 22 19 5 2 3
2330.0 2 2 2 8 26 10 2 9 11 33
2370.0 59 71 78 77 73 62 57 51 50 45
2410.0 48 42 46 40 41 40 39 43 36 40
2450.0 43 37 33 40 44 39 42 43 42 39
2490.0 42 44 50 51 51 54 54 47 46 51
2530.0 57 56 60 64 66 71 72 72 66 77
2570.0 84 74 73 80 83 82 88 90 93 95
2610.0 95 99 105 104 106 107 110 110 115 118
2650.0 128 135 139 154 166 176 175 181 192 195
2690.0 200 204 211 220 231 238 241 244 245 254
2730.0 268 282 302 323 337 344 341 341 353 355
2770.0 366 375 394 420 448 468 498 521 551 575
2810.0 606 653 720 808 919 1080 1296 1571 1920 2346
2850.0 2826 3305 3831 4430 5059 5682 6218 6755 7018 6748
2890.0 6441 6040 5528 5338 5400 5721 6121 6639 7251 7953
2930.0 8661 9302 9846 10000 9641 9241 8773 8422 8552 9274
2970.0 9860 9186 8479 7403 5576 4130 3288 2777 2455 2238
3010.0 2086 2007 1944 1874 1791 1694 1563 1417 1267 1104
3050.0 953 813 697 592 513 456 398 356 336 313
3090.0 284 261 257 223 214 208 198 184 187 170
3130.0 154 147 145 136 117 127 117 106 102 108
3170.0 105 87 95 85 92 93 96 89 85 73
3210.0 74 50 56 45 47 37 37 40 24 31
3250.0 14 24 19 21 5 8 30 32 3 30
3290.0 28 27 27 35 17 25 20 14 10 6
3330.0 24 23 36 50 46 43 26 52 44 49
3370.0 43 52 60 51 65 69 66 64 47 51
3410.0 62 67 67 73 77 71 50 65 78 72
3450.0 63 68 65 76 81 75 76 54 69 71
3490.0 46 44 81 91 65 55 79 54 67 70
3530.0 60 84 76 62 79 95 66 97 74 109
3570.0 106 96 124 115 99 123 127 144 148 138
3610.0 198 203 227 255 323 383 507 616 738 863
3650.0 977 1059 1139 1228 1233 1152 947 807 599 486
3690.0 387 308 276 207 176 178 184 130 118 104
3730.0 85 136 96 62 80 80 114 91 97 76
3770.0 97 86 83 132 94 84 87 74 115 104
3810.0 98 74 83 105 110 93 114 130 109 138
3850.0 94 90 92 137 136 132 121 111 112 114
3890.0 132 123 121 143 122 109 127 95 99 78
3930.0 100 106 146 96 102 130 33 72 100 45
##END=
