##TITLE=3-Hexen-1-ol, (Z)-
##JCAMP-DX=4.24
##DATA TYPE=INFRARED SPECTRUM
##ORIGIN=Sadtler Research Labs Under US-EPA Contract
##OWNER=NIST Standard Reference Data Program
##CAS REGISTRY NO=928-96-1
##MOLFORM=C 6 H 12 O
##XUNITS=1/CM
##YUNITS=ABSORBANCE
##XFACTOR=1.0
##YFACTOR=0.000082117
##DELTAX=4.0
##FIRSTX=450.0
##LASTX=3966.0
##FIRSTY=0.021679
##MAXX=3966
##MINX=450
##MAXY=0.82117
##MINY=0
##NPOINTS=880
##XYDATA=(X++(Y..Y))
450.0 264 289 138 250 136 187 134 226 202 117
490.0 86 55 171 167 311 217 125 154 134 107
530.0 32 146 49 105 166 142 156 216 205 290
570.0 308 339 386 413 472 364 358 385 311 267
610.0 221 188 159 160 153 113 129 145 157 168
650.0 214 231 257 303 355 379 440 560 612 744
690.0 941 1102 1331 1493 1646 1693 1740 1692 1619 1471
730.0 1281 1138 987 822 710 572 471 401 336 289
770.0 260 248 243 242 270 269 298 315 297 291
810.0 281 281 289 293 314 312 331 337 364 396
850.0 470 565 696 810 879 910 877 831 774 748
890.0 721 726 686 647 570 497 420 337 288 259
930.0 252 244 262 287 331 386 449 550 632 730
970.0 820 923 1003 1089 1166 1264 1407 1575 1763 1937
1010.0 2116 2324 2558 2838 3298 3978 4971 6138 7216 8016
1050.0 8399 8149 7340 6346 5315 4332 3451 2713 2116 1626
1090.0 1295 1064 891 779 703 660 617 587 568 558
1130.0 538 537 534 535 552 571 610 648 704 767
1170.0 821 874 923 930 926 916 889 868 855 839
1210.0 830 824 821 814 815 816 811 808 772 759
1250.0 756 738 747 768 779 785 799 828 858 887
1290.0 920 983 1061 1126 1147 1151 1109 1007 873 789
1330.0 748 742 746 751 767 787 820 876 985 1167
1370.0 1419 1703 1968 2145 2197 2136 1983 1770 1569 1361
1410.0 1207 1081 986 890 855 860 904 974 1025 1054
1450.0 1116 1178 1240 1264 1235 1242 1177 1056 918 792
1490.0 612 465 362 274 237 200 124 122 120 84
1530.0 65 43 79 48 45 18 46 38 72 14
1570.0 27 7 63 7 23 28 26 26 28 38
1610.0 29 61 68 73 71 101 133 166 172 237
1650.0 237 328 285 255 265 255 213 221 173 227
1690.0 166 173 179 194 143 124 131 122 116 104
1730.0 102 92 127 95 115 121 156 154 166 158
1770.0 137 135 83 73 44 60 38 34 26 31
1810.0 17 17 18 10 21 15 22 3 23 14
1850.0 13 13 13 3 9 9 12 13 17 23
1890.0 26 22 25 29 35 39 42 51 43 48
1930.0 45 45 42 40 40 44 35 34 41 30
1970.0 37 41 39 41 39 37 41 45 44 49
2010.0 51 56 62 68 76 82 95 95 101 110
2050.0 112 113 111 111 105 108 103 98 91 87
2090.0 81 82 87 83 81 83 75 78 70 68
2130.0 66 67 70 70 63 66 67 70 71 68
2170.0 72 73 72 75 77 71 74 72 72 76
2210.0 73 73 80 84 82 88 90 92 92 91
2250.0 92 96 94 94 98 94 92 86 84 71
2290.0 68 47 36 29 15 3 20 21 27 60
2330.0 49 68 82 99 44 59 4 44 61 74
2370.0 98 101 97 86 85 107 122 126 124 119
2410.0 124 122 123 124 132 128 127 126 126 124
2450.0 122 124 117 117 109 114 120 116 111 112
2490.0 116 119 116 109 107 113 114 117 117 118
2530.0 113 114 112 111 110 112 109 107 111 114
2570.0 115 120 119 112 119 117 116 123 124 128
2610.0 132 132 131 134 134 141 139 142 152 152
2650.0 159 159 164 162 170 165 181 193 197 201
2690.0 215 219 225 250 260 273 293 302 320 339
2730.0 370 380 392 406 426 428 434 437 438 446
2770.0 453 468 474 485 491 501 521 538 549 584
2810.0 618 659 722 799 892 998 1142 1311 1514 1775
2850.0 2093 2488 2971 3533 4153 4795 5426 6086 6653 6790
2890.0 6699 6568 6331 6007 5850 5870 5967 6071 6165 6298
2930.0 6477 6827 7337 7623 7676 7828 7950 8103 8535 9328
2970.0 9977 10000 9517 8488 6979 5502 4478 3917 3791 3932
3010.0 4205 4405 4290 4049 3656 3039 2387 1797 1316 967
3050.0 723 561 480 420 390 371 366 345 320 292
3090.0 265 239 212 209 195 185 171 163 158 165
3130.0 157 151 142 148 153 150 151 141 132 146
3170.0 139 127 123 128 115 97 98 95 87 79
3210.0 74 69 55 62 65 61 40 52 56 32
3250.0 43 45 53 58 39 50 47 45 41 55
3290.0 53 58 41 55 32 48 46 39 47 39
3330.0 33 37 21 31 28 29 19 35 30 19
3370.0 30 31 20 32 29 26 30 28 28 42
3410.0 35 42 47 34 41 56 51 33 45 53
3450.0 41 44 27 38 45 50 61 33 56 56
3490.0 64 56 25 45 42 45 64 43 24 15
3530.0 27 11 46 31 36 34 51 42 26 27
3570.0 29 41 51 93 56 80 89 115 165 213
3610.0 338 441 531 577 586 647 558 553 580 599
3650.0 703 839 968 1076 1220 1269 1179 1056 914 710
3690.0 477 316 261 185 130 104 90 86 19 104
3730.0 79 39 36 69 81 85 76 60 61 52
3770.0 24 46 16 3 22 34 8 25 24 15
3810.0 15 3 16 9 25 7 32 54 33 11
3850.0 19 63 47 42 21 6 3 22 3 3
3890.0 14 12 10 30 43 88 12 3 3 3
3930.0 50 18 28 2 6 0 53 0 6 9
##END=
