##TITLE=Benzaldehyde, 2,5-dimethoxy-
##JCAMP-DX=4.24
##DATA TYPE=INFRARED SPECTRUM
##ORIGIN=Sadtler Research Labs Under US-EPA Contract
##OWNER=NIST Standard Reference Data Program
##CAS REGISTRY NO=93-02-7
##MOLFORM=C 9 H 10 O 3
##XUNITS=1/CM
##YUNITS=ABSORBANCE
##XFACTOR=1.0
##YFACTOR=0.000087988
##DELTAX=4.0
##FIRSTX=450.0
##LASTX=3966.0
##FIRSTY=0.005631
##MAXX=3966
##MINX=450
##MAXY=0.87988
##MINY=0
##NPOINTS=880
##XYDATA=(X++(Y..Y))
450.0 64 109 86 62 56 16 1 35 78 51
490.0 97 60 56 46 98 88 81 83 67 99
530.0 155 164 71 121 135 200 267 236 314 346
570.0 386 428 436 432 399 476 393 340 321 239
610.0 299 269 348 388 504 575 577 593 468 333
650.0 271 179 173 118 156 218 140 210 227 424
690.0 696 1124 1561 1681 1697 1279 940 646 387 314
730.0 195 191 200 129 182 202 181 180 191 203
770.0 217 250 317 341 426 508 575 730 814 874
810.0 926 1002 963 782 622 505 355 241 212 199
850.0 170 189 188 264 314 398 500 508 446 411
890.0 416 380 329 240 233 212 240 260 268 328
930.0 436 454 462 426 375 323 267 243 235 216
970.0 229 263 281 349 397 447 489 544 574 652
1010.0 768 928 1111 1345 1624 2005 2587 3335 4055 4394
1050.0 4200 3501 2477 1564 931 624 459 387 359 330
1090.0 328 332 340 340 332 325 342 348 356 385
1130.0 478 657 937 1428 2041 2603 2892 2812 2463 2008
1170.0 1674 1569 1611 1605 1539 1393 1358 1478 1817 2594
1210.0 3878 5608 7503 7414 6865 5236 3453 2430 1975 1916
1250.0 2136 2642 3382 4328 5170 6052 6197 5610 4465 3327
1290.0 2562 2166 2040 2006 1904 1740 1458 1101 807 584
1330.0 439 356 327 311 296 287 298 322 361 397
1370.0 443 576 906 1749 2911 3451 3323 2640 1629 1290
1410.0 1523 1960 2403 2614 2577 2301 2077 2021 2016 1956
1450.0 1856 1756 1799 2068 2494 2766 3106 3537 4340 5915
1490.0 8264 10000 9933 8134 5714 3274 1935 1213 843 621
1530.0 480 405 352 325 280 268 279 304 332 381
1570.0 482 572 671 694 690 647 599 565 567 594
1610.0 613 589 531 445 376 321 296 275 261 279
1650.0 284 327 317 354 390 449 517 622 828 1294
1690.0 2132 3631 5762 6946 7104 6506 4476 2825 2023 1742
1730.0 1550 1329 923 586 427 346 273 237 217 222
1770.0 233 238 216 184 162 143 147 144 139 139
1810.0 126 120 108 96 89 83 74 71 69 83
1850.0 84 90 100 108 107 112 106 101 95 83
1890.0 78 71 65 63 54 48 48 53 54 48
1930.0 54 51 60 70 82 92 105 104 115 120
1970.0 110 109 109 97 97 99 99 103 103 107
2010.0 101 108 103 96 90 95 101 119 125 145
2050.0 150 152 156 146 142 129 118 106 93 82
2090.0 62 50 45 38 29 22 19 23 17 18
2130.0 16 17 27 28 29 32 32 33 33 30
2170.0 32 22 27 27 26 20 20 19 18 20
2210.0 20 11 16 17 18 18 19 19 30 34
2250.0 30 35 30 32 33 32 33 32 45 51
2290.0 62 62 63 66 63 62 66 49 54 45
2330.0 53 42 43 42 49 37 43 54 52 54
2370.0 48 30 27 27 16 11 6 7 7 1
2410.0 7 7 8 9 10 13 9 11 12 12
2450.0 18 18 18 18 30 30 29 36 32 33
2490.0 34 29 29 30 36 40 48 41 48 45
2530.0 49 41 38 32 30 36 30 31 30 31
2570.0 36 35 36 31 33 36 35 37 37 37
2610.0 36 36 36 31 36 35 37 42 45 40
2650.0 46 42 42 42 42 48 48 60 66 74
2690.0 94 115 144 179 212 229 230 207 178 143
2730.0 136 148 176 232 328 426 478 472 404 312
2770.0 233 185 166 165 159 172 189 209 225 257
2810.0 296 342 379 447 531 671 891 1196 1546 1852
2850.0 2108 2365 2566 2527 2264 1804 1265 888 700 634
2890.0 604 621 664 738 827 946 1071 1167 1203 1177
2930.0 1166 1212 1357 1575 1836 2016 2100 2060 1889 1588
2970.0 1289 1058 879 755 693 693 759 941 1235 1583
3010.0 1730 1621 1307 875 575 439 392 384 389 389
3050.0 383 372 371 371 360 361 371 375 370 347
3090.0 323 278 236 205 174 149 138 129 107 96
3130.0 82 67 59 54 49 51 38 46 39 40
3170.0 43 34 40 31 30 32 21 30 22 34
3210.0 28 16 17 22 16 23 23 12 10 25
3250.0 21 19 10 11 10 17 22 17 16 16
3290.0 24 18 24 16 22 24 16 9 23 18
3330.0 28 23 29 16 37 34 29 37 35 42
3370.0 65 62 86 111 121 135 135 118 92 70
3410.0 59 53 35 34 41 46 41 41 29 24
3450.0 33 22 20 23 14 16 19 9 11 19
3490.0 30 12 11 11 19 9 12 16 7 12
3530.0 12 12 18 6 18 12 25 12 23 31
3570.0 37 32 22 6 6 26 18 19 25 24
3610.0 30 23 29 28 17 25 21 28 19 18
3650.0 31 18 19 13 11 28 21 25 25 22
3690.0 32 25 18 19 12 19 24 13 13 8
3730.0 17 20 35 22 35 32 26 14 8 1
3770.0 2 6 3 9 18 6 10 14 19 7
3810.0 8 7 13 20 8 8 11 14 14 13
3850.0 20 25 14 13 21 21 31 26 20 26
3890.0 7 8 11 8 14 14 14 9 3 1
3930.0 9 13 8 17 8 13 0 1 1 1
##END=
