##TITLE=Benzoic acid, 3,4-dimethoxy-
##JCAMP-DX=4.24
##DATA TYPE=INFRARED SPECTRUM
##ORIGIN=Sadtler Research Labs Under US-EPA Contract
##OWNER=NIST Standard Reference Data Program
##CAS REGISTRY NO=93-07-2
##MOLFORM=C 9 H 10 O 4
##XUNITS=1/CM
##YUNITS=ABSORBANCE
##XFACTOR=1.0
##YFACTOR=0.000088867
##DELTAX=4.0
##FIRSTX=450.0
##LASTX=3966.0
##FIRSTY=0.000000
##MAXX=3966
##MINX=450
##MAXY=0.88867
##MINY=0
##NPOINTS=880
##XYDATA=(X++(Y..Y))
450.0 0 2 20 103 146 163 174 129 190 129
490.0 199 257 248 345 397 453 583 707 778 783
530.0 837 801 727 709 633 545 523 384 343 410
570.0 328 370 394 442 559 630 885 1130 1325 1715
610.0 1900 1610 1333 986 599 365 224 190 219 180
650.0 165 98 99 37 160 149 146 133 141 123
690.0 268 271 417 634 1003 1014 891 652 437 472
730.0 474 574 559 501 648 829 1148 1450 1731 1891
770.0 1627 1227 820 555 336 250 207 210 246 197
810.0 236 307 320 337 313 257 232 242 191 190
850.0 186 203 164 202 223 247 260 335 345 368
890.0 405 473 487 598 555 484 371 273 220 186
930.0 135 156 139 128 143 169 150 131 147 161
970.0 181 196 212 266 315 348 434 523 644 866
1010.0 1171 1529 1939 2323 2604 2784 2705 2465 1998 1506
1050.0 1068 811 703 785 1087 1547 2055 2446 2685 2641
1090.0 2356 2012 1687 1416 1341 1426 1773 2175 2595 2955
1130.0 3129 3165 3100 3068 3258 3802 4653 5188 5055 4342
1170.0 3331 2572 2201 2042 2003 1941 1872 1769 1692 1646
1210.0 1610 1637 1735 1877 2077 2299 2459 2533 2503 2389
1250.0 2328 2422 2852 3691 4875 6007 6363 5930 4836 3701
1290.0 2902 2431 2125 1908 1748 1645 1541 1431 1362 1339
1330.0 1412 1567 1834 2172 2512 2693 2609 2275 1833 1501
1370.0 1262 1117 979 839 717 667 704 861 1153 1552
1410.0 1977 2220 2179 1847 1394 996 770 684 804 915
1450.0 1052 1193 1222 1420 1451 1393 1211 1060 910 844
1490.0 894 1116 1510 2184 2871 3513 3627 3086 2194 1396
1530.0 875 585 460 302 325 343 327 289 339 480
1570.0 567 727 854 1060 1215 1344 1518 1760 1938 1919
1610.0 1657 1213 728 496 329 268 227 159 185 144
1650.0 143 41 153 152 164 135 151 153 174 145
1690.0 241 290 300 320 443 492 479 413 448 470
1730.0 535 660 1134 2052 3823 6527 9189 10000 8730 5445
1770.0 2484 1165 710 516 429 393 341 364 381 393
1810.0 393 356 291 211 149 101 93 80 71 37
1850.0 64 69 81 87 81 68 82 91 82 88
1890.0 82 87 83 77 74 69 74 63 57 59
1930.0 57 61 58 51 51 54 52 51 40 41
1970.0 46 40 53 51 53 55 54 59 65 67
2010.0 77 89 100 111 129 134 128 121 115 108
2050.0 118 110 110 101 95 89 84 67 55 49
2090.0 38 32 29 27 27 23 24 26 25 23
2130.0 21 32 32 26 36 28 39 34 31 32
2170.0 36 31 26 32 26 25 25 21 19 18
2210.0 15 14 20 19 21 20 24 24 20 24
2250.0 30 26 34 30 37 33 35 35 36 41
2290.0 40 52 47 58 57 59 60 63 63 64
2330.0 57 65 59 71 74 63 84 97 105 85
2370.0 66 50 39 32 20 2 2 2 6 6
2410.0 6 16 16 17 17 11 10 11 11 5
2450.0 11 16 10 16 16 11 12 15 19 26
2490.0 24 26 26 33 27 32 32 32 27 26
2530.0 25 19 26 29 32 32 25 32 36 36
2570.0 36 32 36 39 47 54 62 61 63 54
2610.0 54 48 53 35 36 29 25 22 25 25
2650.0 25 15 14 13 13 8 14 7 8 2
2690.0 6 9 4 3 7 4 14 11 2 2
2730.0 2 7 7 16 9 13 20 20 18 27
2770.0 28 35 30 41 42 43 55 49 62 85
2810.0 86 118 152 180 234 300 406 533 672 761
2850.0 764 696 573 459 404 371 353 349 340 340
2890.0 356 363 388 428 471 531 594 640 677 695
2930.0 746 857 1016 1197 1305 1350 1302 1196 1135 1044
2970.0 925 804 699 614 552 536 551 626 724 885
3010.0 995 948 809 592 387 292 244 225 201 205
3050.0 199 195 189 185 198 208 212 229 249 245
3090.0 238 211 175 140 130 108 102 95 83 82
3130.0 61 67 62 53 50 56 46 53 53 47
3170.0 49 51 42 53 45 54 47 42 37 43
3210.0 42 38 39 38 45 40 35 38 44 35
3250.0 40 30 43 42 39 34 34 41 32 45
3290.0 36 44 43 46 46 40 39 32 53 48
3330.0 37 49 43 46 58 57 44 42 57 58
3370.0 51 54 48 49 49 62 59 54 57 60
3410.0 64 54 55 57 48 50 50 56 57 40
3450.0 54 55 43 48 65 44 56 67 73 79
3490.0 86 103 104 80 66 69 61 70 61 63
3530.0 66 70 63 65 60 71 71 84 92 136
3570.0 240 539 1253 2369 2977 2826 1978 803 286 156
3610.0 74 48 45 43 60 10 54 55 58 41
3650.0 2 36 35 44 58 31 29 15 50 34
3690.0 14 40 52 47 48 20 6 32 32 34
3730.0 36 20 14 31 1 9 35 43 44 33
3770.0 23 54 60 53 49 51 56 39 25 32
3810.0 44 46 35 29 53 55 33 23 37 32
3850.0 36 2 42 62 40 47 59 59 54 51
3890.0 49 56 60 37 64 79 85 87 98 82
3930.0 77 78 84 89 79 96 6 14 14 16
##END=
