##TITLE=2-Naphthalenecarboxylic acid
##JCAMP-DX=4.24
##DATA TYPE=INFRARED SPECTRUM
##ORIGIN=Sadtler Research Labs Under US-EPA Contract
##OWNER=NIST Standard Reference Data Program
##CAS REGISTRY NO=93-09-4
##MOLFORM=C 11 H 8 O 2
##XUNITS=1/CM
##YUNITS=ABSORBANCE
##XFACTOR=1.0
##YFACTOR=0.000094223
##DELTAX=4.0
##FIRSTX=450.0
##LASTX=3966.0
##FIRSTY=0.000000
##MAXX=3966
##MINX=450
##MAXY=0.94223
##MINY=0
##NPOINTS=880
##XYDATA=(X++(Y..Y))
450.0 0 225 445 459 812 617 812 548 557 363
490.0 357 381 328 411 299 311 231 384 339 455
530.0 481 547 614 652 765 852 984 1087 1279 1308
570.0 1510 1550 1662 1445 676 626 504 362 225 224
610.0 238 301 431 561 670 560 426 249 207 161
650.0 144 132 149 158 127 201 178 203 217 285
690.0 426 580 826 1090 1294 1169 979 565 311 196
730.0 188 212 229 348 449 701 876 1243 1385 1440
770.0 1640 1739 1969 1802 1320 1037 682 465 358 348
810.0 391 426 470 484 410 312 242 207 176 194
850.0 233 301 356 433 422 340 273 199 155 115
890.0 133 140 184 238 300 350 333 304 250 200
930.0 167 172 205 276 366 419 401 303 245 194
970.0 161 139 139 144 155 167 173 185 191 204
1010.0 219 256 277 268 268 242 240 233 245 303
1050.0 401 602 939 1498 1911 2009 2094 1909 1651 1534
1090.0 1348 977 631 530 538 641 866 1294 2076 2823
1130.0 3218 3211 2499 1916 1962 2370 2926 3567 3726 3517
1170.0 3136 2647 2292 2015 1772 1461 1196 990 863 781
1210.0 719 618 534 451 407 398 396 417 422 447
1250.0 452 463 457 473 500 521 556 583 638 709
1290.0 795 843 838 794 761 813 932 1099 1204 1279
1330.0 1266 1163 1084 934 875 985 1203 1347 1517 1517
1370.0 1343 1240 1066 907 813 659 459 340 256 232
1410.0 216 186 239 205 214 239 309 307 288 255
1450.0 264 273 364 380 459 549 573 522 334 297
1490.0 296 249 279 298 360 373 324 294 307 255
1530.0 276 279 339 394 378 337 342 390 280 245
1570.0 238 256 250 272 256 274 297 335 334 306
1610.0 276 220 262 280 454 477 570 511 339 271
1650.0 238 281 178 200 197 221 247 218 303 284
1690.0 321 306 455 463 554 575 595 667 577 602
1730.0 569 877 1013 1608 2637 4682 8134 9459 10000 8672
1770.0 4895 2328 1221 844 589 517 493 459 495 452
1810.0 528 513 475 397 375 319 267 242 218 219
1850.0 160 167 147 170 176 195 156 152 155 142
1890.0 165 154 165 154 179 191 214 243 255 241
1930.0 212 214 194 215 208 199 180 156 141 126
1970.0 122 115 119 112 121 129 130 122 122 130
2010.0 119 129 132 133 127 133 129 128 133 125
2050.0 124 116 121 119 128 119 126 128 129 135
2090.0 130 130 122 123 117 121 122 126 126 128
2130.0 134 127 131 126 121 117 119 118 117 122
2170.0 119 123 122 126 118 124 120 121 122 122
2210.0 124 120 125 124 127 122 125 126 122 125
2250.0 120 125 118 122 124 127 131 139 143 146
2290.0 151 152 161 156 160 160 153 151 153 151
2330.0 142 157 147 152 151 153 156 149 154 142
2370.0 146 146 151 145 142 136 135 132 133 132
2410.0 130 131 131 132 132 136 129 129 127 128
2450.0 127 127 134 130 130 129 125 124 126 129
2490.0 126 130 129 132 131 133 126 130 123 123
2530.0 125 122 124 123 124 119 124 122 120 119
2570.0 119 118 116 121 120 123 121 121 120 120
2610.0 123 122 123 123 123 123 122 124 125 123
2650.0 120 121 123 124 125 127 122 126 123 125
2690.0 125 120 123 122 126 126 127 124 127 127
2730.0 126 127 127 127 122 126 123 123 123 123
2770.0 125 124 129 128 132 129 130 130 129 126
2810.0 127 122 130 132 134 138 137 135 132 135
2850.0 133 129 128 128 129 129 136 136 137 138
2890.0 136 140 141 143 144 143 142 145 149 153
2930.0 153 156 162 162 165 162 166 170 172 176
2970.0 182 187 181 177 174 172 172 172 175 182
3010.0 201 217 239 257 283 309 332 351 368 394
3050.0 457 567 749 963 1113 1157 1077 911 737 586
3090.0 465 358 284 233 202 182 174 164 159 153
3130.0 145 143 144 145 144 150 144 142 138 133
3170.0 133 132 134 135 131 130 127 124 126 131
3210.0 134 132 135 132 138 139 138 134 132 131
3250.0 125 126 125 130 124 130 124 124 123 125
3290.0 122 120 115 121 121 125 123 128 126 133
3330.0 120 127 124 132 131 120 132 126 137 131
3370.0 127 127 127 131 127 142 140 126 127 126
3410.0 128 128 131 128 133 135 133 126 127 128
3450.0 132 130 130 127 129 130 135 128 139 142
3490.0 155 171 182 192 159 156 151 135 134 139
3530.0 126 133 144 131 157 129 164 159 194 248
3570.0 499 994 2066 3197 3359 2859 1644 511 259 176
3610.0 149 156 148 167 146 180 150 163 153 178
3650.0 189 176 194 173 165 137 162 137 137 136
3690.0 154 135 121 139 121 142 123 134 129 149
3730.0 154 133 149 131 151 127 159 148 134 132
3770.0 140 141 134 139 129 140 133 153 136 142
3810.0 132 131 117 130 152 123 142 129 149 119
3850.0 130 131 137 145 121 130 140 138 122 155
3890.0 135 134 141 145 169 147 140 137 161 143
3930.0 141 160 162 133 134 152 138 162 147 154
##END=
