##TITLE=Naphthalene, 2-methoxy-
##JCAMP-DX=4.24
##DATA TYPE=INFRARED SPECTRUM
##ORIGIN=Sadtler Research Labs Under US-EPA Contract
##OWNER=NIST Standard Reference Data Program
##CAS REGISTRY NO=93-04-9
##MOLFORM=C 11 H 10 O
##XUNITS=1/CM
##YUNITS=ABSORBANCE
##XFACTOR=1.0
##YFACTOR=0.000066553
##DELTAX=4.0
##FIRSTX=450.0
##LASTX=3966.0
##FIRSTY=0.080728
##MAXX=3966
##MINX=450
##MAXY=0.66553
##MINY=0
##NPOINTS=880
##XYDATA=(X++(Y..Y))
450.0 1213 1068 1284 1489 1555 1495 1242 977 744 574
490.0 495 472 463 450 412 373 392 429 391 416
530.0 402 462 405 414 374 383 344 426 365 335
570.0 326 299 358 420 355 349 305 365 388 440
610.0 590 894 1172 1213 1003 683 430 412 413 405
650.0 403 366 332 353 316 330 338 362 445 559
690.0 779 978 1065 993 857 629 564 629 788 1181
730.0 1710 2258 2809 3553 2639 2115 1531 1010 608 472
770.0 367 376 375 419 349 486 577 826 959 1244
810.0 1022 962 1141 1413 1988 2545 3549 3562 2927 2549
850.0 1952 1394 1082 880 829 798 834 756 742 758
890.0 854 974 978 922 715 512 487 469 493 560
930.0 602 609 646 715 796 951 938 866 715 546
970.0 453 425 406 420 423 398 411 421 395 497
1010.0 697 910 1063 1286 1626 2025 2609 2956 2888 2461
1050.0 1855 1088 681 371 259 171 129 98 37 7
1090.0 30 12 92 139 296 662 1377 2266 2635 2783
1130.0 2153 1431 1097 1021 1070 1297 1712 2543 3612 4794
1170.0 5369 4933 4056 2796 1732 1340 1303 1495 1932 2900
1210.0 4679 6549 7158 6660 5011 2934 2149 1961 2306 3375
1250.0 5261 7178 8903 10000 8887 7179 5407 3369 2058 1377
1290.0 1009 775 672 617 620 601 602 618 643 717
1330.0 817 912 968 1056 1139 1347 1515 1609 1550 1378
1370.0 1297 1379 1711 2172 2458 2573 2424 1944 1512 1133
1410.0 787 651 664 683 780 926 1326 1928 2445 2556
1450.0 2453 2106 2061 2499 3290 4268 4907 4648 3672 2581
1490.0 1754 1667 2064 2783 3586 3930 3543 2753 1576 825
1530.0 586 576 546 558 531 543 560 604 669 822
1570.0 1022 1243 1456 1687 1962 2437 3148 3870 4264 3942
1610.0 3186 2327 2000 2611 4034 5368 5877 5235 3853 2328
1650.0 1430 998 820 725 668 631 639 596 590 561
1690.0 526 527 495 464 434 418 387 387 373 384
1730.0 378 403 369 393 365 409 356 372 379 386
1770.0 388 382 345 341 310 301 303 311 306 306
1810.0 349 327 362 353 344 292 293 257 239 202
1850.0 219 202 225 231 248 266 293 304 327 330
1890.0 358 388 392 421 423 439 416 401 355 350
1930.0 352 387 354 342 275 250 228 233 215 233
1970.0 218 210 191 182 165 157 153 150 167 161
2010.0 182 173 197 175 188 181 194 190 212 206
2050.0 219 212 251 237 263 274 271 263 241 209
2090.0 190 167 158 167 146 162 156 163 130 147
2130.0 139 146 138 168 162 192 193 210 194 195
2170.0 190 177 165 146 139 131 127 118 149 120
2210.0 150 126 142 116 117 96 104 96 110 101
2250.0 111 104 113 113 111 114 111 132 128 134
2290.0 145 154 139 158 162 176 168 184 176 200
2330.0 179 201 178 198 178 154 168 215 201 213
2370.0 202 187 159 152 139 112 128 110 111 96
2410.0 125 102 134 116 129 108 133 108 96 74
2450.0 77 68 81 81 84 83 79 87 82 87
2490.0 71 84 74 85 52 68 37 82 53 70
2530.0 51 71 53 62 50 55 50 53 55 52
2570.0 58 61 74 67 81 59 91 88 103 96
2610.0 106 91 97 75 82 59 67 54 74 68
2650.0 66 63 55 32 31 40 25 38 18 26
2690.0 19 36 15 31 18 21 13 35 25 39
2730.0 47 49 40 63 66 60 62 54 44 50
2770.0 66 63 75 74 104 99 124 115 153 152
2810.0 196 221 292 329 448 546 711 926 1171 1274
2850.0 1252 1110 841 613 490 421 393 416 437 522
2890.0 598 690 732 808 846 912 972 1065 1079 1083
2930.0 1118 1223 1473 1821 2098 2245 2238 2075 1752 1378
2970.0 1147 990 882 820 816 848 1004 1270 1772 2230
3010.0 2359 2211 1850 1430 1309 1289 1301 1246 1255 1344
3050.0 1698 2252 2876 3450 3692 3547 3110 2441 1856 1461
3090.0 1168 977 767 612 421 307 210 184 125 136
3130.0 97 106 93 90 85 91 79 77 86 78
3170.0 93 76 95 58 66 55 61 62 71 63
3210.0 62 46 47 26 49 54 40 32 33 25
3250.0 39 23 24 12 28 46 24 33 19 17
3290.0 24 33 25 33 18 20 16 26 0 22
3330.0 31 25 14 29 23 22 22 27 31 39
3370.0 45 25 35 36 36 31 38 34 36 29
3410.0 28 20 38 20 35 63 33 20 27 33
3450.0 28 29 24 17 19 31 2 41 2 16
3490.0 17 26 13 33 18 13 6 25 30 17
3530.0 32 26 29 29 52 32 38 35 48 34
3570.0 29 33 40 44 48 40 42 35 44 45
3610.0 54 45 40 55 45 50 48 54 61 55
3650.0 63 63 72 81 73 82 83 86 81 96
3690.0 105 95 110 111 113 121 113 125 126 148
3730.0 136 157 177 173 174 173 183 184 192 193
3770.0 210 210 213 219 221 217 225 232 247 224
3810.0 233 241 249 252 257 253 243 257 243 250
3850.0 250 252 238 238 240 232 234 243 257 254
3890.0 257 254 254 259 261 264 260 259 274 269
3930.0 269 264 270 265 277 299 81 98 100 101
##END=
