##TITLE=2-Naphthyl methyl ketone
##JCAMP-DX=4.24
##DATA TYPE=INFRARED SPECTRUM
##ORIGIN=Sadtler Research Labs Under US-EPA Contract
##OWNER=NIST Standard Reference Data Program
##CAS REGISTRY NO=93-08-3
##MOLFORM=C 12 H 10 O
##XUNITS=1/CM
##YUNITS=ABSORBANCE
##XFACTOR=1.0
##YFACTOR=0.000084424
##DELTAX=4.0
##FIRSTX=450.0
##LASTX=3966.0
##FIRSTY=0.046180
##MAXX=3966
##MINX=450
##MAXY=0.84424
##MINY=0
##NPOINTS=880
##XYDATA=(X++(Y..Y))
450.0 547 470 633 840 1020 1109 1004 742 556 351
490.0 206 117 54 81 96 133 79 130 151 49
530.0 172 189 289 496 698 777 674 610 440 520
570.0 811 942 824 646 311 123 12 85 70 229
610.0 236 209 128 287 115 96 33 51 224 334
650.0 472 788 1054 1072 977 693 340 109 130 53
690.0 135 82 95 76 62 98 131 300 331 575
730.0 1005 1550 1983 2666 2002 1481 984 485 293 101
770.0 168 133 158 171 270 260 378 600 910 1329
810.0 1705 1665 1684 1498 915 646 485 455 609 880
850.0 1098 1396 1482 985 732 491 323 271 284 323
890.0 423 404 356 363 322 351 376 348 368 441
930.0 700 1047 1324 1304 1110 781 592 577 539 495
970.0 443 411 408 352 274 235 218 217 197 224
1010.0 300 426 453 440 419 308 210 154 157 141
1050.0 161 169 203 203 207 213 203 191 207 206
1090.0 235 186 161 136 179 188 238 368 626 1040
1130.0 1327 1324 1195 754 594 629 626 588 514 396
1170.0 377 461 737 1332 2172 2762 2980 2457 1776 1448
1210.0 1617 2119 2849 3362 3393 3016 2385 1787 1451 1207
1250.0 1160 1550 2449 3331 4157 4663 4877 5005 4556 3431
1290.0 2121 1056 586 441 363 343 341 336 349 369
1330.0 396 441 521 631 815 1159 1706 2412 3214 3659
1370.0 3454 2873 2042 1404 1037 790 627 528 478 454
1410.0 441 470 513 593 731 841 939 951 878 775
1450.0 694 679 769 1063 1330 1328 1116 707 444 389
1490.0 359 376 413 492 523 541 533 486 447 441
1530.0 461 480 493 483 527 574 608 609 629 691
1570.0 727 791 772 785 785 848 937 970 922 802
1610.0 703 683 769 995 1269 1411 1373 1132 870 711
1650.0 664 655 751 796 842 867 959 1146 1510 2166
1690.0 3434 5730 8545 10000 9767 7336 4541 2596 1496 958
1730.0 726 633 631 643 650 596 483 388 308 252
1770.0 214 180 199 201 214 224 215 216 196 173
1810.0 160 148 150 157 162 157 142 108 86 60
1850.0 67 71 79 93 98 93 80 82 82 84
1890.0 102 116 141 151 154 153 165 178 172 184
1930.0 171 169 186 217 227 206 157 98 60 37
1970.0 24 29 29 38 39 31 38 43 28 35
2010.0 34 33 42 41 36 42 36 43 35 37
2050.0 25 27 19 20 22 22 22 23 28 22
2090.0 17 23 19 18 20 24 19 20 22 21
2130.0 27 27 23 21 16 19 10 19 19 19
2170.0 15 14 20 8 14 9 23 16 22 19
2210.0 28 25 18 18 20 19 15 20 27 28
2250.0 22 22 23 26 25 29 35 48 66 73
2290.0 80 87 87 90 83 87 69 73 53 44
2330.0 52 58 52 33 32 64 74 32 22 35
2370.0 61 38 51 39 25 21 12 6 13 20
2410.0 20 15 16 22 8 13 8 10 9 11
2450.0 12 19 20 20 14 21 19 23 14 22
2490.0 22 24 31 18 23 19 19 12 8 13
2530.0 12 15 15 16 9 13 9 11 11 13
2570.0 12 7 7 9 11 13 9 10 9 10
2610.0 17 9 12 11 11 7 20 12 27 23
2650.0 25 18 23 17 15 17 17 12 17 13
2690.0 26 20 16 14 22 20 17 9 15 23
2730.0 28 22 18 19 12 9 11 19 20 21
2770.0 21 15 10 18 24 38 27 36 31 44
2810.0 45 52 59 52 83 98 111 143 177 239
2850.0 308 358 358 311 271 241 222 213 222 220
2890.0 251 272 309 343 390 440 522 614 727 803
2930.0 810 771 667 553 477 409 399 404 399 410
2970.0 425 430 415 374 345 308 295 302 359 452
3010.0 584 681 735 749 708 667 635 633 653 711
3050.0 900 1226 1741 2283 2572 2625 2385 1889 1455 1092
3090.0 797 555 407 313 263 226 178 153 129 127
3130.0 117 109 110 100 98 88 81 69 71 84
3170.0 72 66 70 63 55 62 54 71 64 74
3210.0 62 54 81 64 77 70 66 57 70 56
3250.0 60 45 64 76 72 60 62 55 71 69
3290.0 67 86 75 90 77 80 73 74 70 82
3330.0 97 96 90 76 77 102 104 102 91 100
3370.0 131 145 178 192 204 223 183 163 125 77
3410.0 81 75 70 70 60 73 60 60 58 58
3450.0 61 44 36 40 32 21 22 32 15 33
3490.0 28 41 16 17 14 11 34 7 14 20
3530.0 3 14 24 32 13 22 27 13 44 44
3570.0 9 5 27 29 28 40 17 17 24 15
3610.0 21 15 0 33 40 5 35 34 45 39
3650.0 26 28 23 31 27 25 10 23 32 41
3690.0 32 35 41 20 26 2 16 37 32 40
3730.0 47 34 54 52 35 29 14 35 37 31
3770.0 36 49 48 24 31 52 54 69 49 57
3810.0 46 64 53 48 48 51 54 54 49 43
3850.0 52 36 52 62 73 68 77 76 77 74
3890.0 64 60 55 57 66 70 85 90 90 79
3930.0 92 67 64 59 51 67 49 52 53 54
##END=
