##TITLE=Naphthalene, 2-ethoxy-
##JCAMP-DX=4.24
##DATA TYPE=INFRARED SPECTRUM
##ORIGIN=Sadtler Research Labs Under US-EPA Contract
##OWNER=NIST Standard Reference Data Program
##CAS REGISTRY NO=93-18-5
##MOLFORM=C 12 H 12 O
##XUNITS=1/CM
##YUNITS=ABSORBANCE
##XFACTOR=1.0
##YFACTOR=0.000094531
##DELTAX=4.0
##FIRSTX=450.0
##LASTX=3966.0
##FIRSTY=0.087630
##MAXX=3966
##MINX=450
##MAXY=0.94531
##MINY=0
##NPOINTS=880
##XYDATA=(X++(Y..Y))
450.0 927 799 1044 1274 1353 1200 937 688 456 273
490.0 208 123 129 144 133 89 207 271 188 160
530.0 105 148 24 117 124 191 121 227 107 125
570.0 9 120 156 115 103 156 80 61 87 236
610.0 332 567 959 969 905 614 235 136 194 196
650.0 197 136 79 128 93 161 73 67 178 188
690.0 331 398 392 348 392 415 587 714 902 1268
730.0 1734 2269 2856 3367 2592 1969 1251 713 386 285
770.0 200 177 163 213 104 278 260 606 783 978
810.0 927 964 1111 1302 1819 2238 2650 2739 2542 2085
850.0 1647 1229 911 792 719 684 776 733 696 574
890.0 478 398 346 346 364 489 645 809 908 985
930.0 936 810 660 586 547 654 929 1311 1679 1664
970.0 1280 751 327 215 178 144 155 161 69 87
1010.0 180 360 534 686 1032 1485 2171 2782 3215 3212
1050.0 2826 2149 1534 909 555 339 278 286 296 375
1090.0 467 418 443 479 726 1340 2561 4183 4706 4433
1130.0 2748 1627 1166 1101 1177 1456 1791 2375 3088 4300
1170.0 5659 6898 7481 6335 4763 2837 1799 1980 2981 5021
1210.0 8074 10000 9693 7073 3820 2296 1912 2260 3437 5342
1250.0 7447 8640 8978 8215 6859 5749 4197 2758 2067 1666
1290.0 1526 1452 1384 1227 1047 849 724 674 677 769
1330.0 932 1090 1216 1374 1523 1784 1944 2014 1843 1669
1370.0 1574 1744 2253 2964 3494 3801 3745 3266 2609 1841
1410.0 1179 803 646 580 650 674 830 922 1180 1228
1450.0 1353 1612 2541 4268 5381 5249 4000 2491 1847 1590
1490.0 1471 1502 1820 2658 3675 4426 4076 2910 1330 564
1530.0 410 419 366 324 322 375 377 372 429 621
1570.0 799 1128 1375 1736 2043 2563 3524 4663 5186 4631
1610.0 3327 2173 2116 3213 4942 6150 6056 4515 2831 1635
1650.0 1067 641 607 496 485 424 483 467 520 449
1690.0 465 482 396 329 337 345 288 234 252 287
1730.0 271 248 251 289 266 317 260 306 303 335
1770.0 314 271 260 250 209 194 164 191 191 184
1810.0 228 187 233 226 198 130 169 133 135 56
1850.0 108 75 93 93 100 107 169 201 247 266
1890.0 291 351 345 366 350 350 303 281 255 269
1930.0 292 351 310 277 170 144 97 96 69 112
1970.0 107 109 109 125 118 100 103 98 103 80
2010.0 91 59 78 38 56 38 65 46 70 41
2050.0 66 27 78 42 63 75 67 68 80 76
2090.0 79 76 55 85 45 76 61 77 31 70
2130.0 69 75 60 98 62 89 78 93 64 69
2170.0 80 63 65 64 56 51 45 22 65 21
2210.0 56 20 55 27 43 31 41 32 54 25
2250.0 36 19 48 38 47 51 56 71 65 78
2290.0 86 118 97 133 137 182 155 219 204 236
2330.0 219 247 224 268 265 209 242 319 315 324
2370.0 256 216 167 158 130 101 126 95 98 70
2410.0 98 71 135 117 138 109 133 107 98 63
2450.0 73 52 63 66 67 67 57 73 57 67
2490.0 40 68 50 61 30 60 15 66 30 57
2530.0 34 64 35 47 43 50 43 57 75 64
2570.0 72 65 85 67 76 62 98 82 111 92
2610.0 95 78 89 73 75 61 71 44 82 72
2650.0 71 67 62 29 34 55 33 60 40 44
2690.0 32 64 30 55 37 50 44 90 68 99
2730.0 107 116 90 130 133 129 134 136 110 130
2770.0 138 133 148 145 169 159 160 126 164 126
2810.0 169 158 194 170 235 226 238 241 265 282
2850.0 343 390 422 485 562 685 808 1014 1168 1329
2890.0 1357 1405 1382 1454 1499 1591 1619 1656 1560 1492
2930.0 1444 1547 1788 2030 2088 1962 1661 1373 1251 1270
2970.0 1437 1785 2239 2741 3158 3250 3230 2562 2019 1483
3010.0 1242 1114 1148 1246 1403 1481 1508 1425 1363 1417
3050.0 1810 2428 3172 3838 4060 3875 3322 2605 2011 1590
3090.0 1236 1018 773 629 427 304 215 196 126 149
3130.0 95 119 99 102 93 87 92 106 112 86
3170.0 106 85 103 53 72 69 77 82 97 89
3210.0 84 65 73 40 70 74 58 58 58 35
3250.0 59 45 30 28 44 57 47 55 33 36
3290.0 47 47 47 50 28 50 40 30 10 35
3330.0 42 29 28 37 21 38 33 47 46 39
3370.0 66 43 46 48 42 35 59 51 66 53
3410.0 50 26 63 25 51 78 36 23 33 39
3450.0 48 38 37 32 28 33 14 59 8 14
3490.0 17 40 0 31 6 26 2 12 29 21
3530.0 35 42 37 22 56 26 46 43 44 29
3570.0 22 35 65 69 57 31 44 28 53 42
3610.0 52 46 28 44 45 10 65 80 70 60
3650.0 39 57 70 93 89 63 75 60 90 118
3690.0 100 120 147 138 128 134 130 161 150 165
3730.0 175 175 198 205 162 175 207 221 240 247
3770.0 263 286 287 290 301 301 298 309 317 305
3810.0 325 333 312 319 343 325 313 313 311 311
3850.0 324 270 298 300 295 284 286 286 297 309
3890.0 312 323 342 336 328 340 345 331 339 347
3930.0 354 349 354 350 354 387 90 112 116 117
##END=
