##TITLE=Benzene, 1,2-dimethoxy-4-(1-propenyl)-
##JCAMP-DX=4.24
##DATA TYPE=INFRARED SPECTRUM
##ORIGIN=Sadtler Research Labs Under US-EPA Contract
##OWNER=NIST Standard Reference Data Program
##CAS REGISTRY NO=93-16-3
##MOLFORM=C 11 H 14 O 2
##XUNITS=1/CM
##YUNITS=ABSORBANCE
##XFACTOR=1.0
##YFACTOR=0.000042154
##DELTAX=4.0
##FIRSTX=450.0
##LASTX=3966.0
##FIRSTY=0.041016
##MAXX=3966
##MINX=450
##MAXY=0.42154
##MINY=0
##NPOINTS=880
##XYDATA=(X++(Y..Y))
450.0 973 855 116 0 659 574 436 724 731 157
490.0 546 575 574 348 392 789 552 396 291 381
530.0 479 133 150 199 438 424 392 380 482 604
570.0 154 129 604 481 353 521 742 762 693 642
610.0 725 508 587 532 377 464 373 353 293 331
650.0 278 298 374 256 260 108 112 294 304 264
690.0 231 264 225 297 357 359 223 407 313 435
730.0 631 713 852 682 712 801 968 1133 1152 1154
770.0 1110 1116 1159 1178 1137 968 801 747 540 685
810.0 655 807 856 775 842 851 730 626 538 664
850.0 621 739 767 708 661 673 593 608 647 637
890.0 607 647 579 686 646 747 831 761 739 754
930.0 639 658 689 743 1004 1408 1898 2327 2231 1778
970.0 1190 1005 759 675 700 742 837 923 1211 1311
1010.0 1640 2169 2947 3663 4198 4578 4635 4489 3959 2994
1050.0 2268 1597 1101 844 717 599 537 561 457 486
1090.0 557 527 622 726 846 1219 1524 2063 2677 3049
1130.0 3268 3256 3142 2899 2846 2915 3019 3001 2760 2312
1170.0 1859 1480 1350 1289 1249 1265 1266 1244 1374 1501
1210.0 1803 2345 2944 3627 4307 4809 5034 4932 4719 4690
1250.0 4889 5376 6306 7461 8750 9670 9679 8817 7411 6312
1290.0 5474 4916 4476 4118 3624 3085 2466 2090 1756 1479
1330.0 1345 1074 989 771 701 677 594 538 571 575
1370.0 559 616 665 721 707 787 864 1131 1511 1866
1410.0 2232 2261 2024 1639 1338 1245 1270 1610 1918 2086
1450.0 2095 2073 2105 2381 2562 2709 2545 2315 2146 2161
1490.0 2659 3469 5012 6860 8679 10000 9275 7717 5225 3422
1530.0 2258 1591 1189 877 803 810 790 780 934 1155
1570.0 1374 1526 1584 1515 1374 1211 1182 1183 1255 1225
1610.0 1119 955 682 568 431 400 325 300 282 275
1650.0 220 212 288 267 249 215 161 189 144 122
1690.0 161 168 110 129 158 221 194 188 242 269
1730.0 259 206 261 226 212 212 182 190 169 201
1770.0 178 154 158 146 161 145 120 126 116 132
1810.0 139 145 155 157 161 146 144 164 128 128
1850.0 150 156 174 181 165 134 155 165 147 145
1890.0 128 141 130 125 118 120 113 117 96 117
1930.0 119 117 127 112 113 117 121 125 132 121
1970.0 134 146 163 181 192 198 213 243 243 240
2010.0 237 235 246 259 276 281 289 276 262 247
2050.0 243 237 232 220 219 213 199 185 173 159
2090.0 144 122 117 99 104 97 83 82 79 72
2130.0 83 83 88 77 83 88 80 91 86 87
2170.0 86 83 97 98 100 97 89 85 96 88
2210.0 90 81 80 86 84 88 83 87 86 76
2250.0 97 95 97 104 107 103 106 101 106 94
2290.0 93 78 77 72 52 47 38 29 29 27
2330.0 27 34 31 27 51 28 32 34 38 53
2370.0 24 52 58 66 64 60 59 57 63 59
2410.0 61 56 58 65 73 62 63 59 63 57
2450.0 59 69 67 71 77 82 86 86 82 86
2490.0 87 90 92 95 90 103 93 99 107 122
2530.0 126 128 131 137 137 139 140 150 140 125
2570.0 124 131 133 128 125 127 116 129 126 117
2610.0 129 121 111 112 102 101 97 97 92 95
2650.0 93 92 92 89 82 79 91 83 89 98
2690.0 93 97 98 94 100 106 107 104 113 119
2730.0 134 158 192 225 224 201 169 148 147 151
2770.0 170 168 180 188 208 216 233 256 303 338
2810.0 406 471 545 677 865 1159 1569 2008 2270 2242
2850.0 2010 1704 1558 1620 1757 1827 1749 1591 1458 1430
2890.0 1521 1639 1757 1865 1971 2139 2369 2656 3063 3484
2930.0 3746 3852 3916 4040 4157 4051 3731 3435 3153 2911
2970.0 2712 2474 2262 2052 1960 2005 2191 2548 2963 3129
3010.0 2993 2599 2281 2235 2282 2166 1894 1588 1399 1297
3050.0 1244 1199 1170 1107 1030 933 848 758 674 599
3090.0 547 480 412 389 349 323 311 289 266 254
3130.0 216 182 169 155 143 123 119 110 103 115
3170.0 98 103 81 75 69 79 81 62 77 68
3210.0 73 73 73 52 64 59 50 49 52 68
3250.0 59 55 69 56 59 73 63 53 60 63
3290.0 68 67 43 52 58 55 54 78 78 53
3330.0 63 54 76 48 66 47 64 62 75 67
3370.0 83 66 54 41 58 54 64 57 74 64
3410.0 85 78 67 74 59 75 84 51 73 61
3450.0 57 69 90 58 56 53 50 59 70 60
3490.0 71 54 47 69 71 58 73 70 53 76
3530.0 52 62 60 71 56 77 71 56 72 49
3570.0 71 63 66 62 68 42 41 68 62 51
3610.0 82 64 76 77 62 58 64 95 69 71
3650.0 44 68 50 49 64 70 111 37 52 28
3690.0 67 73 84 67 54 44 98 84 57 24
3730.0 86 62 36 69 25 118 51 79 85 81
3770.0 88 76 75 48 51 123 78 80 80 72
3810.0 83 73 67 71 49 82 87 92 100 121
3850.0 42 83 70 71 99 113 108 80 88 112
3890.0 87 81 86 100 105 100 107 98 83 92
3930.0 57 94 54 35 65 79 91 68 85 78
##END=
