##TITLE=2-Naphthalenesulfonyl chloride
##JCAMP-DX=4.24
##DATA TYPE=INFRARED SPECTRUM
##ORIGIN=Sadtler Research Labs Under US-EPA Contract
##OWNER=NIST Standard Reference Data Program
##CAS REGISTRY NO=93-11-8
##MOLFORM=C 10 H 7 Cl O 2 S
##XUNITS=1/CM
##YUNITS=ABSORBANCE
##XFACTOR=1.0
##YFACTOR=0.000053027
##DELTAX=4.0
##FIRSTX=450.0
##LASTX=3966.0
##FIRSTY=0.043960
##MAXX=3966
##MINX=450
##MAXY=0.53027
##MINY=0
##NPOINTS=880
##XYDATA=(X++(Y..Y))
450.0 829 793 997 1284 1688 2087 1958 1800 1452 1611
490.0 1688 1472 1207 1157 1081 1202 1711 2255 3960 5363
530.0 5522 4402 2573 1170 1375 2056 2992 4922 6715 8466
570.0 7643 5094 2794 1205 697 839 813 1046 1478 2503
610.0 3169 2354 1396 824 1226 2016 2976 3252 4123 6514
650.0 9153 8413 5542 1732 800 592 590 687 674 447
690.0 422 278 195 98 210 223 110 94 147 346
730.0 925 1638 2485 3248 2654 1784 782 367 263 317
770.0 287 217 217 212 281 331 314 574 1082 1749
810.0 2214 2007 1426 686 392 322 266 251 406 749
850.0 1128 1430 1345 1019 585 430 182 108 192 132
890.0 206 253 386 514 428 366 284 27 135 200
930.0 139 270 123 247 252 249 229 212 242 191
970.0 133 153 139 101 87 164 127 182 226 353
1010.0 381 584 786 796 728 631 622 597 592 558
1050.0 492 554 709 1193 1870 2144 1842 1162 778 748
1090.0 837 890 899 761 614 544 583 687 764 930
1130.0 1175 1383 1381 1257 1085 1109 1316 1770 2109 2757
1170.0 3990 6139 8568 10000 9622 7522 5150 3085 1967 1434
1210.0 1082 884 784 757 702 572 467 432 397 406
1250.0 419 485 586 755 932 908 687 526 425 379
1290.0 357 275 268 230 186 202 229 230 250 258
1330.0 319 405 635 792 836 912 969 1055 1179 1191
1370.0 1398 1696 1957 2336 3058 4276 5949 7215 6780 5225
1410.0 2721 1073 484 213 167 126 113 216 8 19
1450.0 64 125 311 139 185 103 189 131 102 104
1490.0 198 213 458 574 709 627 273 225 203 125
1530.0 58 92 105 188 134 103 84 161 110 39
1570.0 116 80 195 176 274 306 323 255 159 114
1610.0 66 60 142 202 320 316 281 241 95 175
1650.0 162 257 78 75 39 90 77 54 95 153
1690.0 95 102 202 335 245 210 265 367 237 206
1730.0 195 308 238 231 262 372 386 457 465 388
1770.0 421 397 324 327 344 329 363 326 366 293
1810.0 273 240 214 142 199 150 148 147 136 131
1850.0 79 64 53 74 92 111 53 51 33 50
1890.0 66 73 82 129 165 218 199 219 209 155
1930.0 122 126 94 127 141 150 158 177 135 97
1970.0 47 27 33 43 33 54 62 38 39 27
2010.0 37 60 48 49 60 28 30 48 43 34
2050.0 26 42 38 27 58 33 50 51 51 44
2090.0 53 41 49 68 36 78 86 106 120 120
2130.0 94 93 75 55 44 59 38 61 61 54
2170.0 58 71 45 50 68 40 60 39 72 59
2210.0 53 47 38 51 43 25 50 51 54 64
2250.0 72 64 80 62 67 63 94 112 118 173
2290.0 200 247 278 317 338 346 335 292 312 257
2330.0 232 258 208 261 291 282 329 359 369 350
2370.0 302 185 233 251 172 94 55 64 43 63
2410.0 84 35 38 63 35 73 59 55 51 54
2450.0 55 58 58 39 48 80 80 60 80 45
2490.0 62 62 50 40 53 31 51 39 36 55
2530.0 73 69 68 75 71 59 63 68 91 85
2570.0 94 85 98 83 70 80 53 47 56 54
2610.0 54 68 28 39 40 21 22 59 42 73
2650.0 59 40 62 74 60 49 77 60 59 70
2690.0 59 75 55 116 107 74 77 93 61 80
2730.0 99 80 114 69 93 85 121 100 62 84
2770.0 104 98 121 110 81 94 69 96 121 72
2810.0 103 82 90 111 73 98 91 83 103 131
2850.0 100 107 118 109 119 106 149 117 82 122
2890.0 131 141 96 134 165 137 136 94 145 205
2930.0 150 180 130 197 238 192 129 191 214 179
2970.0 192 184 192 244 214 205 164 218 183 196
3010.0 254 311 286 243 312 369 370 344 380 444
3050.0 532 670 1031 1443 1900 1966 1674 1272 1066 845
3090.0 651 531 368 307 270 243 168 208 190 180
3130.0 143 142 172 140 198 128 150 149 147 170
3170.0 171 154 140 70 164 142 91 127 181 151
3210.0 123 168 170 180 158 140 117 146 103 190
3250.0 159 96 103 98 128 113 133 138 175 107
3290.0 145 137 72 141 113 147 128 107 114 143
3330.0 164 170 158 180 151 148 162 139 118 115
3370.0 165 136 109 89 58 112 149 171 140 130
3410.0 116 84 144 125 134 179 128 98 109 24
3450.0 115 124 122 133 116 94 102 53 117 108
3490.0 138 139 126 114 74 114 129 171 96 182
3530.0 123 131 155 82 153 137 125 93 126 181
3570.0 290 195 209 170 201 267 180 152 133 130
3610.0 176 187 113 184 165 264 142 88 80 130
3650.0 221 173 113 98 25 151 152 167 78 81
3690.0 201 197 154 118 134 185 172 123 152 242
3730.0 226 182 269 211 166 233 204 177 117 119
3770.0 187 142 116 128 96 174 190 177 152 112
3810.0 138 167 80 151 148 71 83 117 172 175
3850.0 113 187 71 82 130 63 70 48 73 75
3890.0 64 82 118 131 118 81 51 30 44 104
3930.0 106 128 144 119 89 71 0 5 5 7
##END=
