##TITLE=Benzeneacetic acid, 2-methoxy-
##JCAMP-DX=4.24
##DATA TYPE=INFRARED SPECTRUM
##ORIGIN=Sadtler Research Labs Under US-EPA Contract
##OWNER=NIST Standard Reference Data Program
##CAS REGISTRY NO=93-25-4
##MOLFORM=C 9 H 10 O 3
##XUNITS=1/CM
##YUNITS=ABSORBANCE
##XFACTOR=1.0
##YFACTOR=0.000108215
##DELTAX=4.0
##FIRSTX=450.0
##LASTX=3966.0
##FIRSTY=0.015150
##MAXX=3966
##MINX=450
##MAXY=1.08215
##MINY=0
##NPOINTS=880
##XYDATA=(X++(Y..Y))
450.0 140 94 20 181 86 98 124 140 152 188
490.0 194 247 292 392 433 503 492 466 458 464
530.0 478 545 647 761 937 1105 1255 1412 1440 1369
570.0 1281 1171 1198 1303 1642 2070 2499 2826 2721 2408
610.0 2092 1895 1705 1605 1481 1366 1279 1164 1077 954
650.0 863 758 695 623 623 571 565 537 508 471
690.0 414 374 355 367 325 312 325 376 479 612
730.0 759 921 1257 1735 2305 2984 2975 2453 1854 1296
770.0 885 632 476 363 271 184 118 76 58 63
810.0 48 47 37 70 97 117 135 124 128 136
850.0 207 288 342 356 314 247 188 141 95 75
890.0 61 51 45 25 19 23 36 62 87 114
930.0 131 119 106 92 81 70 68 64 56 46
970.0 48 49 59 73 96 116 143 180 248 352
1010.0 510 755 1090 1478 1847 2112 2205 2199 2161 2077
1050.0 1912 1712 1457 1154 960 930 1034 1222 1475 1808
1090.0 2249 2901 3884 5305 7086 8816 9919 10000 9118 7663
1130.0 6302 5359 4659 4000 3390 2867 2494 2233 2094 2089
1170.0 2126 2115 2049 1899 1674 1479 1368 1337 1367 1430
1210.0 1510 1619 1765 1990 2357 2960 3906 5201 6644 7642
1250.0 7873 7277 5934 4313 3096 2408 2129 2094 2159 2221
1290.0 2213 2119 1970 1802 1647 1518 1402 1301 1214 1149
1330.0 1106 1113 1163 1238 1322 1440 1566 1690 1768 1741
1370.0 1608 1406 1147 916 762 656 597 555 515 506
1410.0 522 551 635 685 747 850 1054 1306 1416 1439
1450.0 1512 1572 1796 2068 2231 2204 2141 2164 2385 3063
1490.0 3903 4558 4566 4127 3174 2086 1334 796 522 305
1530.0 224 148 135 125 113 110 125 183 206 260
1570.0 367 526 737 990 1182 1354 1439 1461 1315 1105
1610.0 876 624 415 235 155 85 79 56 38 30
1650.0 50 58 51 52 73 97 125 127 168 196
1690.0 211 240 311 359 422 479 582 694 797 921
1730.0 1111 1345 1588 1894 2275 2712 3194 3814 4589 5672
1770.0 7002 8496 9428 9983 9686 8476 6756 5396 4153 3129
1810.0 2333 1731 1301 987 766 585 453 351 296 246
1850.0 195 159 138 124 116 112 96 99 101 113
1890.0 122 122 110 93 68 50 49 54 73 82
1930.0 85 75 56 35 24 16 14 18 21 29
1970.0 32 38 40 45 44 52 53 55 60 66
2010.0 80 88 94 94 93 88 84 81 80 79
2050.0 76 79 77 77 73 65 60 53 42 35
2090.0 27 19 14 9 5 0 4 2 0 4
2130.0 4 7 6 8 8 8 6 6 4 1
2170.0 1 1 3 1 5 5 9 11 16 18
2210.0 23 27 32 32 33 29 27 22 20 16
2250.0 14 16 17 21 26 24 28 28 24 24
2290.0 20 18 19 22 17 23 22 22 31 27
2330.0 20 18 16 20 17 31 27 25 25 11
2370.0 0 9 18 17 7 6 4 4 0 3
2410.0 3 4 2 2 1 0 4 4 8 5
2450.0 9 13 13 19 22 29 34 37 41 45
2490.0 44 46 44 38 35 32 27 32 34 36
2530.0 42 44 45 41 37 34 30 29 27 22
2570.0 21 20 22 18 21 21 19 19 24 19
2610.0 24 26 23 20 23 20 20 22 21 22
2650.0 18 17 14 11 11 10 9 6 5 8
2690.0 11 6 11 11 15 18 15 16 19 17
2730.0 19 16 18 18 19 22 21 20 22 24
2770.0 32 34 40 43 49 56 61 71 81 96
2810.0 114 136 164 203 263 354 516 747 964 1058
2850.0 1059 940 717 523 411 356 340 340 367 400
2890.0 443 490 543 597 658 739 829 917 996 1085
2930.0 1216 1388 1593 1790 1917 1948 1897 1754 1582 1374
2970.0 1144 962 814 713 676 687 767 918 1103 1215
3010.0 1212 1120 960 831 821 906 987 1023 980 890
3050.0 800 775 807 873 944 1035 1115 1168 1149 1049
3090.0 884 682 505 392 328 291 261 241 204 168
3130.0 138 115 98 86 80 74 75 71 73 73
3170.0 71 70 67 63 59 56 50 47 50 44
3210.0 45 43 41 41 40 37 42 35 35 32
3250.0 33 33 34 32 32 32 28 29 29 32
3290.0 27 29 33 37 30 27 30 30 32 31
3330.0 29 31 35 31 28 35 32 28 36 38
3370.0 27 32 40 39 36 39 42 42 48 40
3410.0 43 47 40 49 46 48 47 58 57 67
3450.0 73 75 97 101 107 102 100 101 111 102
3490.0 91 101 100 110 114 114 123 122 133 151
3530.0 149 158 176 212 266 295 368 519 834 1629
3570.0 2806 3668 3985 3490 2379 1202 579 335 223 174
3610.0 157 122 104 79 62 84 41 25 36 32
3650.0 58 36 24 17 12 38 40 31 9 6
3690.0 33 7 7 17 3 14 26 9 21 27
3730.0 14 40 45 25 57 44 22 11 11 5
3770.0 15 6 0 5 5 5 0 14 28 22
3810.0 10 7 29 26 23 12 23 36 33 9
3850.0 26 72 31 38 47 55 51 23 44 50
3890.0 38 28 35 52 59 29 20 40 41 27
3930.0 29 34 24 34 34 21 17 20 28 25
##END=
