##TITLE=2,5-Dimethylbenzylamine
##JCAMP-DX=4.24
##DATA TYPE=INFRARED SPECTRUM
##ORIGIN=Sadtler Research Labs Under US-EPA Contract
##OWNER=NIST Standard Reference Data Program
##CAS REGISTRY NO=93-48-1
##MOLFORM=C 9 H 13 N
##XUNITS=1/CM
##YUNITS=ABSORBANCE
##XFACTOR=1.0
##YFACTOR=0.000050043
##DELTAX=4.0
##FIRSTX=450.0
##LASTX=3966.0
##FIRSTY=0.068759
##MAXX=3966
##MINX=450
##MAXY=0.50043
##MINY=0
##NPOINTS=880
##XYDATA=(X++(Y..Y))
450.0 1374 1301 887 847 772 685 630 263 381 192
490.0 111 171 204 188 9 17 220 290 337 342
530.0 520 573 651 632 587 489 404 379 402 342
570.0 311 305 273 247 275 332 334 441 492 582
610.0 638 686 677 631 577 540 467 469 430 413
650.0 437 394 414 512 508 580 651 624 670 727
690.0 789 909 1042 1186 1238 1429 1620 1725 1991 2265
730.0 2499 2815 2924 2968 2933 2680 2429 2534 2775 2797
770.0 3073 3377 3747 4219 4784 5479 6208 6766 8117 9353
810.0 8575 6924 5966 4859 3902 3234 2577 2112 1663 1407
850.0 1174 1048 930 927 969 1106 1171 1338 1339 1183
890.0 1009 836 712 602 567 585 551 581 622 672
930.0 782 706 581 573 572 573 591 596 750 864
970.0 722 644 688 699 737 726 746 698 707 687
1010.0 756 793 842 969 1115 1274 1400 1401 1368 1339
1050.0 1193 1060 853 693 554 449 352 289 250 215
1090.0 201 174 172 214 161 198 158 184 277 238
1130.0 252 207 367 443 580 806 1028 1161 1059 756
1170.0 401 153 80 17 8 20 27 140 211 193
1210.0 207 208 203 126 123 219 232 328 331 296
1250.0 278 236 254 230 260 269 294 392 464 554
1290.0 555 430 337 309 310 383 478 553 636 763
1330.0 868 895 948 937 865 934 947 1048 1157 1297
1370.0 1462 1692 1860 1834 1839 1666 1474 1270 1095 1056
1410.0 1035 1081 1142 1202 1187 1283 1357 1492 1737 1809
1450.0 2052 2159 2205 2215 2174 2193 2136 2194 2290 2538
1490.0 3152 3791 4552 4864 4768 3951 3094 2122 1340 1105
1530.0 876 809 706 674 771 695 699 671 694 762
1570.0 805 791 820 858 942 959 1140 1238 1540 1814
1610.0 2187 2411 2389 2344 2051 1869 1657 1734 1971 1953
1650.0 1853 1382 736 566 398 340 239 193 226 173
1690.0 139 64 76 122 58 55 102 86 144 70
1730.0 179 115 190 214 269 319 247 230 176 134
1770.0 136 69 55 72 58 47 42 45 73 58
1810.0 78 62 102 88 145 120 122 118 102 144
1850.0 115 108 118 122 162 196 206 251 271 279
1890.0 273 229 170 94 77 64 47 34 42 52
1930.0 29 23 4 31 30 13 21 38 41 46
1970.0 44 33 27 32 50 72 55 17 45 58
2010.0 17 32 42 23 23 39 16 26 46 20
2050.0 5 45 16 28 39 16 31 34 30 24
2090.0 58 40 40 44 40 38 33 41 25 47
2130.0 24 25 14 20 18 47 30 14 11 20
2170.0 20 30 23 0 17 29 14 36 13 4
2210.0 22 36 43 23 34 22 13 39 38 23
2250.0 33 28 48 39 5 48 56 43 43 75
2290.0 71 98 120 86 89 77 87 61 13 40
2330.0 112 121 39 48 114 146 163 97 44 146
2370.0 215 96 156 143 125 94 86 117 74 86
2410.0 81 104 99 62 70 100 85 117 107 111
2450.0 102 104 80 93 123 97 104 128 107 106
2490.0 93 92 110 109 126 115 113 112 114 122
2530.0 132 128 151 147 143 152 147 151 149 143
2570.0 161 167 177 161 172 172 178 178 171 176
2610.0 195 185 190 203 219 218 218 210 209 235
2650.0 243 233 243 247 240 251 266 269 265 262
2690.0 286 282 300 305 339 352 365 407 413 475
2730.0 545 629 724 786 784 771 703 642 610 594
2770.0 599 612 615 664 697 734 764 865 916 987
2810.0 1076 1173 1285 1418 1568 1723 1960 2191 2465 2803
2850.0 3158 3628 4186 4836 5595 6246 6694 6947 6878 6628
2890.0 6294 5992 5764 5643 5703 5918 6386 7087 7969 9043
2930.0 9791 10000 9693 8795 7753 6747 6010 5539 5151 4816
2970.0 4555 4390 4309 4284 4319 4391 4595 4949 5359 5739
3010.0 5961 6010 5868 5521 5141 4722 4399 4238 4316 4511
3050.0 4601 4390 3917 3280 2690 2187 1834 1591 1367 1201
3090.0 1070 956 854 806 769 759 734 705 689 638
3130.0 595 516 444 404 364 315 290 261 236 233
3170.0 245 215 224 214 216 215 187 184 180 156
3210.0 168 159 161 145 143 133 147 123 133 132
3250.0 121 117 109 118 114 122 101 106 105 100
3290.0 86 86 82 73 86 77 90 84 112 118
3330.0 146 206 211 203 229 198 178 144 123 104
3370.0 100 61 72 89 86 71 90 96 88 97
3410.0 103 110 129 91 99 100 86 79 58 65
3450.0 62 72 72 83 69 49 53 57 72 69
3490.0 81 76 34 93 74 100 36 60 62 115
3530.0 62 73 60 71 100 121 49 71 39 155
3570.0 107 78 30 68 61 120 66 55 65 46
3610.0 93 52 109 63 69 69 59 38 30 67
3650.0 57 71 63 43 56 79 19 40 74 45
3690.0 10 55 56 103 57 53 77 86 114 154
3730.0 132 118 135 122 125 50 83 60 85 87
3770.0 84 83 83 92 70 71 57 62 68 99
3810.0 56 76 22 115 58 118 23 72 75 61
3850.0 74 83 126 129 90 111 89 61 129 164
3890.0 110 90 74 185 186 129 124 71 145 89
3930.0 145 71 114 139 110 102 84 163 130 94
##END=
