##TITLE=1,2-Ethanediol, 1-phenyl-
##JCAMP-DX=4.24
##DATA TYPE=INFRARED SPECTRUM
##ORIGIN=Sadtler Research Labs Under US-EPA Contract
##OWNER=NIST Standard Reference Data Program
##CAS REGISTRY NO=93-56-1
##MOLFORM=C 8 H 10 O 2
##XUNITS=1/CM
##YUNITS=ABSORBANCE
##XFACTOR=1.0
##YFACTOR=0.000059763
##DELTAX=4.0
##FIRSTX=450.0
##LASTX=3966.0
##FIRSTY=0.000000
##MAXX=3966
##MINX=450
##MAXY=0.59763
##MINY=0
##NPOINTS=880
##XYDATA=(X++(Y..Y))
450.0 0 174 286 199 242 229 246 149 210 211
490.0 213 190 193 343 372 574 777 1037 1267 1373
530.0 1348 1137 1008 827 809 756 754 676 672 469
570.0 331 194 92 65 10 35 16 65 55 66
610.0 72 89 170 435 733 805 803 544 281 105
650.0 76 97 101 182 235 467 687 986 1658 2506
690.0 3663 4699 5938 5801 5117 3995 2938 2011 1378 1078
730.0 1036 1199 1570 2078 2545 3014 3166 2788 2210 1607
770.0 1015 619 362 224 141 129 135 136 131 145
810.0 197 300 458 582 671 668 555 408 279 229
850.0 212 225 262 347 468 674 961 1328 1606 1712
890.0 1682 1479 1183 937 796 720 630 539 473 413
930.0 367 376 386 446 509 614 729 869 990 1088
970.0 1185 1209 1217 1208 1232 1311 1516 1818 2170 2567
1010.0 3053 3652 4441 5353 6161 6915 7618 8259 8846 9430
1050.0 9847 10000 9884 9386 8681 7750 6717 5814 5210 4803
1090.0 4420 3963 3435 2928 2440 2050 1730 1459 1227 1094
1130.0 1016 1005 1012 1017 1032 1090 1195 1298 1411 1553
1170.0 1740 1894 2019 2129 2233 2333 2414 2461 2403 2297
1210.0 2124 1973 1851 1793 1775 1770 1772 1764 1782 1810
1250.0 1841 1826 1812 1777 1753 1746 1788 1855 1913 1957
1290.0 1983 2017 2029 2042 2032 2010 1990 1998 2038 2059
1330.0 2085 2087 2098 2113 2124 2160 2197 2234 2267 2327
1370.0 2358 2444 2462 2484 2418 2352 2182 1996 1780 1564
1410.0 1351 1133 982 833 730 686 724 841 1024 1256
1450.0 1510 1618 1636 1501 1187 967 760 664 723 955
1490.0 1159 1270 1210 979 679 380 211 108 103 64
1530.0 76 62 82 52 55 33 25 8 29 13
1570.0 36 57 133 151 201 252 336 418 463 449
1610.0 374 269 158 65 37 21 49 60 88 122
1650.0 143 161 190 119 131 121 114 119 131 148
1690.0 170 207 284 323 343 382 380 353 325 337
1730.0 391 455 453 443 456 411 363 246 193 147
1770.0 161 101 90 82 122 126 212 250 277 267
1810.0 211 150 98 71 40 31 8 18 3 34
1850.0 28 56 82 121 144 171 202 206 231 220
1890.0 210 168 138 93 56 48 49 60 71 94
1930.0 138 191 241 274 307 321 331 307 270 210
1970.0 167 114 81 65 61 53 50 53 45 51
2010.0 47 49 47 46 48 52 53 55 60 67
2050.0 65 75 75 80 81 83 83 88 85 88
2090.0 82 80 77 73 67 65 62 58 54 48
2130.0 46 39 40 33 33 30 25 26 25 25
2170.0 20 22 22 20 17 19 17 9 10 14
2210.0 14 15 14 19 18 18 25 20 22 24
2250.0 26 25 25 23 27 28 34 33 40 41
2290.0 44 46 47 47 53 72 88 91 105 103
2330.0 95 97 96 90 99 64 52 40 27 40
2370.0 72 62 64 57 41 32 28 27 24 21
2410.0 27 32 38 42 48 46 47 48 48 47
2450.0 42 42 42 42 36 35 37 35 34 34
2490.0 33 32 36 36 36 38 41 40 34 39
2530.0 37 38 36 37 34 37 38 41 40 40
2570.0 48 44 52 55 60 65 70 75 76 76
2610.0 72 71 71 72 72 76 80 74 80 76
2650.0 75 79 84 87 95 93 97 102 105 112
2690.0 119 121 132 143 150 162 181 186 197 199
2730.0 199 206 212 206 208 209 220 222 235 248
2770.0 259 262 278 288 296 309 330 348 375 394
2810.0 417 445 471 492 507 529 554 596 669 754
2850.0 856 983 1142 1362 1637 1996 2413 2834 3167 3363
2890.0 3366 3251 3054 2783 2544 2375 2320 2354 2493 2686
2930.0 2911 3081 3159 3109 2953 2748 2526 2325 2155 2002
2970.0 1800 1560 1294 1019 778 597 496 447 453 497
3010.0 586 739 980 1331 1812 2314 2701 2877 2796 2531
3050.0 2200 1969 1937 2202 2714 3210 3391 3339 3001 2454
3090.0 1988 1730 1513 1287 1047 835 644 497 367 257
3130.0 184 129 101 72 61 61 55 63 57 61
3170.0 55 58 48 40 29 15 21 14 17 17
3210.0 11 11 22 14 12 10 13 12 11 15
3250.0 23 21 20 22 22 25 22 29 33 22
3290.0 29 37 36 27 33 34 48 40 51 51
3330.0 57 62 61 63 63 71 71 72 84 91
3370.0 85 91 104 107 114 120 130 129 135 136
3410.0 144 144 144 148 147 154 150 167 166 162
3450.0 165 173 169 180 188 186 181 194 201 202
3490.0 213 223 225 258 256 274 293 290 315 328
3530.0 323 321 321 315 338 319 324 308 333 369
3570.0 385 398 421 493 604 716 855 988 1186 1350
3610.0 1633 1842 2100 2374 2596 2728 2624 2576 2505 2445
3650.0 2454 2420 2323 2132 1803 1550 1305 1210 1036 964
3690.0 831 658 506 409 343 284 261 226 205 206
3730.0 181 176 153 120 193 102 136 75 63 72
3770.0 65 72 33 61 30 48 15 47 28 61
3810.0 8 40 23 38 32 22 38 67 33 24
3850.0 25 91 65 36 42 55 41 33 40 88
3890.0 25 50 29 88 52 48 40 39 58 11
3930.0 49 31 15 10 33 8 11 10 33 5
##END=
