##TITLE=Benzenemethanol, .alpha.-ethyl-
##JCAMP-DX=4.24
##DATA TYPE=INFRARED SPECTRUM
##ORIGIN=Sadtler Research Labs Under US-EPA Contract
##OWNER=NIST Standard Reference Data Program
##CAS REGISTRY NO=93-54-9
##MOLFORM=C 9 H 12 O
##XUNITS=1/CM
##YUNITS=ABSORBANCE
##XFACTOR=1.0
##YFACTOR=0.000062943
##DELTAX=4.0
##FIRSTX=450.0
##LASTX=3966.0
##FIRSTY=0.007301
##MAXX=3966
##MINX=450
##MAXY=0.62943
##MINY=0
##NPOINTS=880
##XYDATA=(X++(Y..Y))
450.0 116 219 405 355 385 536 750 798 927 907
490.0 752 733 710 727 687 738 775 843 996 1215
530.0 1299 1379 1381 1215 979 648 438 274 124 103
570.0 58 57 48 42 13 43 115 202 273 331
610.0 374 329 391 506 572 558 427 225 142 180
650.0 292 440 487 563 554 606 706 1014 1710 2983
690.0 5076 6631 8696 8281 7238 5171 3479 2132 1419 1249
730.0 1394 1837 2379 3066 3596 4122 4287 4347 4020 3404
770.0 2620 1766 1078 552 280 234 193 154 149 168
810.0 149 134 168 246 343 459 495 490 394 289
850.0 181 138 124 187 267 352 446 542 656 821
890.0 1014 1191 1282 1247 1140 1020 879 762 638 539
930.0 477 477 541 646 796 1009 1351 1834 2538 3381
970.0 4171 4628 4664 4388 3798 3289 3022 3191 3662 4411
1010.0 4972 5116 4970 4693 4341 3996 4054 4016 3838 3586
1050.0 3282 2929 2666 2542 2503 2566 2636 2779 2911 3043
1090.0 3103 3101 2985 2762 2554 2316 2062 1764 1485 1170
1130.0 897 679 563 523 538 590 672 810 980 1208
1170.0 1451 1691 1825 1849 1819 1715 1662 1640 1683 1737
1210.0 1859 2035 2268 2487 2621 2615 2458 2261 2007 1837
1250.0 1748 1796 1906 2027 2138 2190 2211 2174 2227 2290
1290.0 2436 2506 2537 2473 2356 2318 2272 2270 2238 2199
1330.0 2015 1837 1701 1585 1625 1789 2039 2265 2536 2731
1370.0 2939 3048 3116 3063 2877 2585 2170 1790 1390 1135
1410.0 909 792 691 671 642 715 895 1195 1698 2249
1450.0 2901 3202 3374 3160 2746 2288 1871 1512 1457 1639
1490.0 1908 1949 1830 1403 960 426 280 194 171 173
1530.0 150 189 184 205 145 132 97 76 60 51
1570.0 75 73 130 176 228 322 428 642 713 749
1610.0 632 457 232 92 46 20 19 16 16 25
1650.0 57 46 73 76 97 86 90 79 77 81
1690.0 88 145 194 270 283 265 242 171 84 59
1730.0 56 70 79 101 139 149 150 129 106 72
1770.0 66 50 41 43 70 125 244 354 416 395
1810.0 330 216 128 76 56 33 16 2 0 15
1850.0 25 49 77 120 156 212 237 261 281 282
1890.0 276 240 206 144 87 41 35 38 63 97
1930.0 156 236 319 389 421 436 428 385 315 242
1970.0 162 76 35 26 22 21 26 17 18 24
2010.0 23 22 26 28 23 21 19 17 11 15
2050.0 13 14 10 11 17 14 17 16 21 19
2090.0 22 18 15 17 15 22 16 15 14 19
2130.0 19 17 19 20 19 19 18 13 13 13
2170.0 15 17 13 15 15 16 10 14 14 15
2210.0 16 17 20 19 25 26 26 25 32 33
2250.0 33 32 33 33 32 39 38 40 44 43
2290.0 39 39 41 35 48 75 83 93 92 79
2330.0 71 87 86 89 73 80 66 70 40 34
2370.0 20 34 42 47 55 58 67 70 73 69
2410.0 77 81 81 86 83 77 71 64 58 59
2450.0 56 53 56 56 58 56 55 53 51 48
2490.0 48 42 45 44 47 46 47 46 46 51
2530.0 50 53 56 62 67 67 81 83 97 101
2570.0 113 119 128 135 142 151 151 158 157 157
2610.0 147 144 134 128 133 133 137 136 136 133
2650.0 130 133 141 142 145 148 151 160 165 181
2690.0 189 194 195 191 187 190 183 179 194 203
2730.0 218 239 262 268 288 297 297 291 282 278
2770.0 283 299 309 324 342 356 376 395 421 449
2810.0 480 507 542 584 639 712 797 924 1060 1259
2850.0 1528 1914 2411 3002 3657 4316 5037 5770 6512 6696
2890.0 6414 5785 4781 3897 3409 3207 3228 3474 3924 4642
2930.0 5538 6628 7540 8067 8089 7446 6613 6005 6105 6887
2970.0 8587 9990 10000 9177 7492 5369 3486 2413 1824 1531
3010.0 1425 1476 1740 2227 3032 3973 4761 5137 4983 4379
3050.0 3656 3065 2865 3207 4059 4976 5410 5341 4825 3951
3090.0 3276 2887 2527 2136 1764 1435 1167 915 709 520
3130.0 395 301 250 213 197 187 192 199 199 213
3170.0 216 215 199 174 145 128 110 101 92 88
3210.0 86 80 80 64 59 56 52 52 44 39
3250.0 34 35 28 30 26 34 28 32 32 32
3290.0 29 21 31 25 24 23 22 23 15 17
3330.0 24 29 19 36 32 30 34 36 48 45
3370.0 66 68 76 62 69 62 68 73 67 66
3410.0 63 63 63 71 64 75 68 64 70 68
3450.0 70 77 73 62 67 66 57 46 58 49
3490.0 46 54 44 39 23 40 47 36 28 39
3530.0 34 33 43 27 47 30 42 28 42 19
3570.0 28 39 31 50 38 51 40 57 61 92
3610.0 124 139 199 242 349 494 915 1315 2043 2553
3650.0 2946 2952 2576 1970 1421 904 558 330 271 214
3690.0 176 153 122 123 90 105 53 69 58 56
3730.0 52 61 42 22 46 38 58 28 44 45
3770.0 53 61 43 52 40 44 38 47 29 44
3810.0 32 51 46 26 58 68 66 43 46 75
3850.0 77 52 59 79 82 79 72 76 63 94
3890.0 63 63 55 58 69 72 87 66 78 57
3930.0 60 72 55 58 49 39 59 46 50 47
##END=
