##TITLE=1-Propanone, 1-phenyl-
##JCAMP-DX=4.24
##DATA TYPE=INFRARED SPECTRUM
##ORIGIN=Sadtler Research Labs Under US-EPA Contract
##OWNER=NIST Standard Reference Data Program
##CAS REGISTRY NO=93-55-0
##MOLFORM=C 9 H 10 O
##XUNITS=1/CM
##YUNITS=ABSORBANCE
##XFACTOR=1.0
##YFACTOR=0.000069016
##DELTAX=4.0
##FIRSTX=450.0
##LASTX=3966.0
##FIRSTY=0.011802
##MAXX=3966
##MINX=450
##MAXY=0.69016
##MINY=0
##NPOINTS=880
##XYDATA=(X++(Y..Y))
450.0 171 260 185 251 263 310 242 380 303 326
490.0 355 337 262 272 243 194 251 222 322 273
530.0 317 295 371 227 369 475 543 643 711 825
570.0 802 912 757 662 522 424 415 267 284 258
610.0 316 281 313 250 328 250 212 320 322 419
650.0 426 541 524 514 473 615 897 1219 1735 2211
690.0 3051 3022 2774 2411 1857 1379 1004 810 709 907
730.0 1148 1464 1779 2320 2480 1931 1553 1177 791 531
770.0 433 367 333 357 354 282 172 63 99 66
810.0 39 30 23 29 6 5 14 32 37 22
850.0 32 10 29 12 34 41 57 51 73 71
890.0 78 101 105 137 160 199 267 358 538 853
930.0 1267 1737 2280 2794 3024 2809 2420 1743 990 567
970.0 384 280 205 182 186 220 376 665 1009 1298
1010.0 1462 1334 1117 787 538 363 252 156 91 90
1050.0 108 172 228 306 392 465 480 508 512 453
1090.0 421 361 321 265 231 193 160 129 108 101
1130.0 95 104 110 141 156 194 237 251 293 382
1170.0 597 1064 1394 1439 1404 1125 788 958 1624 2916
1210.0 4627 6210 7123 6924 5571 3786 2397 1777 1492 1309
1250.0 1215 1105 1078 1097 1176 1285 1410 1433 1351 1161
1290.0 917 747 703 728 768 867 1017 1188 1341 1412
1330.0 1463 1457 1506 1704 2010 2244 2260 2058 1675 1210
1370.0 905 810 809 816 743 686 524 390 351 345
1410.0 348 403 417 454 453 527 578 738 1058 1411
1450.0 1525 1590 1616 1386 1147 1062 883 652 464 323
1490.0 237 222 194 152 128 91 94 103 83 122
1530.0 110 132 131 127 116 150 149 136 188 206
1570.0 283 385 547 656 744 825 892 881 850 817
1610.0 668 480 311 282 204 215 172 188 196 218
1650.0 245 327 408 481 603 654 754 930 1251 1950
1690.0 3149 4992 7217 9197 10000 9188 7983 5190 2754 1572
1730.0 895 600 483 457 415 401 396 363 318 291
1770.0 263 212 180 145 133 115 124 155 183 250
1810.0 255 240 209 153 103 76 76 70 56 42
1850.0 54 56 58 59 54 54 74 83 97 115
1890.0 137 149 162 175 171 158 139 114 74 61
1930.0 62 71 81 89 121 153 176 189 197 198
1970.0 177 148 123 89 51 29 24 15 15 5
2010.0 3 4 2 8 13 23 32 25 15 16
2050.0 25 25 39 31 30 40 40 30 24 25
2090.0 28 30 28 29 30 30 26 22 22 22
2130.0 20 15 18 21 18 25 31 25 30 27
2170.0 26 19 16 18 27 22 25 24 19 22
2210.0 24 21 31 23 30 22 26 20 25 22
2250.0 29 34 33 35 33 29 26 30 31 34
2290.0 36 39 54 64 75 95 111 132 132 143
2330.0 130 98 82 68 36 66 125 89 64 35
2370.0 0 1 1 1 5 20 31 31 31 34
2410.0 26 28 28 35 38 45 33 39 30 30
2450.0 30 32 22 25 23 15 16 13 11 7
2490.0 14 15 11 6 9 13 10 16 25 22
2530.0 22 20 15 7 2 13 15 13 12 7
2570.0 8 4 11 16 20 33 26 33 28 21
2610.0 14 19 12 6 17 18 22 26 19 24
2650.0 38 40 38 27 28 40 48 51 50 62
2690.0 71 66 55 46 43 49 55 53 43 43
2730.0 44 57 53 44 58 61 69 72 60 64
2770.0 64 66 89 71 67 72 72 87 107 120
2810.0 141 157 155 174 174 183 190 189 181 187
2850.0 181 184 203 234 264 324 394 500 662 814
2890.0 902 955 943 902 942 1103 1254 1352 1383 1317
2930.0 1188 1074 1123 1380 1793 2000 1954 1794 1352 1046
2970.0 1046 1316 1738 2245 2504 2543 2495 1930 1379 1037
3010.0 775 633 554 573 664 740 881 988 1081 1051
3050.0 1042 1004 1002 1151 1480 1834 1961 1891 1837 1504
3090.0 1245 1174 1175 1016 764 575 450 334 235 170
3130.0 136 118 135 130 133 122 122 148 137 142
3170.0 130 111 109 94 74 66 65 68 81 71
3210.0 45 61 49 51 58 58 61 53 51 52
3250.0 55 55 64 61 63 60 67 48 62 51
3290.0 65 52 60 91 64 78 52 61 56 64
3330.0 59 71 45 69 77 70 88 70 75 77
3370.0 104 130 159 159 177 210 200 188 169 155
3410.0 132 115 87 59 35 38 64 92 65 71
3450.0 58 51 63 52 54 80 70 69 64 75
3490.0 59 59 52 41 54 64 49 52 62 46
3530.0 69 56 55 56 50 45 28 38 50 38
3570.0 46 63 49 71 67 58 60 39 20 26
3610.0 44 63 49 46 37 9 57 41 34 73
3650.0 68 31 74 5 47 54 55 52 82 66
3690.0 79 29 51 73 38 53 54 84 50 62
3730.0 22 55 5 52 71 62 73 69 54 39
3770.0 39 63 41 73 47 32 42 65 50 54
3810.0 41 47 43 51 49 51 45 65 74 91
3850.0 56 57 49 53 52 45 65 21 17 87
3890.0 65 84 59 70 12 101 87 96 50 87
3930.0 51 37 53 84 76 94 123 91 85 51
##END=
