##TITLE=Benzoic acid, methyl ester
##JCAMP-DX=4.24
##DATA TYPE=INFRARED SPECTRUM
##ORIGIN=Sadtler Research Labs Under US-EPA Contract
##OWNER=NIST Standard Reference Data Program
##CAS REGISTRY NO=93-58-3
##MOLFORM=C 8 H 8 O 2
##XUNITS=1/CM
##YUNITS=ABSORBANCE
##XFACTOR=1.0
##YFACTOR=0.000300604
##DELTAX=4.0
##FIRSTX=450.0
##LASTX=3966.0
##FIRSTY=0.030962
##MAXX=3966
##MINX=450
##MAXY=3.00604
##MINY=0
##NPOINTS=880
##XYDATA=(X++(Y..Y))
450.0 103 52 67 83 93 41 44 10 17 3
490.0 14 30 37 46 48 52 29 31 17 16
530.0 7 14 2 11 14 14 21 13 20 23
570.0 13 13 13 14 10 13 12 21 21 27
610.0 33 40 42 32 33 15 21 13 17 22
650.0 29 46 43 103 146 345 358 432 500 546
690.0 674 888 1315 1565 2222 2750 2366 1816 1458 971
730.0 573 291 163 91 72 56 62 57 52 53
770.0 45 42 34 43 52 61 71 83 107 141
810.0 175 224 258 239 242 193 121 79 51 39
850.0 30 32 29 35 26 26 23 24 19 19
890.0 27 29 44 58 81 80 80 77 69 63
930.0 63 75 68 65 62 69 78 101 138 180
970.0 205 203 190 148 101 73 65 58 60 58
1010.0 75 117 249 531 728 668 676 420 160 96
1050.0 121 189 320 474 591 607 619 583 561 730
1090.0 1110 1516 1998 2691 3321 3408 3311 2811 1962 1252
1130.0 972 848 762 684 602 530 472 434 424 489
1170.0 714 1005 1101 1171 1119 913 716 624 544 388
1210.0 269 219 204 222 278 394 586 831 1026 1167
1250.0 1322 1576 2132 3191 5066 6444 10000 6627 8978 6657
1290.0 4731 3008 1995 1377 1071 1088 1107 1079 977 729
1330.0 495 369 280 210 161 134 109 98 89 85
1370.0 86 94 105 112 121 121 120 113 111 117
1410.0 126 143 159 194 249 459 798 1089 1264 1362
1450.0 1080 800 701 595 410 291 246 196 178 165
1490.0 167 155 151 137 127 103 83 85 76 78
1530.0 63 72 69 85 79 82 88 91 105 101
1570.0 125 143 173 201 204 224 234 289 299 323
1610.0 310 267 190 163 155 152 160 168 168 144
1650.0 144 114 78 66 59 58 58 84 86 132
1690.0 139 192 224 229 209 224 229 283 472 743
1730.0 1473 2268 4352 4791 5378 4790 6813 3623 2028 1060
1770.0 600 315 237 221 217 226 224 253 225 194
1810.0 169 154 117 97 71 46 35 24 31 21
1850.0 28 19 18 15 17 15 14 19 19 30
1890.0 35 50 58 76 86 95 107 114 112 101
1930.0 96 84 79 75 77 77 79 80 78 80
1970.0 76 67 50 37 24 18 17 15 17 17
2010.0 20 18 20 18 18 17 17 17 18 22
2050.0 21 27 31 39 45 53 59 63 67 69
2090.0 70 65 64 56 49 38 29 20 14 13
2130.0 10 11 9 10 8 6 6 5 5 6
2170.0 6 5 5 2 2 0 1 2 2 3
2210.0 4 6 5 7 7 9 11 12 16 17
2250.0 19 20 20 17 17 15 11 10 9 8
2290.0 7 7 8 10 10 15 17 17 19 17
2330.0 17 16 14 13 17 11 16 12 15 16
2370.0 14 17 16 16 15 15 13 12 12 11
2410.0 11 9 9 7 6 4 3 3 3 3
2450.0 3 3 3 2 2 3 2 2 2 2
2490.0 2 0 1 0 1 1 3 2 3 6
2530.0 6 8 9 14 14 17 18 17 17 16
2570.0 14 12 11 10 12 14 16 17 19 17
2610.0 17 13 9 7 7 7 5 5 4 4
2650.0 4 5 7 5 5 3 2 1 2 1
2690.0 2 2 1 4 4 4 4 4 5 3
2730.0 4 4 6 4 6 4 6 6 8 9
2770.0 10 11 10 10 8 8 8 8 8 9
2810.0 9 11 13 17 20 27 40 61 110 173
2850.0 212 224 213 155 98 80 75 75 81 90
2890.0 101 120 135 150 165 181 204 211 207 197
2930.0 178 161 160 184 239 379 673 1012 1077 1058
2970.0 876 505 277 218 213 236 261 291 330 332
3010.0 315 312 306 313 334 342 362 383 383 392
3050.0 395 382 383 405 440 518 628 661 603 541
3090.0 433 335 294 285 277 230 175 133 96 65
3130.0 46 34 29 28 26 26 28 27 29 30
3170.0 30 29 29 26 20 18 17 15 14 13
3210.0 11 10 10 9 11 10 10 10 9 10
3250.0 8 7 7 5 6 9 5 7 7 7
3290.0 8 8 7 6 7 7 6 7 8 9
3330.0 7 9 10 12 14 15 13 11 7 9
3370.0 8 9 9 9 7 8 9 7 8 6
3410.0 7 8 6 7 9 9 9 7 4 6
3450.0 9 12 20 29 46 54 57 61 58 41
3490.0 26 16 9 2 0 0 3 3 2 4
3530.0 2 6 6 7 4 5 5 6 6 1
3570.0 4 4 6 4 1 3 3 4 3 5
3610.0 4 7 3 5 6 5 10 4 9 9
3650.0 11 14 10 16 8 14 13 13 11 9
3690.0 17 10 11 9 11 14 12 11 15 10
3730.0 13 12 16 9 22 8 13 12 6 11
3770.0 9 12 8 11 11 8 4 10 4 13
3810.0 6 9 7 6 11 7 8 6 6 7
3850.0 9 5 7 8 7 4 10 10 6 14
3890.0 9 15 2 8 6 10 5 10 10 3
3930.0 9 10 12 9 10 9 14 10 9 8
##END=
