##TITLE=Formamide, N-methyl-N-phenyl-
##JCAMP-DX=4.24
##DATA TYPE=INFRARED SPECTRUM
##ORIGIN=Sadtler Research Labs Under US-EPA Contract
##OWNER=NIST Standard Reference Data Program
##CAS REGISTRY NO=93-61-8
##MOLFORM=C 8 H 9 N O
##XUNITS=1/CM
##YUNITS=ABSORBANCE
##XFACTOR=1.0
##YFACTOR=0.000073770
##DELTAX=4.0
##FIRSTX=450.0
##LASTX=3966.0
##FIRSTY=0.000516
##MAXX=3966
##MINX=450
##MAXY=0.7377
##MINY=0
##NPOINTS=880
##XYDATA=(X++(Y..Y))
450.0 7 19 8 5 5 8 3 22 31 16
490.0 14 17 34 62 57 85 119 148 196 278
530.0 316 344 341 267 189 137 93 57 50 31
570.0 86 44 18 24 24 40 27 29 12 27
610.0 19 22 19 18 37 30 25 28 21 31
650.0 38 48 76 112 209 365 391 431 526 585
690.0 648 723 701 569 447 313 190 115 87 64
730.0 71 89 132 181 258 330 407 481 548 445
770.0 334 218 148 76 42 19 18 18 37 58
810.0 64 109 153 144 139 124 49 18 12 7
850.0 8 14 6 14 13 20 19 19 19 19
890.0 27 21 34 36 33 33 29 34 35 20
930.0 20 21 20 34 56 93 148 265 439 650
970.0 769 758 666 475 218 89 75 102 96 102
1010.0 122 115 157 247 289 288 288 239 195 194
1050.0 200 193 187 158 145 149 158 176 184 211
1090.0 242 308 402 532 690 855 950 979 917 782
1130.0 612 473 375 314 271 250 229 222 208 194
1170.0 180 176 159 154 138 133 123 116 116 123
1210.0 137 150 170 186 207 217 236 257 292 343
1250.0 416 524 638 730 771 781 760 707 671 681
1290.0 727 827 967 1142 1306 1445 1574 1598 1573 1571
1330.0 1569 1532 1435 1321 1184 998 791 647 552 475
1370.0 398 310 242 203 157 136 119 110 131 141
1410.0 148 185 153 177 154 153 120 138 141 153
1450.0 156 154 156 157 175 165 167 214 377 665
1490.0 1167 1619 1758 1710 1446 886 565 394 292 232
1530.0 160 141 107 82 79 108 104 89 112 128
1570.0 171 226 325 437 641 883 1197 1459 1515 1316
1610.0 1007 638 321 179 104 108 80 85 92 106
1650.0 85 121 133 169 210 257 289 389 447 619
1690.0 914 1420 2404 4409 7459 9590 10000 9187 6131 2811
1730.0 1528 977 647 434 282 188 144 112 99 104
1770.0 96 99 127 144 164 166 160 145 123 107
1810.0 84 61 63 53 47 33 35 35 25 26
1850.0 32 41 38 39 32 28 44 41 37 32
1890.0 29 27 25 22 19 25 25 30 25 41
1930.0 44 55 55 55 59 61 56 48 38 32
1970.0 27 24 24 23 32 25 28 36 38 37
2010.0 33 29 21 23 18 18 14 11 10 12
2050.0 9 9 8 13 4 6 6 14 12 20
2090.0 18 20 23 20 20 20 20 20 20 15
2130.0 22 21 13 21 21 13 16 16 11 14
2170.0 15 10 10 17 9 16 16 8 14 9
2210.0 12 16 20 23 28 29 29 30 29 29
2250.0 27 27 30 21 21 20 20 19 18 21
2290.0 17 19 21 18 19 25 34 35 45 40
2330.0 47 37 29 30 25 32 58 47 29 0
2370.0 2 2 2 2 8 17 19 20 21 13
2410.0 14 14 15 7 8 8 4 5 2 2
2450.0 10 10 10 2 9 11 3 6 5 10
2490.0 6 8 11 4 4 12 12 12 18 18
2530.0 18 18 18 15 12 8 14 19 19 13
2570.0 14 14 14 15 20 20 28 27 30 35
2610.0 35 34 29 28 29 23 22 15 15 15
2650.0 20 25 30 29 29 31 24 30 31 38
2690.0 38 39 38 38 34 39 39 44 40 40
2730.0 39 46 40 46 54 56 63 69 84 92
2770.0 108 108 107 108 101 102 97 101 103 105
2810.0 112 119 126 131 136 142 156 163 190 211
2850.0 233 275 334 407 505 588 622 605 549 454
2890.0 364 303 264 244 239 232 232 244 249 268
2930.0 282 297 317 318 333 325 319 318 292 284
2970.0 256 236 212 192 171 157 138 130 124 124
3010.0 111 119 126 141 160 188 228 268 318 367
3050.0 389 390 363 336 329 344 387 405 402 378
3090.0 335 273 244 221 201 174 154 128 101 85
3130.0 78 67 61 49 58 54 50 57 59 46
3170.0 51 51 47 53 45 46 46 46 46 46
3210.0 48 53 54 54 48 42 49 40 49 45
3250.0 42 45 43 48 49 37 44 43 44 46
3290.0 50 51 48 53 57 51 58 51 46 40
3330.0 45 47 53 45 52 47 48 48 52 53
3370.0 56 55 48 55 56 76 89 100 121 129
3410.0 133 120 98 80 65 58 51 44 45 43
3450.0 38 39 35 33 37 40 37 34 33 47
3490.0 33 34 34 49 38 38 35 32 27 33
3530.0 33 28 35 24 28 36 23 29 32 19
3570.0 28 28 20 18 23 30 18 31 19 18
3610.0 24 17 17 18 19 30 14 15 7 7
3650.0 16 12 8 11 1 16 12 19 9 11
3690.0 6 2 12 11 2 9 14 11 2 10
3730.0 16 17 21 6 14 4 2 2 4 3
3770.0 2 4 2 2 2 2 2 3 8 2
3810.0 2 6 2 2 5 2 2 12 11 14
3850.0 18 19 13 16 13 20 21 25 21 24
3890.0 23 20 15 21 23 29 22 28 28 22
3930.0 17 18 26 25 26 22 22 23 23 24
##END=
