##TITLE=Benzoic acid, ethyl ester
##JCAMP-DX=4.24
##DATA TYPE=INFRARED SPECTRUM
##ORIGIN=Sadtler Research Labs Under US-EPA Contract
##OWNER=NIST Standard Reference Data Program
##CAS REGISTRY NO=93-89-0
##MOLFORM=C 9 H 10 O 2
##XUNITS=1/CM
##YUNITS=ABSORBANCE
##XFACTOR=1.0
##YFACTOR=0.000102515
##DELTAX=4.0
##FIRSTX=450.0
##LASTX=3966.0
##FIRSTY=0.000000
##MAXX=3966
##MINX=450
##MAXY=1.02515
##MINY=0
##NPOINTS=880
##XYDATA=(X++(Y..Y))
450.0 0 124 56 131 41 70 29 92 39 53
490.0 58 104 77 110 126 64 107 58 76 45
530.0 81 122 284 130 60 104 61 106 47 76
570.0 39 52 92 72 113 57 68 67 83 69
610.0 112 77 89 85 100 88 58 88 142 77
650.0 70 104 90 139 197 359 345 431 456 390
690.0 480 637 1020 1272 1755 2261 1868 1438 1066 670
730.0 339 195 166 142 138 111 127 103 110 116
770.0 106 110 114 140 98 137 119 123 108 116
810.0 91 85 85 79 91 97 127 134 170 187
850.0 197 186 168 170 175 170 165 174 141 121
890.0 88 87 79 79 78 66 78 83 91 89
930.0 103 108 102 108 101 103 91 91 87 85
970.0 88 91 97 96 114 117 151 178 200 213
1010.0 219 240 317 563 889 993 954 707 346 208
1050.0 192 251 372 556 728 747 711 602 550 713
1090.0 1162 1655 2229 3127 4032 4463 4403 3442 2125 1287
1130.0 856 610 479 393 364 345 358 368 430 543
1170.0 766 1068 1154 1071 808 468 302 265 248 239
1210.0 226 235 256 298 378 520 747 1029 1234 1340
1250.0 1421 1602 2180 3527 5822 8493 10000 9503 6825 3434
1290.0 1617 1024 832 742 726 839 862 773 650 399
1330.0 269 222 186 175 175 170 179 220 336 543
1370.0 621 619 523 339 273 263 267 250 254 237
1410.0 210 209 165 183 179 193 184 226 295 427
1450.0 538 548 533 461 378 358 322 297 275 215
1490.0 180 171 137 128 93 71 84 73 59 77
1530.0 71 78 69 53 70 93 92 66 91 99
1570.0 105 126 153 185 211 221 230 239 282 301
1610.0 282 236 147 119 92 106 94 99 113 109
1650.0 86 74 82 82 87 83 82 115 114 132
1690.0 174 210 191 214 232 271 312 459 776 1318
1730.0 2129 3288 4417 4642 4707 3967 2510 1468 791 455
1770.0 292 218 214 194 202 178 174 149 135 138
1810.0 139 135 131 117 91 73 65 76 57 51
1850.0 61 61 59 57 59 45 65 69 76 76
1890.0 79 88 89 100 104 110 104 105 94 91
1930.0 85 74 73 72 91 94 104 102 110 110
1970.0 112 105 92 83 70 65 58 62 60 59
2010.0 53 56 59 55 61 57 59 50 43 38
2050.0 42 43 41 44 35 34 27 25 26 29
2090.0 31 40 49 50 53 54 65 62 65 65
2130.0 63 59 51 53 46 47 45 46 39 39
2170.0 40 35 35 31 35 34 37 39 40 38
2210.0 41 41 39 44 37 47 42 46 44 44
2250.0 51 45 45 47 47 43 50 48 49 45
2290.0 47 48 44 46 40 41 45 43 39 33
2330.0 42 30 43 30 64 40 25 27 28 56
2370.0 77 89 82 76 63 58 52 57 53 51
2410.0 48 46 49 41 46 44 48 48 50 45
2450.0 46 50 48 47 45 48 46 46 47 48
2490.0 44 48 51 45 45 47 45 47 43 47
2530.0 43 45 49 53 49 54 53 49 50 47
2570.0 44 47 52 53 56 57 62 62 66 68
2610.0 72 72 73 68 66 68 68 58 63 61
2650.0 64 59 54 50 39 31 30 30 27 33
2690.0 36 34 38 42 41 46 50 48 53 49
2730.0 56 49 49 51 53 55 51 55 56 60
2770.0 62 61 56 59 49 55 49 50 60 60
2810.0 68 61 72 79 75 79 85 84 84 88
2850.0 92 98 103 112 119 128 142 170 203 223
2890.0 232 237 226 234 240 258 282 280 276 270
2930.0 277 293 360 445 477 477 452 406 407 440
2970.0 481 545 669 860 979 988 915 746 590 512
3010.0 426 364 298 256 236 232 239 251 286 310
3050.0 310 306 315 326 381 447 548 564 512 450
3090.0 339 290 273 272 243 190 168 140 117 95
3130.0 85 82 86 81 85 78 79 84 85 86
3170.0 88 89 87 78 73 70 79 72 85 77
3210.0 80 73 72 78 60 65 66 67 55 61
3250.0 73 67 49 59 81 78 65 73 75 73
3290.0 67 74 58 65 72 56 50 61 61 70
3330.0 46 60 58 74 73 67 67 54 68 60
3370.0 62 64 70 65 71 59 50 53 65 66
3410.0 51 57 63 56 59 50 45 54 69 62
3450.0 67 79 79 89 78 93 79 58 62 59
3490.0 40 59 59 48 55 39 51 51 58 54
3530.0 61 41 55 54 27 50 51 49 58 59
3570.0 71 44 64 60 56 40 42 37 53 59
3610.0 70 52 52 58 56 58 58 57 44 50
3650.0 42 55 41 49 47 49 60 52 59 58
3690.0 61 51 43 46 55 56 63 56 42 60
3730.0 61 67 60 47 50 56 61 63 60 39
3770.0 67 47 55 68 52 61 51 62 43 60
3810.0 55 64 38 47 67 49 73 64 45 34
3850.0 43 44 36 73 77 49 65 64 65 70
3890.0 57 39 48 52 84 77 66 58 58 80
3930.0 91 75 70 85 31 60 75 70 52 63
##END=
