##TITLE=Benzoic acid, phenyl ester
##JCAMP-DX=4.24
##DATA TYPE=INFRARED SPECTRUM
##ORIGIN=Sadtler Research Labs Under US-EPA Contract
##OWNER=NIST Standard Reference Data Program
##CAS REGISTRY NO=93-99-2
##MOLFORM=C 13 H 10 O 2
##XUNITS=1/CM
##YUNITS=ABSORBANCE
##XFACTOR=1.0
##YFACTOR=0.000065591
##DELTAX=4.0
##FIRSTX=450.0
##LASTX=3966.0
##FIRSTY=0.049194
##MAXX=3966
##MINX=450
##MAXY=0.65591
##MINY=0
##NPOINTS=880
##XYDATA=(X++(Y..Y))
450.0 750 314 155 55 96 11 122 44 191 81
490.0 256 242 295 305 302 305 226 275 174 206
530.0 169 224 235 170 206 189 192 171 264 233
570.0 437 497 393 342 241 225 161 208 108 171
610.0 211 216 232 220 201 181 191 195 219 226
650.0 253 247 280 287 332 459 604 887 1132 1301
690.0 1413 1563 1836 2044 2170 1820 1459 1052 800 672
730.0 683 742 892 992 991 884 731 625 529 462
770.0 363 313 269 245 222 256 243 264 276 298
810.0 322 329 344 324 331 275 254 258 274 286
850.0 275 248 202 175 145 144 144 159 160 167
890.0 203 217 237 259 301 299 293 262 235 213
930.0 201 205 201 209 206 217 192 202 199 207
970.0 191 193 201 194 229 267 365 498 633 665
1010.0 645 612 909 1634 2040 1658 872 432 498 790
1050.0 1505 2694 3844 4092 3465 2913 3037 3016 2213 1271
1090.0 728 608 535 482 372 294 252 236 240 233
1130.0 264 275 322 366 440 552 824 1417 1974 2027
1170.0 1813 2060 2745 3143 3219 4120 6615 9278 10000 7497
1210.0 3759 1926 1609 1821 2280 2700 3016 3236 3356 3649
1250.0 4434 6124 8016 8564 7113 4535 2715 1906 1415 1078
1290.0 888 780 730 723 771 822 806 698 544 417
1330.0 371 349 314 285 280 286 280 287 276 271
1370.0 258 251 243 226 235 208 210 180 179 167
1410.0 181 168 192 180 174 184 212 247 293 433
1450.0 585 648 595 429 418 440 617 667 769 1058
1490.0 1740 2390 2321 1536 889 435 365 281 295 249
1530.0 240 238 233 262 214 226 230 271 252 275
1570.0 353 416 530 692 833 1095 1203 1257 901 601
1610.0 374 257 224 178 188 160 197 189 194 162
1650.0 207 155 163 139 149 140 169 140 180 183
1690.0 178 197 213 242 244 248 279 336 353 359
1730.0 476 597 843 1153 1864 2560 3629 4360 4531 3791
1770.0 2740 1659 990 601 400 307 280 283 264 283
1810.0 275 277 234 222 185 173 148 137 137 126
1850.0 128 109 118 113 123 122 116 121 120 120
1890.0 117 127 125 141 150 164 168 175 181 163
1930.0 163 144 141 143 162 164 163 149 138 144
1970.0 135 138 122 113 109 113 106 101 112 115
2010.0 117 117 122 110 97 90 75 70 70 75
2050.0 73 77 72 70 68 71 68 67 67 67
2090.0 68 67 73 71 76 75 75 67 67 67
2130.0 61 59 55 58 51 52 58 55 48 50
2170.0 51 53 55 44 55 51 48 48 43 42
2210.0 39 44 37 45 40 44 41 45 44 43
2250.0 44 45 48 49 48 47 54 55 66 67
2290.0 77 82 91 98 107 122 122 126 133 123
2330.0 115 98 92 110 83 102 118 101 88 55
2370.0 25 39 38 61 56 56 54 54 53 40
2410.0 36 35 36 31 29 30 30 23 22 25
2450.0 19 21 22 24 24 25 22 18 18 18
2490.0 21 22 25 21 16 17 19 25 23 17
2530.0 21 24 23 23 18 25 24 28 33 36
2570.0 35 33 23 23 23 22 18 19 20 17
2610.0 21 18 17 23 22 19 16 17 14 14
2650.0 13 12 13 7 11 8 10 8 5 6
2690.0 9 8 2 1 0 2 4 6 7 5
2730.0 6 8 2 3 10 11 13 10 12 11
2770.0 13 13 9 10 15 10 7 10 11 10
2810.0 10 10 11 11 13 20 18 17 19 21
2850.0 27 28 32 32 30 29 25 21 19 20
2890.0 20 21 20 23 22 23 26 19 22 27
2930.0 23 23 27 25 29 18 18 20 17 18
2970.0 17 13 19 18 15 16 21 27 32 50
3010.0 66 82 97 120 147 187 249 325 418 522
3050.0 568 546 488 479 560 683 847 969 958 783
3090.0 578 455 418 390 336 263 195 132 78 57
3130.0 42 31 30 24 24 22 29 23 27 22
3170.0 24 27 21 19 9 7 18 13 13 17
3210.0 12 21 10 24 14 19 15 16 17 16
3250.0 19 18 23 17 10 22 16 14 18 20
3290.0 12 16 17 20 15 14 9 4 12 12
3330.0 13 13 14 14 17 25 18 21 17 16
3370.0 14 8 16 9 11 12 15 19 16 9
3410.0 10 8 7 13 15 18 11 24 18 18
3450.0 8 10 19 22 17 35 21 25 20 29
3490.0 29 23 40 24 14 11 14 2 3 17
3530.0 0 8 6 20 26 15 22 20 23 25
3570.0 9 16 19 27 28 21 29 23 10 16
3610.0 19 22 20 6 10 35 29 33 27 38
3650.0 41 24 18 38 34 39 30 37 25 63
3690.0 40 33 23 46 32 35 35 46 49 37
3730.0 55 45 26 32 38 41 30 25 39 42
3770.0 45 42 27 35 49 51 36 40 29 46
3810.0 50 36 38 68 48 47 64 28 42 55
3850.0 39 46 22 43 44 54 36 30 48 70
3890.0 45 69 39 54 38 38 36 35 25 27
3930.0 36 35 52 53 45 22 30 39 34 52
##END=
