##TITLE=N-(2-Hydroxyethyl)-N-methylaniline
##JCAMP-DX=4.24
##DATA TYPE=INFRARED SPECTRUM
##ORIGIN=Sadtler Research Labs Under US-EPA Contract
##OWNER=NIST Standard Reference Data Program
##CAS REGISTRY NO=93-90-3
##MOLFORM=C 9 H 13 N O
##XUNITS=1/CM
##YUNITS=ABSORBANCE
##XFACTOR=1.0
##YFACTOR=0.000091473
##DELTAX=4.0
##FIRSTX=450.0
##LASTX=3966.0
##FIRSTY=0.035400
##MAXX=3966
##MINX=450
##MAXY=0.91473
##MINY=0
##NPOINTS=880
##XYDATA=(X++(Y..Y))
450.0 387 314 305 263 317 308 268 244 307 294
490.0 326 376 429 479 510 581 605 629 658 630
530.0 549 477 420 363 351 293 277 240 234 223
570.0 235 226 195 192 159 114 96 67 52 45
610.0 29 12 11 17 17 17 31 38 31 60
650.0 83 137 165 277 351 572 837 1146 1625 2049
690.0 2595 2498 2221 1780 1367 1011 809 720 711 790
730.0 999 1318 1816 2462 3170 3616 3299 2678 1921 1278
770.0 800 516 360 248 190 150 105 74 60 53
810.0 58 57 68 70 80 104 134 184 256 351
850.0 455 574 683 805 906 971 991 967 904 805
890.0 716 637 583 533 492 461 450 439 437 448
930.0 464 503 560 661 782 926 1052 1131 1168 1174
970.0 1164 1154 1175 1256 1507 1886 2116 2178 2056 1709
1010.0 1504 1594 1912 2442 3172 3851 4348 4611 4552 4298
1050.0 4091 3905 3850 3836 3749 3514 3132 2623 2123 1722
1090.0 1444 1286 1224 1247 1351 1527 1778 2082 2338 2448
1130.0 2386 2181 1900 1674 1554 1526 1549 1580 1662 1784
1170.0 1942 2157 2425 2752 3043 3228 3278 3195 3017 2833
1210.0 2696 2593 2513 2459 2459 2501 2586 2637 2609 2490
1250.0 2285 2059 1886 1765 1681 1639 1626 1633 1636 1632
1290.0 1628 1630 1650 1685 1741 1797 1867 1960 2090 2279
1330.0 2526 2859 3264 3677 4075 4394 4597 4628 4441 4097
1370.0 3586 3044 2547 2175 1912 1724 1585 1445 1297 1143
1410.0 1014 918 877 907 954 1009 1053 1106 1177 1297
1450.0 1430 1551 1653 1688 1737 1816 1957 2172 2571 3255
1490.0 4437 6315 8446 10000 9940 8489 6275 3783 2352 1587
1530.0 1253 1032 930 867 831 826 843 903 979 1128
1570.0 1335 1629 2017 2618 3490 4849 6472 7931 8274 7651
1610.0 6096 4169 2683 1720 1160 819 630 515 439 386
1650.0 348 319 292 269 251 239 230 212 210 206
1690.0 208 215 231 248 265 275 278 273 251 228
1730.0 207 202 203 221 242 253 252 236 213 191
1770.0 167 146 129 112 104 94 94 94 94 102
1810.0 109 119 121 123 124 123 118 113 107 101
1850.0 99 91 89 81 77 70 71 71 78 88
1890.0 99 117 143 178 213 240 255 260 255 244
1930.0 231 209 182 146 112 86 70 60 54 48
1970.0 40 36 31 26 26 23 19 21 16 18
2010.0 17 18 21 20 27 31 31 33 36 41
2050.0 45 48 54 59 64 66 64 59 57 55
2090.0 52 51 52 52 46 43 41 34 28 23
2130.0 18 10 8 3 4 3 0 0 2 4
2170.0 3 5 8 9 11 10 14 12 11 10
2210.0 12 12 16 21 27 28 26 22 18 20
2250.0 16 17 16 12 12 11 9 9 4 5
2290.0 7 6 5 9 19 23 38 43 48 65
2330.0 52 54 53 56 51 54 40 37 38 39
2370.0 41 48 46 39 33 32 36 34 35 35
2410.0 36 37 40 40 50 53 58 62 61 63
2450.0 65 70 70 65 64 64 59 54 55 51
2490.0 52 50 53 52 51 56 60 61 67 70
2530.0 79 83 88 90 96 99 106 109 116 118
2570.0 121 125 128 133 128 128 131 131 129 127
2610.0 119 115 111 100 103 101 108 108 114 115
2650.0 125 128 138 145 155 164 170 179 188 199
2690.0 209 220 226 233 239 246 253 258 266 272
2730.0 280 284 292 310 326 347 381 419 467 522
2770.0 589 674 772 882 1012 1160 1328 1521 1722 1927
2810.0 2114 2271 2373 2426 2421 2388 2351 2323 2317 2335
2850.0 2373 2452 2573 2740 2962 3241 3547 3826 4003 4068
2890.0 4001 3864 3677 3496 3357 3267 3246 3262 3356 3473
2930.0 3617 3758 3879 3986 4072 4119 4119 4043 3872 3604
2970.0 3267 2936 2634 2398 2208 2034 1842 1629 1417 1239
3010.0 1112 1057 1076 1176 1341 1536 1720 1872 1955 1923
3050.0 1825 1711 1649 1765 2057 2320 2340 2189 1877 1543
3090.0 1394 1389 1369 1288 1142 944 743 577 433 319
3130.0 237 173 134 106 91 75 66 55 48 41
3170.0 35 30 30 28 26 25 22 28 27 28
3210.0 21 18 17 11 12 13 10 8 9 13
3250.0 12 12 6 10 5 5 6 6 11 12
3290.0 10 8 8 8 7 8 15 9 14 18
3330.0 14 11 14 14 8 12 16 20 15 19
3370.0 18 17 26 22 23 18 27 21 22 30
3410.0 26 34 33 50 46 50 53 55 55 60
3450.0 60 67 73 74 79 78 75 73 64 67
3490.0 66 53 55 62 62 50 53 65 63 66
3530.0 70 85 91 95 126 137 163 184 209 232
3570.0 258 283 304 320 335 335 340 335 334 341
3610.0 345 348 352 357 362 358 359 351 346 344
3650.0 380 462 562 653 700 725 689 612 520 417
3690.0 318 239 177 144 128 103 87 76 76 64
3730.0 58 53 46 34 41 29 23 17 27 27
3770.0 27 23 11 17 14 23 28 21 9 21
3810.0 26 12 13 17 19 15 15 15 9 19
3850.0 13 30 15 14 10 28 22 30 28 31
3890.0 17 10 25 12 22 23 15 29 18 22
3930.0 26 21 28 20 30 31 11 20 10 35
##END=
