##TITLE=Benzenemethanol, .alpha.-methyl-, acetate
##JCAMP-DX=4.24
##DATA TYPE=INFRARED SPECTRUM
##ORIGIN=Sadtler Research Labs Under US-EPA Contract
##OWNER=NIST Standard Reference Data Program
##CAS REGISTRY NO=93-92-5
##MOLFORM=C 10 H 12 O 2
##XUNITS=1/CM
##YUNITS=ABSORBANCE
##XFACTOR=1.0
##YFACTOR=0.000071240
##DELTAX=4.0
##FIRSTX=450.0
##LASTX=3966.0
##FIRSTY=0.002850
##MAXX=3966
##MINX=450
##MAXY=0.7124
##MINY=0
##NPOINTS=880
##XYDATA=(X++(Y..Y))
450.0 40 20 12 1 3 29 28 18 61 87
490.0 92 120 123 123 137 135 145 195 214 271
530.0 340 376 334 256 190 128 80 55 68 62
570.0 71 79 136 152 151 183 154 146 181 210
610.0 222 250 243 234 201 190 180 157 163 162
650.0 118 97 104 132 155 204 221 275 396 628
690.0 953 1209 1229 1033 697 453 332 257 257 244
730.0 265 288 324 379 431 528 647 678 634 501
770.0 331 244 174 140 131 122 105 87 69 74
810.0 58 76 72 84 92 85 100 113 135 170
850.0 191 217 201 181 156 130 101 86 86 92
890.0 92 93 100 116 114 156 156 177 219 303
930.0 466 670 854 915 838 639 401 246 216 237
970.0 206 217 231 277 332 402 515 626 712 808
1010.0 935 1076 1246 1473 1631 1620 1480 1254 1038 956
1050.0 1014 1227 1598 2169 2650 2748 2474 1868 1302 999
1090.0 831 724 619 518 434 373 332 302 268 217
1130.0 193 175 164 162 159 145 158 166 165 188
1170.0 225 304 391 439 502 546 692 1012 1498 2000
1210.0 2393 2797 3306 4202 5841 7713 9148 10000 8661 6541
1250.0 4282 2667 1805 1342 1067 871 731 638 561 499
1290.0 429 382 368 351 330 295 287 280 286 279
1330.0 257 244 249 270 312 405 552 786 1109 1483
1370.0 1839 2002 1925 1592 1165 815 555 393 300 245
1410.0 211 206 222 218 223 238 267 302 333 392
1450.0 459 503 530 454 377 296 253 212 211 253
1490.0 338 390 392 353 271 208 164 163 156 142
1530.0 135 134 134 134 126 107 106 106 108 97
1570.0 103 112 128 134 141 148 155 155 161 158
1610.0 146 132 110 91 93 81 72 81 79 86
1650.0 92 108 97 102 105 125 115 120 123 141
1690.0 153 174 201 229 244 289 355 450 546 653
1730.0 774 896 1042 1283 1695 2401 3395 4487 5267 5159
1770.0 4208 2871 1775 1130 810 640 580 487 415 331
1810.0 246 191 165 136 141 129 122 115 104 99
1850.0 98 91 97 112 119 132 132 131 129 123
1890.0 120 99 82 64 51 57 58 65 64 63
1930.0 57 67 79 94 97 94 83 78 72 57
1970.0 43 37 36 22 22 22 30 30 30 29
2010.0 29 23 35 35 29 22 17 16 21 30
2050.0 20 24 30 20 29 28 50 42 42 57
2090.0 54 48 43 40 28 24 35 23 28 21
2130.0 15 22 20 15 15 14 13 33 26 31
2170.0 33 34 29 14 20 34 20 13 6 12
2210.0 20 18 9 29 20 27 20 28 20 13
2250.0 14 21 26 22 5 6 18 20 20 15
2290.0 20 27 21 26 35 41 38 34 27 25
2330.0 1 20 3 11 34 27 35 14 32 11
2370.0 6 14 9 14 21 21 21 21 21 7
2410.0 13 21 19 16 20 20 24 29 20 26
2450.0 34 35 34 35 34 33 28 30 32 20
2490.0 16 14 14 19 15 6 7 13 13 12
2530.0 15 5 14 18 13 14 14 6 13 13
2570.0 13 20 15 28 25 17 26 21 13 19
2610.0 20 22 13 14 20 21 12 21 20 17
2650.0 21 16 8 20 19 20 20 20 21 26
2690.0 22 27 28 32 27 28 19 28 20 20
2730.0 20 20 28 13 28 19 29 24 28 19
2770.0 22 34 27 27 28 28 29 34 40 37
2810.0 41 49 48 48 50 48 42 42 49 55
2850.0 56 55 63 78 92 102 120 135 141 150
2890.0 149 149 143 143 149 147 143 142 157 177
2930.0 228 300 387 454 483 476 432 369 321 287
2970.0 282 325 445 673 992 1211 1164 881 563 341
3010.0 248 219 236 260 331 437 562 663 722 690
3050.0 605 513 469 467 547 666 742 719 636 516
3090.0 425 383 344 309 253 218 196 160 127 97
3130.0 77 62 55 37 31 36 34 42 34 34
3170.0 42 40 34 43 34 38 30 32 40 42
3210.0 28 35 27 28 34 29 35 17 13 25
3250.0 19 23 21 12 14 21 13 13 13 21
3290.0 10 15 12 25 19 11 5 21 14 14
3330.0 20 14 14 13 13 23 8 21 16 13
3370.0 21 20 14 20 13 8 15 4 10 22
3410.0 14 21 15 19 20 21 13 27 14 22
3450.0 20 19 23 23 24 23 21 32 41 41
3490.0 41 48 49 55 45 54 48 49 38 36
3530.0 24 22 27 21 14 19 16 19 37 31
3570.0 43 28 15 26 27 36 13 21 21 13
3610.0 36 34 33 17 21 31 25 26 21 21
3650.0 34 34 28 27 19 29 19 26 17 15
3690.0 27 26 28 13 21 13 36 26 21 21
3730.0 21 24 24 12 16 20 13 13 13 7
3770.0 6 13 7 7 0 3 8 3 9 1
3810.0 1 1 1 6 1 1 1 7 3 4
3850.0 1 1 1 1 1 1 1 6 1 1
3890.0 1 1 1 11 15 1 1 1 1 1
3930.0 1 1 1 1 1 8 1 1 1 1
##END=
