##TITLE=2-Cyclopenten-1-one
##JCAMP-DX=4.24
##DATA TYPE=INFRARED SPECTRUM
##ORIGIN=Sadtler Research Labs Under US-EPA Contract
##OWNER=NIST Standard Reference Data Program
##CAS REGISTRY NO=930-30-3
##MOLFORM=C 5 H 6 O
##XUNITS=1/CM
##YUNITS=ABSORBANCE
##XFACTOR=1.0
##YFACTOR=0.000088843
##DELTAX=4.0
##FIRSTX=450.0
##LASTX=3966.0
##FIRSTY=0.034116
##MAXX=3966
##MINX=450
##MAXY=0.88843
##MINY=0
##NPOINTS=880
##XYDATA=(X++(Y..Y))
450.0 384 309 313 222 182 263 263 191 182 78
490.0 78 86 75 50 11 39 79 74 8 66
530.0 61 74 62 71 50 55 69 43 22 73
570.0 80 42 74 36 86 92 107 109 92 92
610.0 69 80 79 79 66 54 30 54 68 68
650.0 60 70 71 44 72 67 45 38 47 46
690.0 38 49 45 71 64 96 127 221 287 493
730.0 643 742 832 940 1734 2129 1203 970 893 762
770.0 630 424 295 172 96 59 67 85 111 172
810.0 201 195 224 258 227 247 221 160 104 68
850.0 63 48 53 26 43 32 43 49 64 84
890.0 115 197 264 322 293 330 317 268 301 257
930.0 169 97 94 73 71 59 110 181 136 74
970.0 130 148 202 241 292 308 326 360 488 524
1010.0 290 212 202 156 136 99 97 69 75 61
1050.0 67 54 58 53 63 77 101 140 138 149
1090.0 170 169 192 196 179 162 156 145 151 147
1130.0 177 215 275 351 516 727 1012 1319 1536 1529
1170.0 1273 1320 1658 1580 1190 790 503 350 256 209
1210.0 189 214 219 227 215 158 228 260 219 169
1250.0 132 113 93 87 76 83 89 111 133 162
1290.0 193 202 195 178 217 227 217 212 240 319
1330.0 430 507 449 524 466 516 544 419 281 189
1370.0 131 105 70 61 64 68 99 130 164 198
1410.0 220 183 210 236 246 270 309 360 363 331
1450.0 260 304 353 316 248 176 133 99 69 60
1490.0 70 57 65 53 81 77 52 53 55 45
1530.0 27 38 34 56 36 44 44 73 79 72
1570.0 103 137 214 273 315 302 319 329 297 308
1610.0 271 203 147 137 131 139 147 168 142 162
1650.0 133 142 96 78 99 96 115 129 165 204
1690.0 230 252 312 416 504 814 1340 2327 3760 5624
1730.0 7267 8359 8603 9082 10000 8023 8165 6464 3285 1331
1770.0 524 327 233 209 161 141 156 157 161 140
1810.0 131 110 96 82 76 69 58 52 58 70
1850.0 58 60 56 53 51 57 43 38 42 36
1890.0 44 50 68 78 93 105 113 114 121 110
1930.0 102 88 65 49 46 49 49 44 50 52
1970.0 51 44 38 34 28 25 24 16 19 15
2010.0 19 17 16 16 15 18 15 18 13 13
2050.0 5 13 15 18 18 22 17 10 7 3
2090.0 6 12 14 15 18 21 17 20 22 23
2130.0 22 25 23 23 25 28 30 38 36 38
2170.0 38 40 34 37 41 33 35 34 37 37
2210.0 34 36 35 31 32 25 27 25 29 33
2250.0 43 47 52 57 64 64 69 68 72 67
2290.0 64 54 42 41 27 26 17 20 18 20
2330.0 28 37 50 52 70 42 3 3 40 93
2370.0 109 114 106 88 63 39 35 32 27 31
2410.0 30 32 29 27 26 22 21 23 23 24
2450.0 25 22 25 24 23 26 31 26 25 23
2490.0 25 28 35 32 34 30 27 26 27 26
2530.0 22 19 22 17 26 20 21 22 23 13
2570.0 18 23 24 28 20 30 34 30 25 36
2610.0 33 31 39 36 41 37 33 44 38 43
2650.0 47 37 22 12 10 3 6 15 22 28
2690.0 22 27 18 17 27 20 10 14 22 20
2730.0 20 20 24 30 21 28 30 29 24 29
2770.0 31 29 30 24 25 27 28 29 41 49
2810.0 58 54 59 66 66 75 99 122 168 190
2850.0 169 191 239 237 285 318 290 246 244 217
2890.0 222 223 177 143 159 217 326 484 616 733
2930.0 757 1011 1265 942 850 795 697 627 484 422
2970.0 341 372 590 284 207 222 183 160 130 89
3010.0 72 55 56 49 68 64 89 124 140 201
3050.0 266 329 318 321 338 336 368 328 269 211
3090.0 182 157 127 139 119 103 86 76 47 24
3130.0 43 23 33 24 29 28 25 30 33 75
3170.0 35 48 56 59 47 48 36 46 43 64
3210.0 40 47 24 30 30 40 34 36 41 28
3250.0 22 33 23 35 37 21 21 6 24 11
3290.0 8 25 31 30 26 30 45 22 29 30
3330.0 14 4 30 23 13 25 29 17 39 32
3370.0 24 47 33 39 38 36 35 47 21 35
3410.0 29 32 38 23 39 50 53 46 125 147
3450.0 107 156 161 162 198 238 196 175 154 80
3490.0 54 50 48 41 23 38 40 70 63 59
3530.0 36 33 54 53 61 27 57 61 47 59
3570.0 66 57 77 75 66 67 69 86 85 76
3610.0 78 78 53 53 61 32 45 75 66 66
3650.0 77 67 44 72 89 81 77 69 62 32
3690.0 96 83 54 52 55 44 49 62 87 65
3730.0 24 87 50 74 87 96 70 55 46 29
3770.0 47 74 55 46 102 63 64 31 70 73
3810.0 89 45 65 79 75 48 71 82 66 106
3850.0 61 78 44 61 86 83 55 126 52 31
3890.0 40 91 18 67 37 88 136 112 79 136
3930.0 55 30 10 67 82 102 102 42 0 41
##END=
