##TITLE=2-Cyclohexen-1-one
##JCAMP-DX=4.24
##DATA TYPE=INFRARED SPECTRUM
##ORIGIN=Sadtler Research Labs Under US-EPA Contract
##OWNER=NIST Standard Reference Data Program
##CAS REGISTRY NO=930-68-7
##MOLFORM=C 6 H 8 O
##XUNITS=1/CM
##YUNITS=ABSORBANCE
##XFACTOR=1.0
##YFACTOR=0.000122385
##DELTAX=4.0
##FIRSTX=450.0
##LASTX=3966.0
##FIRSTY=0.000000
##MAXX=3966
##MINX=450
##MAXY=1.22385
##MINY=0
##NPOINTS=880
##XYDATA=(X++(Y..Y))
450.0 0 256 333 338 544 459 518 458 513 524
490.0 564 353 391 413 310 207 237 221 232 241
530.0 143 208 239 231 182 222 229 290 271 221
570.0 281 342 347 372 337 276 307 269 198 204
610.0 233 191 182 187 175 197 186 142 189 209
650.0 178 172 184 186 233 222 173 223 265 250
690.0 242 288 305 411 445 561 648 762 740 1159
730.0 1413 970 837 877 834 815 722 818 683 537
770.0 485 462 264 232 258 218 183 180 130 168
810.0 184 176 122 186 193 185 203 227 278 314
850.0 301 361 433 297 483 466 809 759 891 644
890.0 501 534 429 360 264 248 229 312 358 485
930.0 596 602 541 566 568 487 393 280 259 283
970.0 296 287 331 282 274 271 211 171 175 171
1010.0 156 160 144 160 178 158 160 190 196 196
1050.0 183 174 182 201 159 155 173 178 175 195
1090.0 217 298 432 548 750 936 1030 927 1041 1138
1130.0 1011 835 624 534 456 389 335 287 228 254
1170.0 251 247 242 285 323 398 502 625 763 808
1210.0 843 921 1055 1045 1064 1015 986 1108 1224 1201
1250.0 1151 1028 922 863 673 504 377 320 241 238
1290.0 238 250 273 297 342 434 531 545 538 604
1330.0 712 694 668 622 590 523 518 522 516 546
1370.0 649 833 1004 1052 920 1051 1162 976 727 581
1410.0 551 553 651 712 784 835 841 966 847 772
1450.0 743 674 620 518 473 407 373 318 252 215
1490.0 237 218 195 196 221 230 216 213 206 228
1530.0 201 192 187 212 190 208 190 205 226 193
1570.0 196 191 206 196 218 196 214 253 266 279
1610.0 317 368 382 423 395 411 423 440 411 475
1650.0 498 608 682 778 890 969 1086 1239 1659 2304
1690.0 3399 4997 7405 8905 9412 10000 9565 8439 7699 4388
1730.0 2176 1216 892 748 625 533 439 382 336 317
1770.0 275 277 270 281 261 279 278 292 308 289
1810.0 286 281 274 241 247 223 228 216 204 213
1850.0 225 217 209 214 197 213 198 180 166 181
1890.0 166 160 159 154 166 171 152 155 176 156
1930.0 163 153 162 172 189 163 173 189 183 177
1970.0 174 171 174 183 156 165 174 173 160 163
2010.0 151 171 178 156 157 172 166 163 167 152
2050.0 172 169 155 153 175 168 172 166 165 180
2090.0 182 164 168 181 172 176 171 170 181 192
2130.0 169 183 191 187 180 179 172 185 188 164
2170.0 174 178 179 169 171 156 181 177 158 159
2210.0 174 168 167 161 153 177 167 161 154 173
2250.0 162 173 160 159 177 186 169 172 185 179
2290.0 191 173 174 184 197 168 183 186 186 185
2330.0 160 152 177 195 139 168 173 194 170 148
2370.0 126 164 161 144 156 163 162 166 161 147
2410.0 166 166 150 148 159 150 161 142 139 158
2450.0 163 142 149 158 154 163 149 143 161 168
2490.0 137 151 140 149 153 143 126 151 147 130
2530.0 139 140 152 151 149 134 168 159 156 150
2570.0 155 158 162 152 137 175 158 151 146 158
2610.0 151 168 142 139 163 164 152 155 161 166
2650.0 187 163 176 200 212 193 208 197 202 210
2690.0 182 163 185 187 164 163 151 160 174 157
2730.0 150 177 170 170 170 174 181 209 181 177
2770.0 208 209 191 191 192 194 227 200 210 223
2810.0 243 229 265 283 373 493 605 675 713 814
2850.0 764 736 721 754 808 871 924 1087 1161 1203
2890.0 1342 1242 1190 1160 1111 1022 1063 1148 1463 1769
2930.0 1968 2224 2775 3493 3569 2980 2939 2714 2747 2455
2970.0 1933 1502 1206 1020 795 571 393 305 246 247
3010.0 274 271 341 456 630 788 961 917 907 1037
3050.0 1051 883 752 576 496 440 352 321 271 222
3090.0 190 233 195 211 182 173 182 197 159 159
3130.0 184 167 190 163 153 160 211 153 170 174
3170.0 190 179 180 160 189 225 175 176 191 193
3210.0 188 198 161 212 210 187 189 216 211 212
3250.0 202 150 188 192 169 153 201 172 191 170
3290.0 162 198 217 172 167 192 194 221 187 180
3330.0 201 240 174 193 199 216 220 215 184 235
3370.0 274 236 263 282 318 326 351 293 358 349
3410.0 305 274 263 231 233 200 161 209 212 179
3450.0 171 200 186 237 188 162 184 223 183 178
3490.0 187 186 217 190 163 186 225 163 189 175
3530.0 189 199 193 131 193 216 164 177 178 191
3570.0 205 180 135 218 206 189 158 184 180 202
3610.0 184 137 202 213 183 178 214 165 224 191
3650.0 154 186 224 194 174 165 158 231 186 124
3690.0 194 234 164 185 169 185 205 194 147 209
3730.0 212 188 212 175 189 213 219 126 194 209
3770.0 201 161 158 161 231 192 139 187 192 197
3810.0 185 149 148 242 148 137 149 215 150 171
3850.0 169 180 224 217 126 148 223 153 187 146
3890.0 146 189 194 178 196 207 180 179 200 141
3930.0 238 194 126 165 177 217 173 144 121 228
##END=
