##TITLE=Pyrrolidine, 1-nitroso-
##JCAMP-DX=4.24
##DATA TYPE=INFRARED SPECTRUM
##ORIGIN=Sadtler Research Labs Under US-EPA Contract
##OWNER=NIST Standard Reference Data Program
##CAS REGISTRY NO=930-55-2
##MOLFORM=C 4 H 8 N 2 O
##XUNITS=1/CM
##YUNITS=ABSORBANCE
##XFACTOR=1.0
##YFACTOR=0.000087506
##DELTAX=4.0
##FIRSTX=450.0
##LASTX=3966.0
##FIRSTY=0.006650
##MAXX=3966
##MINX=450
##MAXY=0.87506
##MINY=0
##NPOINTS=880
##XYDATA=(X++(Y..Y))
450.0 76 66 79 55 23 40 58 54 40 49
490.0 64 67 36 73 58 81 69 50 47 77
530.0 49 39 46 48 61 71 45 58 57 76
570.0 87 88 70 65 71 48 34 19 23 26
610.0 26 27 33 28 17 20 24 15 10 4
650.0 1 1 6 10 10 8 16 16 19 29
690.0 30 32 51 62 97 147 215 270 309 332
730.0 344 343 316 275 253 241 225 217 203 183
770.0 170 167 161 167 198 286 451 667 800 816
810.0 834 817 803 574 330 211 161 143 157 177
850.0 205 242 270 267 287 278 222 180 166 183
890.0 244 317 331 333 316 326 344 289 248 254
930.0 241 246 233 198 196 245 326 400 432 450
970.0 490 518 483 425 404 398 420 452 512 629
1010.0 777 888 913 927 892 864 718 536 435 403
1050.0 408 438 499 583 697 823 968 1126 1301 1500
1090.0 1738 1958 2046 2010 1949 1824 1773 1536 1374 1454
1130.0 1727 2122 2573 2933 3107 3088 2988 2749 2377 1887
1170.0 1528 1352 1339 1447 1661 2001 2509 3180 3797 4064
1210.0 4205 4230 4038 3575 3036 2774 2837 3160 3740 4577
1250.0 5685 6982 8318 9573 10000 9652 8846 7565 6141 4534
1290.0 3035 2261 2020 2113 2344 2751 3382 3886 3808 3914
1330.0 3522 3352 2509 1523 980 725 590 507 474 424
1370.0 395 383 371 374 383 389 394 403 411 447
1410.0 470 525 583 669 739 883 1124 1742 2888 4809
1450.0 6578 7469 8449 9144 9060 8098 5980 4471 3398 2486
1490.0 1836 1360 1092 849 683 514 409 375 369 350
1530.0 308 309 254 238 175 141 116 117 102 64
1570.0 81 72 108 81 100 104 113 113 118 109
1610.0 108 103 109 85 71 84 92 118 112 146
1650.0 121 200 132 143 144 181 169 193 180 202
1690.0 163 148 133 134 91 90 91 115 84 78
1730.0 74 100 78 83 75 93 92 92 94 83
1770.0 87 74 51 40 37 20 28 11 18 16
1810.0 18 16 24 16 29 22 15 20 12 19
1850.0 6 6 2 4 4 9 0 4 5 5
1890.0 10 7 7 9 8 10 5 16 9 8
1930.0 6 4 7 8 8 8 10 7 9 10
1970.0 7 6 5 6 7 7 10 7 8 10
2010.0 10 5 10 9 9 9 12 14 15 18
2050.0 20 24 26 25 24 23 18 16 11 8
2090.0 5 2 1 4 5 5 4 9 9 10
2130.0 10 9 6 7 7 5 4 5 7 7
2170.0 8 12 11 14 15 16 15 14 15 11
2210.0 8 4 2 0 0 0 2 1 2 5
2250.0 9 8 15 16 15 12 13 11 12 14
2290.0 12 19 19 17 17 17 18 19 21 27
2330.0 27 31 21 23 38 42 21 27 22 30
2370.0 30 31 35 31 31 26 27 24 24 30
2410.0 33 34 32 32 29 28 28 23 25 24
2450.0 24 25 26 29 29 30 28 29 27 23
2490.0 22 21 16 17 15 16 18 18 21 21
2530.0 20 18 21 20 22 21 23 23 23 25
2570.0 24 28 33 35 35 37 38 39 36 38
2610.0 38 38 35 35 32 31 29 30 30 34
2650.0 32 34 36 38 38 38 37 40 41 40
2690.0 38 42 45 51 58 68 76 89 97 103
2730.0 108 107 104 99 95 89 90 95 103 117
2770.0 123 131 145 150 152 146 140 138 129 125
2810.0 117 114 110 110 115 126 132 145 159 171
2850.0 188 220 280 384 549 807 1202 1732 2340 2853
2890.0 3166 3239 3239 3130 2701 2196 1793 1497 1320 1269
2930.0 1316 1408 1543 1745 1930 2108 2321 2646 3283 3699
2970.0 4078 4771 5259 5350 5804 5221 4347 3423 2413 1666
3010.0 1122 741 490 343 263 220 191 172 153 138
3050.0 119 101 84 80 71 61 56 55 52 49
3090.0 46 46 45 43 42 41 40 39 39 42
3130.0 44 43 39 40 37 38 37 34 35 31
3170.0 34 36 31 28 26 26 24 25 23 20
3210.0 22 24 20 18 22 20 21 18 16 18
3250.0 18 16 14 19 17 16 18 18 13 11
3290.0 11 17 14 14 18 17 17 20 20 20
3330.0 14 15 18 21 20 16 19 12 16 17
3370.0 14 15 17 14 19 15 19 17 18 20
3410.0 17 10 15 18 12 16 18 15 12 18
3450.0 15 16 17 16 17 23 24 16 19 17
3490.0 18 23 13 19 13 16 14 17 13 13
3530.0 20 17 20 25 29 13 33 14 32 14
3570.0 24 19 11 18 14 26 10 0 19 7
3610.0 28 15 13 19 10 47 10 13 17 18
3650.0 36 4 23 11 17 40 13 42 13 18
3690.0 24 27 19 27 23 31 28 26 18 20
3730.0 26 42 46 14 79 29 52 33 29 28
3770.0 13 30 34 33 37 35 32 24 43 42
3810.0 39 52 48 62 46 51 41 67 46 48
3850.0 38 69 43 41 36 48 36 37 32 54
3890.0 33 48 33 64 35 37 45 47 33 37
3930.0 43 37 38 28 40 36 44 43 33 14
##END=
