##TITLE=1,2-Cyclohexanediol
##JCAMP-DX=4.24
##DATA TYPE=INFRARED SPECTRUM
##ORIGIN=Sadtler Research Labs Under US-EPA Contract
##OWNER=NIST Standard Reference Data Program
##CAS REGISTRY NO=931-17-9
##MOLFORM=C 6 H 12 O 2
##XUNITS=1/CM
##YUNITS=ABSORBANCE
##XFACTOR=1.0
##YFACTOR=0.000087793
##DELTAX=4.0
##FIRSTX=450.0
##LASTX=3966.0
##FIRSTY=0.026601
##MAXX=3966
##MINX=450
##MAXY=0.87793
##MINY=0
##NPOINTS=880
##XYDATA=(X++(Y..Y))
450.0 303 319 291 261 232 229 254 303 258 249
490.0 204 184 226 246 264 228 196 148 105 89
530.0 102 155 181 140 106 33 42 93 117 176
570.0 162 228 253 319 339 414 440 409 333 204
610.0 118 83 124 150 95 131 151 122 163 239
650.0 306 378 394 278 252 225 213 168 156 136
690.0 76 90 97 57 100 118 86 99 69 58
730.0 50 95 119 73 71 70 64 126 174 222
770.0 202 175 145 110 127 183 194 246 237 249
810.0 281 371 388 334 340 354 347 314 351 365
850.0 339 333 306 274 271 320 414 485 500 477
890.0 490 484 474 449 443 431 386 359 309 283
930.0 260 311 329 400 455 531 611 737 880 1087
970.0 1413 1793 2166 2544 2916 2844 2483 2069 1701 1247
1010.0 984 814 745 812 838 931 1069 1272 1552 1957
1050.0 2518 3097 3567 4033 4388 4465 4298 3864 2950 2310
1090.0 1717 1312 1057 988 1007 984 979 963 914 888
1130.0 863 816 783 777 802 807 836 889 944 975
1170.0 991 956 938 902 892 874 851 830 817 799
1210.0 805 853 943 1050 1143 1231 1277 1275 1244 1225
1250.0 1199 1148 1116 1093 1052 1022 968 908 845 769
1290.0 688 630 596 590 617 650 686 722 775 836
1330.0 873 906 957 953 909 889 866 839 848 872
1370.0 923 988 1036 1062 1087 1084 1050 980 872 769
1410.0 671 596 559 532 537 591 682 833 983 988
1450.0 1049 1306 1138 892 824 641 534 405 275 193
1490.0 148 107 95 84 110 101 82 78 78 59
1530.0 48 59 73 88 53 42 39 66 51 36
1570.0 46 31 20 0 5 10 22 22 22 10
1610.0 7 7 39 28 35 31 31 32 12 36
1650.0 35 88 37 31 18 34 38 52 58 93
1690.0 65 64 90 94 71 68 80 104 82 93
1730.0 107 144 127 128 108 86 56 51 46 40
1770.0 59 50 31 26 24 25 37 25 31 13
1810.0 12 12 13 21 29 25 20 11 11 21
1850.0 15 21 14 15 9 21 9 17 17 15
1890.0 22 11 12 11 17 22 23 29 17 11
1930.0 11 17 19 27 30 20 18 20 24 24
1970.0 24 31 19 14 13 13 21 21 25 20
2010.0 17 15 14 21 32 28 28 21 15 19
2050.0 25 27 34 31 24 23 17 23 29 34
2090.0 34 28 26 28 30 39 39 39 32 32
2130.0 32 33 32 39 38 32 30 27 30 28
2170.0 33 32 31 26 21 26 31 36 37 37
2210.0 30 30 31 31 34 35 35 30 24 24
2250.0 24 30 34 32 26 24 17 28 33 35
2290.0 40 40 40 35 31 47 57 52 57 38
2330.0 30 36 40 63 65 58 58 47 42 65
2370.0 72 62 57 55 43 31 32 31 36 43
2410.0 31 32 26 31 32 34 33 34 32 26
2450.0 30 37 44 43 38 32 33 28 35 38
2490.0 48 40 39 32 32 39 44 51 44 45
2530.0 39 35 39 42 44 47 44 40 46 51
2570.0 58 57 69 67 61 64 69 72 82 85
2610.0 88 82 82 88 99 98 106 110 112 111
2650.0 133 155 165 184 197 191 192 186 181 187
2690.0 180 169 161 152 145 147 151 153 147 140
2730.0 134 135 147 154 166 171 178 180 178 185
2770.0 197 203 205 209 209 216 229 235 248 253
2810.0 256 256 269 293 330 391 472 589 746 970
2850.0 1300 1738 2249 2720 3165 3390 3429 3524 3428 3372
2890.0 3376 3346 3269 3195 3227 3286 3304 3635 3992 4425
2930.0 5456 6676 7957 8687 9945 10000 8124 6444 4684 2986
2970.0 1735 949 513 303 194 132 100 89 89 83
3010.0 71 61 46 43 38 55 55 48 46 32
3050.0 33 43 37 52 51 41 37 36 39 43
3090.0 52 43 40 35 27 28 28 38 40 51
3130.0 33 34 28 28 39 38 29 29 22 18
3170.0 23 30 32 40 28 29 23 23 33 40
3210.0 46 34 30 29 36 47 53 54 54 43
3250.0 32 29 40 47 54 35 30 25 25 33
3290.0 42 64 53 44 40 38 41 54 54 59
3330.0 60 48 51 45 57 58 56 55 52 39
3370.0 34 42 48 55 38 38 33 35 36 45
3410.0 53 46 41 38 37 50 56 78 73 63
3450.0 61 57 66 73 86 94 98 71 74 74
3490.0 87 93 97 87 91 80 82 86 111 126
3530.0 117 104 110 104 117 134 145 144 152 163
3570.0 178 196 236 292 349 421 487 597 736 872
3610.0 1020 1101 1180 1187 1169 1137 1061 987 923 871
3650.0 835 771 723 688 643 587 496 412 325 266
3690.0 246 191 161 154 137 124 118 97 109 120
3730.0 115 107 103 86 103 111 116 98 91 79
3770.0 74 63 65 70 72 63 60 56 63 56
3810.0 69 86 86 74 57 50 61 91 83 85
3850.0 83 84 69 74 83 88 93 74 57 54
3890.0 57 70 80 83 79 52 42 42 54 66
3930.0 71 60 42 37 37 38 32 32 32 32
##END=
