##TITLE=Cyclooctene
##JCAMP-DX=4.24
##DATA TYPE=INFRARED SPECTRUM
##ORIGIN=Sadtler Research Labs Under US-EPA Contract
##OWNER=NIST Standard Reference Data Program
##CAS REGISTRY NO=931-88-4
##MOLFORM=C 8 H 14
##XUNITS=1/CM
##YUNITS=ABSORBANCE
##XFACTOR=1.0
##YFACTOR=0.000103207
##DELTAX=4.0
##FIRSTX=450.0
##LASTX=3966.0
##FIRSTY=0.000000
##MAXX=3966
##MINX=450
##MAXY=1.03207
##MINY=0
##NPOINTS=880
##XYDATA=(X++(Y..Y))
450.0 0 64 93 93 101 115 77 93 42 57
490.0 37 40 68 44 47 63 64 67 63 58
530.0 66 66 49 54 32 55 47 61 85 110
570.0 111 118 119 127 112 78 60 63 45 46
610.0 49 42 41 37 40 46 60 60 64 76
650.0 75 98 82 80 75 98 120 135 201 272
690.0 388 428 514 546 507 424 359 253 191 167
730.0 183 266 469 744 884 1106 1138 1046 943 636
770.0 396 242 168 137 109 103 104 99 118 126
810.0 132 128 141 123 105 105 86 67 61 62
850.0 68 73 87 92 108 123 158 177 195 218
890.0 227 289 190 143 139 94 76 53 56 56
930.0 52 50 51 52 54 64 71 87 103 117
970.0 136 154 151 163 152 120 108 83 74 69
1010.0 75 80 83 91 94 89 80 76 73 72
1050.0 71 69 76 83 89 93 99 99 91 86
1090.0 80 77 79 81 82 86 93 101 102 95
1130.0 95 87 80 77 71 68 68 66 71 78
1170.0 76 77 111 85 77 78 72 68 68 73
1210.0 85 86 91 90 94 105 122 140 155 168
1250.0 170 176 173 167 169 164 167 160 141 120
1290.0 102 88 70 64 62 60 62 65 70 73
1330.0 78 87 95 115 142 165 190 197 185 172
1370.0 151 121 89 77 68 70 74 79 85 93
1410.0 90 101 101 127 158 220 322 443 624 771
1450.0 861 989 1078 998 924 1007 904 639 484 435
1490.0 321 215 147 117 89 73 74 62 59 57
1530.0 60 52 51 42 47 47 49 38 42 51
1570.0 53 58 60 55 60 61 70 69 73 69
1610.0 74 73 79 78 84 96 107 132 157 179
1650.0 192 191 201 182 154 133 106 90 77 63
1690.0 66 70 68 79 94 109 111 108 114 108
1730.0 94 81 73 72 61 55 56 52 50 51
1770.0 47 44 52 45 49 43 43 42 39 45
1810.0 45 44 44 45 42 44 42 46 42 42
1850.0 48 47 48 49 48 43 44 43 44 42
1890.0 42 44 41 42 43 47 46 48 49 49
1930.0 51 51 51 48 50 51 52 50 48 44
1970.0 42 42 43 41 41 41 40 41 41 42
2010.0 41 40 38 41 42 42 44 44 41 42
2050.0 43 42 41 43 40 41 43 44 46 46
2090.0 50 46 49 47 49 49 48 46 45 46
2130.0 48 48 49 51 51 50 49 48 47 47
2170.0 45 45 46 45 46 45 46 46 48 47
2210.0 47 49 50 51 50 52 48 51 51 51
2250.0 49 51 48 46 46 48 47 46 48 46
2290.0 45 43 41 42 37 33 32 37 31 36
2330.0 31 31 40 31 31 35 31 31 31 31
2370.0 31 31 36 41 43 44 50 50 50 50
2410.0 48 50 50 53 53 52 52 52 51 50
2450.0 52 52 52 52 52 52 50 52 52 50
2490.0 52 47 47 47 47 45 49 52 51 53
2530.0 54 52 53 52 54 56 57 58 61 61
2570.0 63 64 64 62 60 63 63 64 64 67
2610.0 68 72 76 77 81 81 84 90 93 94
2650.0 98 104 113 118 135 148 166 189 208 217
2690.0 215 213 201 179 154 135 124 113 104 97
2730.0 95 90 88 97 102 106 109 113 112 115
2770.0 118 120 126 130 138 149 157 167 170 175
2810.0 179 179 186 199 227 266 332 438 646 1009
2850.0 1552 2054 2627 3012 2895 2947 2703 2165 1851 1603
2890.0 1575 1695 1960 2402 3032 3758 5005 6240 7639 9140
2930.0 9715 9934 10000 9081 7355 5460 4071 2613 1741 1327
2970.0 1116 890 772 650 577 505 456 446 485 718
3010.0 985 1379 1403 1916 1992 1392 1171 888 486 301
3050.0 164 180 158 181 166 178 165 144 135 116
3090.0 113 95 105 92 94 86 85 75 69 71
3130.0 63 67 59 66 59 67 65 71 70 67
3170.0 68 61 69 60 65 60 65 62 68 66
3210.0 66 67 60 61 59 55 48 51 53 53
3250.0 55 55 58 54 56 59 61 59 60 59
3290.0 59 57 54 56 53 50 49 51 46 47
3330.0 53 55 52 52 60 50 56 56 58 52
3370.0 54 57 54 57 54 55 49 50 48 56
3410.0 50 49 48 48 47 44 49 40 47 41
3450.0 45 46 46 45 48 48 46 50 41 49
3490.0 49 50 45 49 47 46 48 48 46 41
3530.0 47 41 45 43 40 36 43 43 37 42
3570.0 40 39 41 40 37 36 46 43 40 41
3610.0 38 39 43 50 40 33 48 43 50 44
3650.0 31 44 39 53 42 45 32 42 46 48
3690.0 47 45 48 41 41 41 36 41 53 50
3730.0 41 45 48 44 44 49 51 47 47 45
3770.0 47 44 53 37 51 40 47 43 37 43
3810.0 51 45 47 38 45 46 45 41 49 44
3850.0 40 31 31 46 53 47 44 44 42 44
3890.0 53 47 54 42 43 48 39 38 45 46
3930.0 38 41 38 50 64 42 47 48 51 40
##END=
