##TITLE=Cyclohexylacetylene
##JCAMP-DX=4.24
##DATA TYPE=INFRARED SPECTRUM
##ORIGIN=Sadtler Research Labs Under US-EPA Contract
##OWNER=NIST Standard Reference Data Program
##CAS REGISTRY NO=931-48-6
##MOLFORM=C 8 H 12
##XUNITS=1/CM
##YUNITS=ABSORBANCE
##XFACTOR=1.0
##YFACTOR=0.000078464
##DELTAX=4.0
##FIRSTX=450.0
##LASTX=3966.0
##FIRSTY=0.069519
##MAXX=3966
##MINX=450
##MAXY=0.78464
##MINY=0
##NPOINTS=880
##XYDATA=(X++(Y..Y))
450.0 886 411 183 306 72 261 270 259 270 65
490.0 338 546 441 251 378 326 281 200 262 407
530.0 321 320 263 217 227 324 289 295 216 172
570.0 172 150 159 89 236 344 234 197 270 243
610.0 425 617 1142 1854 3052 5554 5962 4024 2574 1563
650.0 970 585 413 325 318 232 201 238 204 202
690.0 188 168 200 165 167 171 180 174 166 160
730.0 181 177 174 175 178 207 189 196 204 223
770.0 219 238 219 199 197 190 196 202 180 168
810.0 167 171 177 186 196 231 247 264 272 283
850.0 257 257 255 244 254 261 282 311 341 378
890.0 335 331 329 280 239 216 196 199 199 217
930.0 214 224 235 218 214 206 219 199 224 232
970.0 231 202 178 165 220 171 202 208 230 242
1010.0 258 259 254 260 259 257 256 268 285 298
1050.0 302 308 311 296 290 282 267 250 233 213
1090.0 196 195 189 190 190 184 200 197 203 211
1130.0 229 226 230 230 225 215 200 202 195 191
1170.0 190 188 184 187 187 186 183 183 190 185
1210.0 180 182 190 202 242 338 502 808 1159 1425
1250.0 1346 1355 1180 881 481 310 240 208 190 198
1290.0 211 222 228 234 259 261 274 279 273 271
1330.0 250 234 225 237 277 285 316 316 307 303
1370.0 267 246 218 197 163 182 165 163 172 186
1410.0 186 186 180 178 193 238 314 450 655 827
1450.0 947 1098 1154 814 756 540 390 291 240 197
1490.0 161 192 171 166 171 164 146 172 164 171
1530.0 151 164 175 170 164 162 171 177 198 167
1570.0 174 178 183 174 171 172 166 176 171 174
1610.0 168 184 174 179 163 183 172 193 180 183
1650.0 176 226 173 183 188 184 202 196 201 225
1690.0 226 240 276 278 272 250 243 232 229 221
1730.0 217 227 234 227 223 222 217 211 209 197
1770.0 199 206 198 188 192 188 191 185 179 187
1810.0 182 172 171 179 172 180 171 184 181 181
1850.0 184 187 190 186 186 186 203 194 198 191
1890.0 191 188 191 182 188 190 185 192 188 187
1930.0 195 193 191 184 187 190 192 196 190 196
1970.0 193 186 190 201 195 183 186 186 170 170
2010.0 156 149 148 126 117 101 105 96 89 83
2050.0 110 110 84 77 85 95 111 136 173 212
2090.0 251 283 314 343 387 423 459 477 469 445
2130.0 404 340 271 228 208 189 176 160 146 147
2170.0 155 168 186 200 206 206 211 207 209 206
2210.0 208 208 211 214 207 213 214 216 210 215
2250.0 207 207 204 198 195 196 202 201 201 200
2290.0 204 211 207 214 204 209 188 184 181 166
2330.0 168 166 171 112 183 136 167 156 119 117
2370.0 146 156 170 188 204 194 197 194 190 186
2410.0 185 190 184 189 186 186 183 177 175 166
2450.0 169 163 165 164 166 165 166 170 174 174
2490.0 174 174 173 168 164 160 163 162 160 154
2530.0 154 153 151 144 129 122 112 99 84 88
2570.0 88 100 109 123 135 143 142 152 154 156
2610.0 162 159 160 163 147 132 110 115 126 115
2650.0 138 203 256 291 331 331 310 274 240 220
2690.0 221 213 204 198 184 175 171 160 158 155
2730.0 151 158 149 148 152 151 149 148 159 156
2770.0 162 171 166 182 187 193 196 212 212 215
2810.0 223 228 224 226 221 221 235 268 373 587
2850.0 969 1508 2076 2578 2812 2735 2513 2150 1640 1236
2890.0 1026 950 978 1112 1328 1581 1911 2258 2884 3998
2930.0 5507 7323 8950 10000 9210 7900 6765 4479 2517 1237
2970.0 531 183 31 0 30 71 85 93 105 113
3010.0 105 104 96 86 91 94 91 106 138 145
3050.0 153 152 165 159 153 155 146 149 168 166
3090.0 163 157 167 173 154 158 163 159 151 163
3130.0 153 167 167 184 194 203 230 250 266 281
3170.0 287 281 267 257 254 232 235 230 241 245
3210.0 247 258 286 300 325 369 381 397 399 395
3250.0 387 365 345 314 276 252 260 263 285 294
3290.0 326 384 547 617 707 847 1087 1653 1823 2153
3330.0 2040 1883 1744 948 537 422 335 346 293 263
3370.0 217 199 190 179 172 168 171 177 199 210
3410.0 202 183 203 229 211 202 191 203 213 217
3450.0 214 196 217 223 215 221 232 232 238 225
3490.0 230 203 213 214 233 239 227 227 199 242
3530.0 208 199 201 203 236 243 222 227 233 228
3570.0 226 250 246 229 238 235 254 273 248 274
3610.0 284 290 300 347 387 408 407 364 358 303
3650.0 321 291 216 248 220 284 239 283 243 251
3690.0 228 217 228 211 214 242 236 241 248 213
3730.0 199 210 190 226 223 213 267 201 222 222
3770.0 221 219 225 233 214 234 223 229 227 225
3810.0 230 221 203 219 186 222 210 212 202 236
3850.0 208 200 199 175 233 219 206 209 224 219
3890.0 219 210 211 202 225 230 217 250 245 272
3930.0 271 244 245 256 261 257 204 212 188 196
##END=
