##TITLE=Benzaldehyde, oxime
##JCAMP-DX=4.24
##DATA TYPE=INFRARED SPECTRUM
##ORIGIN=Sadtler Research Labs Under US-EPA Contract
##OWNER=NIST Standard Reference Data Program
##CAS REGISTRY NO=932-90-1
##MOLFORM=C 7 H 7 N O
##XUNITS=1/CM
##YUNITS=ABSORBANCE
##XFACTOR=1.0
##YFACTOR=0.000108917
##DELTAX=4.0
##FIRSTX=450.0
##LASTX=3966.0
##FIRSTY=0.007406
##MAXX=3966
##MINX=450
##MAXY=1.08917
##MINY=0
##NPOINTS=880
##XYDATA=(X++(Y..Y))
450.0 68 337 431 323 250 419 213 238 132 254
490.0 209 320 421 569 672 825 855 590 648 478
530.0 474 321 382 364 221 183 140 156 119 208
570.0 199 272 242 228 181 151 140 121 139 110
610.0 168 113 155 169 287 651 1451 1989 1931 2211
650.0 1751 1074 799 743 668 1083 1502 1922 2193 2458
690.0 3481 2603 2314 2173 1884 1680 1543 1460 1322 1300
730.0 1146 1292 1585 2002 2308 2815 3632 3373 2360 2031
770.0 1413 888 474 291 226 172 182 186 167 183
810.0 169 160 178 219 279 333 381 355 343 337
850.0 394 764 2048 3326 3446 3603 3330 1445 586 424
890.0 407 411 419 465 539 634 700 766 941 1219
930.0 1780 2883 4746 7200 9722 10000 9113 7447 3703 1135
970.0 372 221 127 100 63 68 70 85 98 134
1010.0 153 189 228 257 261 211 191 117 49 37
1050.0 64 103 152 219 272 280 280 289 258 225
1090.0 222 230 211 188 171 125 88 57 38 19
1130.0 5 8 1 2 0 5 2 14 32 87
1170.0 186 227 251 281 249 241 370 650 1002 1173
1210.0 1176 1073 651 252 147 207 336 581 996 1672
1250.0 2949 4690 5518 5161 4926 3164 1558 801 566 473
1290.0 428 375 355 337 329 335 357 383 385 377
1330.0 362 344 334 322 294 266 254 220 221 174
1370.0 172 165 194 227 326 487 675 919 951 921
1410.0 818 564 314 234 172 205 240 365 451 545
1450.0 492 472 497 346 255 172 175 212 322 454
1490.0 564 666 726 653 581 424 215 124 71 67
1530.0 53 77 50 57 60 55 40 45 50 57
1570.0 83 114 131 168 197 214 198 204 188 153
1610.0 120 96 72 75 74 78 80 89 83 86
1650.0 90 112 126 126 123 118 90 67 77 72
1690.0 86 84 95 111 122 132 175 204 216 222
1730.0 247 222 175 148 145 146 171 175 168 161
1770.0 195 157 129 125 120 123 166 215 254 262
1810.0 264 232 178 146 115 100 80 83 74 94
1850.0 85 96 113 144 172 207 245 292 362 379
1890.0 387 354 303 214 141 103 81 86 90 98
1930.0 112 126 153 173 191 183 206 208 201 172
1970.0 152 117 84 64 51 42 42 37 35 36
2010.0 38 38 41 42 39 42 41 39 40 39
2050.0 39 42 41 42 46 46 43 44 39 39
2090.0 39 39 36 40 41 40 39 43 40 42
2130.0 41 41 45 44 44 45 43 41 44 43
2170.0 44 42 45 46 47 52 53 57 58 59
2210.0 59 63 66 73 91 111 122 127 124 117
2250.0 99 79 65 68 66 65 59 56 52 48
2290.0 45 39 39 42 47 57 74 74 80 83
2330.0 77 72 69 76 70 71 73 66 60 57
2370.0 51 43 50 50 49 52 52 48 48 51
2410.0 52 50 52 50 46 48 47 49 49 49
2450.0 48 48 45 45 43 44 46 45 47 51
2490.0 57 66 76 87 99 112 116 111 105 91
2530.0 73 63 59 58 57 56 60 62 64 70
2570.0 77 81 82 83 74 66 62 64 65 62
2610.0 65 66 69 72 77 85 96 108 120 131
2650.0 139 135 127 114 93 77 66 59 57 56
2690.0 56 59 59 59 63 60 66 70 75 73
2730.0 69 70 70 65 57 52 50 51 54 58
2770.0 60 65 69 73 78 85 92 98 108 110
2810.0 108 103 96 89 81 75 75 73 71 70
2850.0 74 76 82 91 97 103 106 109 111 112
2890.0 117 116 114 108 106 98 97 98 100 110
2930.0 116 130 147 173 217 273 367 498 641 683
2970.0 672 656 512 344 259 207 182 167 177 204
3010.0 242 308 405 547 741 970 1161 1284 1371 1329
3050.0 1170 1033 1037 1208 1533 1888 1979 1947 1860 1475
3090.0 1142 996 945 869 719 593 476 368 290 205
3130.0 132 97 88 81 80 86 93 91 89 83
3170.0 68 58 52 48 48 53 48 53 55 54
3210.0 51 51 53 41 46 42 44 44 51 53
3250.0 65 73 82 100 95 89 87 78 70 59
3290.0 55 53 52 42 44 44 48 47 41 43
3330.0 44 46 45 48 43 48 47 52 48 51
3370.0 47 45 42 39 48 45 48 44 45 47
3410.0 47 50 50 57 60 57 56 57 53 48
3450.0 52 45 51 48 56 53 55 47 56 51
3490.0 54 62 45 63 58 51 45 39 48 54
3530.0 47 47 54 44 79 76 94 97 113 152
3570.0 162 149 126 127 123 142 113 113 123 166
3610.0 246 381 607 897 1480 2336 3493 5147 7874 6789
3650.0 5992 5750 2400 656 411 201 139 89 78 71
3690.0 68 89 77 107 98 130 130 146 156 162
3730.0 116 101 97 52 59 15 38 9 30 29
3770.0 23 27 24 35 24 28 22 46 18 36
3810.0 16 22 13 35 12 24 33 23 22 19
3850.0 22 18 15 27 2 21 14 21 24 35
3890.0 15 28 14 67 51 28 33 45 45 34
3930.0 45 39 28 37 17 30 14 17 15 13
##END=
