##TITLE=Phenol, 2,3,5-trichloro-
##JCAMP-DX=4.24
##DATA TYPE=INFRARED SPECTRUM
##ORIGIN=Sadtler Research Labs Under US-EPA Contract
##OWNER=NIST Standard Reference Data Program
##CAS REGISTRY NO=933-78-8
##MOLFORM=C 6 H 3 Cl 3 O
##XUNITS=1/CM
##YUNITS=ABSORBANCE
##XFACTOR=1.0
##YFACTOR=0.000092929
##DELTAX=4.0
##FIRSTX=450.0
##LASTX=3966.0
##FIRSTY=0.000000
##MAXX=3966
##MINX=450
##MAXY=0.92929
##MINY=0
##NPOINTS=880
##XYDATA=(X++(Y..Y))
450.0 0 425 1139 647 889 953 613 1081 632 655
490.0 833 671 1131 1159 977 849 668 722 447 755
530.0 530 512 781 624 1006 1173 589 372 1221 777
570.0 945 987 948 1119 1240 1670 2254 2907 2894 2782
610.0 2378 1930 2020 1666 1294 1054 830 825 675 511
650.0 512 554 612 635 720 818 611 726 633 718
690.0 901 804 999 907 751 707 660 711 721 836
730.0 847 997 906 863 825 790 681 674 616 554
770.0 573 525 545 583 640 747 875 1039 1053 1086
810.0 1277 1383 1707 2226 2988 4228 5015 5686 5846 4238
850.0 3129 2729 2219 1412 1132 853 605 542 584 627
890.0 638 616 614 519 570 586 638 741 796 968
930.0 1187 1502 2097 3338 5557 7812 8213 8011 5405 2594
970.0 1185 743 578 541 555 565 562 554 518 492
1010.0 451 416 363 344 334 387 439 592 932 1348
1050.0 1612 1611 1411 898 602 538 589 684 738 937
1090.0 1291 2247 4006 5201 5520 4675 2914 1810 1534 1410
1130.0 1305 1144 1007 968 1061 1272 1671 2221 2894 3995
1170.0 5215 5171 4923 3713 2191 1322 1052 1033 1215 1598
1210.0 2276 3228 3957 4155 3834 3044 2182 1946 1953 1883
1250.0 1813 1599 1431 1520 1716 2050 2420 2762 3134 3438
1290.0 4091 4983 5725 5728 4866 3447 1969 1201 955 796
1330.0 746 728 717 748 741 767 772 837 913 941
1370.0 1081 1243 1408 1568 1499 1552 1618 1827 2381 3195
1410.0 4740 6718 8142 8391 7652 5978 4371 4031 4578 5737
1450.0 7341 7768 7134 5087 3151 1913 1429 1142 1065 1029
1490.0 1015 1068 1128 1245 1244 1250 1305 1147 1141 1123
1530.0 1154 1352 1520 2125 2975 3917 5017 5960 7217 7962
1570.0 8902 9304 8943 10000 9605 9239 7547 4952 3224 2247
1610.0 1802 1553 1333 1107 911 787 725 656 594 595
1650.0 506 494 551 591 599 632 649 672 629 583
1690.0 581 571 555 562 638 651 595 515 488 498
1730.0 438 405 402 391 384 355 338 336 329 355
1770.0 344 310 330 326 333 333 317 319 323 317
1810.0 313 321 311 331 318 305 321 322 328 309
1850.0 323 323 325 334 321 334 335 334 338 333
1890.0 335 333 329 331 333 336 327 316 304 295
1930.0 304 293 304 306 297 296 298 301 308 303
1970.0 316 319 316 329 323 324 319 325 331 330
2010.0 320 318 320 305 312 300 308 317 311 312
2050.0 319 313 311 314 320 316 305 315 310 314
2090.0 314 309 310 304 304 297 302 302 298 306
2130.0 310 307 312 314 317 320 326 341 335 339
2170.0 333 343 348 339 338 341 333 326 310 320
2210.0 315 318 334 349 360 368 367 355 341 324
2250.0 325 328 334 337 341 348 353 353 355 348
2290.0 354 351 361 363 369 385 378 378 374 362
2330.0 368 356 359 367 388 384 397 388 391 386
2370.0 378 405 427 414 410 384 378 371 366 361
2410.0 357 357 351 344 347 352 366 375 384 392
2450.0 387 399 395 386 389 380 372 379 382 384
2490.0 387 396 408 408 399 403 398 387 392 393
2530.0 391 384 375 373 359 369 378 380 386 389
2570.0 386 381 386 385 393 398 415 412 401 397
2610.0 396 395 405 402 409 416 416 427 427 416
2650.0 411 419 413 415 415 418 428 434 439 455
2690.0 464 476 472 457 459 437 435 439 435 425
2730.0 427 426 435 429 418 424 419 420 416 411
2770.0 417 423 410 420 428 424 432 423 411 411
2810.0 404 401 401 398 402 406 414 418 413 416
2850.0 415 421 423 430 416 416 411 410 390 394
2890.0 384 402 385 380 377 371 375 377 373 380
2930.0 392 388 375 387 376 346 342 325 299 302
2970.0 315 336 347 372 368 384 402 409 408 408
3010.0 407 416 418 408 434 415 409 403 396 392
3050.0 402 405 415 415 406 415 416 402 418 452
3090.0 472 490 484 462 435 409 389 381 364 365
3130.0 370 386 396 401 413 439 454 447 411 402
3170.0 397 385 393 381 383 387 396 387 386 380
3210.0 376 365 361 383 395 409 404 405 400 415
3250.0 417 430 425 437 463 484 484 509 522 494
3290.0 466 454 452 464 475 458 456 459 470 478
3330.0 468 478 469 470 478 475 494 491 486 503
3370.0 534 578 626 593 517 469 409 343 337 368
3410.0 422 453 464 439 448 457 452 440 432 434
3450.0 450 454 459 442 422 430 426 416 397 399
3490.0 420 421 425 417 397 425 432 441 418 379
3530.0 440 469 491 531 572 722 1143 2562 5345 7594
3570.0 8353 7562 4696 2416 1195 675 534 439 457 436
3610.0 353 373 375 396 416 352 446 561 717 836
3650.0 783 810 760 581 486 389 314 356 375 424
3690.0 349 419 438 411 453 403 360 449 431 456
3730.0 519 698 937 1028 940 810 683 467 443 381
3770.0 410 471 458 443 468 466 446 418 395 438
3810.0 451 478 480 477 474 476 421 398 404 449
3850.0 464 440 518 597 500 431 455 475 453 441
3890.0 428 470 476 440 481 569 493 387 294 294
3930.0 294 294 294 296 436 526 562 556 574 552
##END=
