##TITLE=Phenol, 2,3,6-trichloro-
##JCAMP-DX=4.24
##DATA TYPE=INFRARED SPECTRUM
##ORIGIN=Sadtler Research Labs Under US-EPA Contract
##OWNER=NIST Standard Reference Data Program
##CAS REGISTRY NO=933-75-5
##MOLFORM=C 6 H 3 Cl 3 O
##XUNITS=1/CM
##YUNITS=ABSORBANCE
##XFACTOR=1.0
##YFACTOR=0.000048428
##DELTAX=4.0
##FIRSTX=450.0
##LASTX=3966.0
##FIRSTY=0.000000
##MAXX=3966
##MINX=450
##MAXY=0.48428
##MINY=0
##NPOINTS=880
##XYDATA=(X++(Y..Y))
450.0 0 764 1339 1161 996 1794 931 1354 1196 1052
490.0 1886 1876 2114 2077 1814 1659 1591 1765 1616 1519
530.0 1738 1411 1551 1931 1458 1440 1192 1741 1384 1473
570.0 1558 1846 1890 1611 1614 1822 1806 1793 1821 1997
610.0 2025 1938 2169 2477 2635 2574 2330 1926 1480 1206
650.0 1221 1201 1130 1211 1263 1294 1289 1201 1240 1168
690.0 1211 1142 1016 1083 1096 1239 1242 1405 1369 1337
730.0 1276 1139 1127 1031 1086 1146 1104 1164 1214 1223
770.0 1414 1511 1815 2327 3075 4252 5723 6817 6710 6200
810.0 5246 3946 2912 2259 1724 1474 1351 1247 1175 1132
850.0 1088 1114 1133 1092 1095 1183 1138 1251 1287 1264
890.0 1400 1498 1832 2533 3682 5347 6242 6304 5473 3708
930.0 2277 1672 1414 1287 1249 1194 1153 1131 1150 1124
970.0 1113 1084 1079 1106 1143 1160 1161 1157 1139 1112
1010.0 1129 1134 1188 1200 1147 1221 1198 1175 1141 1117
1050.0 1087 1076 1055 1081 1101 1150 1187 1194 1339 1418
1090.0 1693 2108 2675 3372 3663 3652 3111 2250 1780 1763
1130.0 2000 2207 2340 2443 2578 2846 3385 5013 7672 9414
1170.0 9528 7877 4623 2510 1970 1843 1777 1755 1834 2077
1210.0 2574 3372 4289 5129 5750 5521 4842 4003 2866 2179
1250.0 2054 1997 1972 1915 1685 1493 1434 1580 1978 2713
1290.0 3935 5146 5698 5614 4958 3874 3420 3644 3614 3266
1330.0 2488 1614 1226 1114 1040 1062 1017 1078 1101 1122
1370.0 1205 1184 1207 1228 1238 1440 1788 2553 3828 5487
1410.0 6719 6942 6530 5241 3759 3395 3760 4582 5889 7255
1450.0 8180 8294 7696 7138 6560 5730 4670 2950 1694 1252
1490.0 1140 1184 1268 1349 1371 1367 1348 1234 1222 1160
1530.0 1137 1131 1095 1145 1250 1399 1656 2024 2674 3086
1570.0 3284 3100 2492 1898 1535 1304 1147 1106 1008 981
1610.0 996 964 956 968 960 963 941 919 908 909
1650.0 880 898 926 944 937 946 904 919 919 907
1690.0 900 886 894 887 911 956 970 963 962 972
1730.0 920 911 895 907 881 905 907 903 896 897
1770.0 895 878 863 875 862 880 872 884 870 853
1810.0 864 850 874 885 874 890 898 937 963 1009
1850.0 1054 1068 1081 1039 974 953 894 870 870 868
1890.0 866 859 858 870 852 850 848 837 865 853
1930.0 844 841 862 850 836 856 835 841 844 837
1970.0 827 832 823 835 831 831 809 830 827 830
2010.0 832 837 842 847 821 833 839 833 842 831
2050.0 839 840 831 838 828 835 810 821 814 821
2090.0 809 806 800 805 804 811 819 810 827 818
2130.0 828 812 823 823 824 833 830 835 834 812
2170.0 829 819 828 823 809 805 806 792 794 794
2210.0 795 799 802 800 809 807 802 809 809 819
2250.0 816 821 818 831 825 831 820 816 820 810
2290.0 807 820 815 812 799 809 812 812 828 820
2330.0 813 836 806 831 846 845 818 801 836 865
2370.0 875 897 891 890 868 871 860 845 846 842
2410.0 827 828 825 833 842 837 817 829 836 831
2450.0 835 855 861 877 876 866 882 875 878 877
2490.0 864 864 857 842 836 824 838 847 854 862
2530.0 861 858 839 826 831 838 845 842 840 842
2570.0 853 856 855 830 825 836 834 840 831 831
2610.0 839 837 825 844 843 864 858 864 868 848
2650.0 845 838 846 844 847 841 856 853 842 863
2690.0 862 849 864 859 866 845 864 873 863 882
2730.0 884 890 889 877 868 846 841 843 837 848
2770.0 839 846 863 852 853 855 853 847 852 847
2810.0 840 843 844 849 848 844 849 842 819 835
2850.0 810 816 817 845 846 853 831 826 831 826
2890.0 837 831 827 833 824 807 807 798 789 790
2930.0 808 806 818 835 840 834 837 833 820 849
2970.0 841 856 856 857 853 856 854 861 852 859
3010.0 870 860 858 860 851 855 840 842 855 863
3050.0 849 868 858 854 864 849 872 883 909 889
3090.0 878 893 890 867 855 843 855 866 863 851
3130.0 864 877 885 890 898 891 896 892 873 882
3170.0 863 880 860 868 869 882 886 870 867 857
3210.0 852 872 850 868 875 864 879 855 864 877
3250.0 882 877 897 907 919 927 929 917 882 878
3290.0 877 886 870 856 898 865 869 882 875 886
3330.0 892 864 882 880 897 895 868 880 888 893
3370.0 900 929 912 897 877 873 822 826 850 858
3410.0 903 880 873 888 893 905 882 872 880 871
3450.0 876 877 897 873 879 875 885 879 861 851
3490.0 894 896 896 864 857 900 896 908 899 913
3530.0 962 992 1089 1200 1467 2128 3738 6684 8951 10000
3570.0 8920 6244 3633 2165 1447 1142 1090 951 974 927
3610.0 886 875 875 897 878 820 887 938 908 852
3650.0 820 868 901 946 926 861 805 861 919 956
3690.0 866 898 929 903 908 884 867 919 933 904
3730.0 1036 1064 1067 1128 1038 878 858 857 901 896
3770.0 877 959 918 912 910 958 942 871 852 898
3810.0 904 955 859 879 904 926 884 888 868 948
3850.0 970 816 955 961 914 912 910 917 887 897
3890.0 870 953 848 853 830 925 897 928 919 925
3930.0 945 896 955 915 864 850 942 930 952 954
##END=
