##TITLE=.alpha.-Methyl-1-piperidineethanol
##JCAMP-DX=4.24
##DATA TYPE=INFRARED SPECTRUM
##ORIGIN=Sadtler Research Labs Under US-EPA Contract
##OWNER=NIST Standard Reference Data Program
##CAS REGISTRY NO=934-90-7
##MOLFORM=C 8 H 17 N O
##XUNITS=1/CM
##YUNITS=ABSORBANCE
##XFACTOR=1.0
##YFACTOR=0.000059564
##DELTAX=4.0
##FIRSTX=450.0
##LASTX=3966.0
##FIRSTY=0.037406
##MAXX=3966
##MINX=450
##MAXY=0.59564
##MINY=0
##NPOINTS=880
##XYDATA=(X++(Y..Y))
450.0 628 496 575 518 549 573 643 597 660 642
490.0 613 499 447 436 471 428 413 414 381 322
530.0 284 251 422 300 231 223 203 175 189 183
570.0 173 131 170 150 129 99 147 210 131 153
610.0 117 129 89 132 59 80 114 84 97 97
650.0 103 94 131 95 75 60 135 103 103 104
690.0 102 111 89 108 101 124 120 135 131 110
730.0 153 113 109 134 124 118 146 180 187 230
770.0 313 438 537 579 493 386 293 209 193 179
810.0 182 184 200 209 253 328 400 460 495 500
850.0 510 562 579 605 572 446 367 288 264 259
890.0 270 311 358 386 385 344 317 315 348 411
930.0 482 564 611 616 559 487 415 356 318 308
970.0 309 300 305 327 393 585 825 894 863 747
1010.0 489 397 402 491 610 768 961 1175 1345 1509
1050.0 1734 1881 1932 1854 1603 1325 1141 1019 1006 1103
1090.0 1270 1363 1379 1307 1190 1167 1271 1444 1548 1516
1130.0 1356 1087 897 836 903 1049 1344 1547 1519 1261
1170.0 819 536 394 318 306 292 295 301 337 364
1210.0 399 421 428 410 406 404 430 490 579 709
1250.0 891 1036 1126 1231 1307 1414 1544 1602 1523 1369
1290.0 1213 1091 1090 1145 1214 1278 1384 1538 1667 1681
1330.0 1559 1336 1104 959 827 772 721 715 730 774
1370.0 919 1140 1251 1271 1163 1005 907 938 989 1079
1410.0 1064 980 827 687 564 560 620 773 888 1040
1450.0 1148 1184 1193 1064 902 754 570 425 302 233
1490.0 154 137 94 83 96 110 50 85 85 73
1530.0 52 50 68 65 59 49 64 69 85 42
1570.0 42 53 59 34 43 53 41 48 39 36
1610.0 33 42 39 42 23 38 34 47 31 57
1650.0 22 88 36 34 35 40 32 48 29 70
1690.0 41 42 64 83 60 45 71 68 58 28
1730.0 39 48 43 20 27 40 37 33 36 43
1770.0 37 55 32 44 34 48 28 33 28 31
1810.0 21 22 19 11 26 19 26 15 36 27
1850.0 26 10 16 12 22 28 17 14 14 17
1890.0 22 26 24 31 29 28 25 22 23 15
1930.0 18 23 24 27 25 16 16 18 17 14
1970.0 16 21 7 8 8 10 2 3 2 0
2010.0 4 8 7 6 19 22 22 20 19 11
2050.0 8 21 34 42 50 53 53 42 31 19
2090.0 9 11 11 14 26 22 23 22 31 35
2130.0 27 27 26 24 21 21 35 32 33 31
2170.0 30 35 24 26 29 30 34 29 32 33
2210.0 28 40 25 42 42 42 48 51 59 65
2250.0 51 51 52 46 44 44 49 42 47 43
2290.0 39 43 38 47 40 38 35 39 39 40
2330.0 36 40 38 46 29 27 47 49 58 37
2370.0 20 43 49 39 47 55 57 49 52 60
2410.0 59 64 58 62 62 58 56 52 54 62
2450.0 59 42 47 55 54 53 55 59 61 65
2490.0 64 67 76 74 78 78 77 74 72 60
2530.0 57 68 64 63 60 72 70 77 83 86
2570.0 91 98 102 98 114 131 134 144 149 152
2610.0 144 162 173 163 177 203 222 251 276 296
2650.0 299 312 290 283 311 349 413 464 500 515
2690.0 537 538 529 545 549 566 587 613 646 693
2730.0 750 834 924 1019 1128 1235 1303 1388 1413 1464
2770.0 1511 1610 1720 1958 2231 2566 2831 2942 2866 2703
2810.0 2499 2297 2106 1931 1725 1520 1318 1184 1086 1084
2850.0 1162 1384 1721 2160 2470 2517 2438 2165 1927 1799
2890.0 1765 1693 1647 1622 1671 1813 2078 2524 3163 3976
2930.0 5037 6350 7791 9480 10000 8855 7035 4741 3151 2464
2970.0 2150 2043 2052 2116 1873 1529 1152 693 423 309
3010.0 245 229 193 186 165 156 152 150 143 140
3050.0 144 135 136 120 124 135 116 124 98 120
3090.0 139 144 110 115 126 116 107 118 109 102
3130.0 117 117 110 136 127 127 117 119 119 104
3170.0 115 116 119 147 145 133 128 147 131 137
3210.0 117 149 120 112 103 123 119 85 78 69
3250.0 90 100 93 120 123 139 118 98 71 64
3290.0 65 59 66 74 64 55 52 46 78 66
3330.0 85 73 55 87 46 37 63 71 56 89
3370.0 64 77 104 100 102 133 95 74 66 86
3410.0 72 54 78 60 107 171 226 291 308 348
3450.0 338 309 317 261 240 211 181 150 113 142
3490.0 158 200 242 356 553 754 853 864 844 780
3530.0 694 584 536 460 352 305 301 268 262 227
3570.0 244 249 247 220 155 197 173 114 110 70
3610.0 85 78 109 43 81 60 59 66 104 153
3650.0 80 129 166 160 118 138 135 110 54 69
3690.0 82 50 84 90 95 56 76 35 41 136
3730.0 100 110 80 98 115 125 102 96 47 52
3770.0 59 88 71 70 92 120 90 118 99 94
3810.0 84 102 83 120 79 123 103 109 94 135
3850.0 96 97 102 38 102 87 107 85 91 97
3890.0 71 121 35 121 166 153 126 111 169 36
3930.0 73 72 113 86 117 126 83 101 85 84
##END=
