##TITLE=Phenol, 2,3,5,6-tetrachloro-
##JCAMP-DX=4.24
##DATA TYPE=INFRARED SPECTRUM
##ORIGIN=Sadtler Research Labs Under US-EPA Contract
##OWNER=NIST Standard Reference Data Program
##CAS REGISTRY NO=935-95-5
##MOLFORM=C 6 H 2 Cl 4 O
##XUNITS=1/CM
##YUNITS=ABSORBANCE
##XFACTOR=1.0
##YFACTOR=0.000055237
##DELTAX=4.0
##FIRSTX=450.0
##LASTX=3966.0
##FIRSTY=0.112959
##MAXX=3966
##MINX=450
##MAXY=0.55237
##MINY=0
##NPOINTS=880
##XYDATA=(X++(Y..Y))
450.0 2045 855 177 783 374 897 619 189 314 340
490.0 378 313 283 320 199 351 74 109 271 207
530.0 340 201 198 189 327 133 299 394 582 1033
570.0 1638 1599 1421 743 209 174 370 626 930 694
610.0 669 341 179 176 91 111 22 43 184 146
650.0 194 277 252 324 295 209 397 459 828 1399
690.0 2347 3376 3848 4243 3466 2390 1639 826 642 484
730.0 424 440 516 639 652 750 572 493 413 345
770.0 223 286 225 276 262 386 371 345 475 647
810.0 676 700 598 569 507 603 919 1248 1647 1462
850.0 1149 769 548 453 465 518 467 314 286 224
890.0 236 283 240 321 304 308 317 346 384 365
930.0 369 455 624 1075 1876 3607 6211 7704 7741 5630
970.0 2749 897 472 365 384 422 424 363 329 310
1010.0 245 174 217 190 156 207 157 183 174 187
1050.0 271 272 270 319 309 327 301 247 261 262
1090.0 374 458 638 961 1425 1767 1777 1580 1151 904
1130.0 987 1292 1583 1975 2326 2643 2804 2792 2603 2347
1170.0 2474 2774 2910 2470 1588 922 617 644 921 1538
1210.0 2686 4074 4840 4538 3296 1799 937 710 782 937
1250.0 1000 936 756 631 602 726 1100 2002 3776 6371
1290.0 8422 8553 6777 3880 1725 971 698 514 417 331
1330.0 313 315 290 271 214 227 244 279 328 313
1370.0 378 407 502 730 1057 1894 3461 5847 8563 10000
1410.0 9363 7268 4974 3943 3715 3484 3106 2807 3258 4153
1450.0 4768 4465 2944 1593 1018 665 542 398 315 323
1490.0 352 378 401 454 468 441 419 403 476 458
1530.0 582 969 1511 2446 3313 3992 4438 4220 3660 2940
1570.0 2241 1897 1562 1053 665 427 401 388 287 289
1610.0 252 216 290 242 251 234 224 217 189 180
1650.0 236 201 196 143 182 206 217 208 254 264
1690.0 184 154 191 134 125 102 138 160 107 97
1730.0 131 159 122 138 150 165 130 125 127 105
1770.0 114 135 103 92 89 106 98 95 100 94
1810.0 78 91 87 77 88 108 71 79 68 75
1850.0 81 68 85 65 77 83 65 74 67 69
1890.0 69 62 81 74 80 83 86 74 90 76
1930.0 65 74 78 64 60 90 69 72 47 71
1970.0 79 73 69 58 57 87 67 68 81 88
2010.0 87 69 70 79 66 74 101 82 69 64
2050.0 73 63 54 53 56 47 60 62 55 50
2090.0 60 61 61 70 64 65 65 63 50 52
2130.0 51 44 47 43 41 45 22 33 32 32
2170.0 43 41 46 43 37 25 33 38 52 57
2210.0 56 63 42 44 44 58 44 55 41 57
2250.0 65 65 57 49 58 57 54 61 51 40
2290.0 50 35 47 60 45 66 73 69 100 86
2330.0 94 89 128 125 82 105 143 99 155 136
2370.0 111 73 83 87 70 62 58 65 67 58
2410.0 55 52 61 56 53 59 63 57 59 56
2450.0 60 59 54 62 69 55 58 50 51 51
2490.0 72 73 101 119 121 129 107 101 96 76
2530.0 76 77 64 62 66 65 52 58 43 33
2570.0 45 35 40 38 38 35 35 30 33 37
2610.0 46 44 49 42 44 55 50 48 54 46
2650.0 52 45 41 36 32 44 36 32 28 29
2690.0 46 47 40 30 25 32 36 33 42 22
2730.0 30 21 29 32 39 26 27 18 17 22
2770.0 31 15 22 27 39 43 33 38 44 47
2810.0 70 70 41 42 29 47 35 38 27 24
2850.0 13 5 28 35 17 27 28 32 19 0
2890.0 6 14 3 16 19 10 16 1 4 8
2930.0 4 7 27 21 24 41 29 44 32 23
2970.0 41 41 56 53 58 51 54 63 62 62
3010.0 49 65 61 54 52 51 59 53 47 60
3050.0 54 45 48 62 69 57 77 67 75 97
3090.0 111 128 146 148 109 83 72 87 98 111
3130.0 107 117 129 113 101 90 81 90 80 83
3170.0 76 72 83 75 90 91 98 81 83 87
3210.0 83 95 91 109 106 89 80 80 81 82
3250.0 101 125 111 120 120 90 102 85 77 83
3290.0 83 83 97 99 106 100 95 104 99 107
3330.0 105 106 109 125 101 101 96 124 124 139
3370.0 150 103 62 29 15 40 67 79 107 132
3410.0 124 137 125 134 147 142 121 143 148 146
3450.0 165 128 148 169 154 158 142 145 175 178
3490.0 168 162 199 208 203 213 196 230 243 270
3530.0 322 291 416 678 1463 3821 6891 8507 8362 5726
3570.0 3264 1809 938 532 468 323 308 297 213 256
3610.0 265 264 268 219 233 280 243 192 212 295
3650.0 332 317 250 202 195 215 272 239 194 174
3690.0 254 185 170 181 175 213 237 203 296 398
3730.0 457 578 561 448 381 330 192 193 165 195
3770.0 176 167 151 120 135 142 138 198 198 194
3810.0 182 131 199 217 250 216 214 246 247 208
3850.0 231 366 269 208 266 253 213 183 245 249
3890.0 247 226 244 314 320 175 150 145 153 172
3930.0 136 152 138 242 290 314 241 220 267 242
##END=
