##TITLE=1-Phenyl-1-cyclopropanecarbonitrile
##JCAMP-DX=4.24
##DATA TYPE=INFRARED SPECTRUM
##ORIGIN=Sadtler Research Labs Under US-EPA Contract
##OWNER=NIST Standard Reference Data Program
##CAS REGISTRY NO=935-44-4
##MOLFORM=C 10 H 9 N
##XUNITS=1/CM
##YUNITS=ABSORBANCE
##XFACTOR=1.0
##YFACTOR=0.000058075
##DELTAX=4.0
##FIRSTX=450.0
##LASTX=3966.0
##FIRSTY=0.000000
##MAXX=3966
##MINX=450
##MAXY=0.58075
##MINY=0
##NPOINTS=880
##XYDATA=(X++(Y..Y))
450.0 0 196 260 256 182 237 298 412 514 846
490.0 968 1329 1784 2340 2195 1434 970 627 500 444
530.0 362 391 393 444 510 616 756 1020 1333 1761
570.0 2388 2555 2093 1394 788 577 479 378 367 345
610.0 375 309 349 301 264 280 278 288 259 339
650.0 324 506 588 962 1259 2107 3005 3667 4524 5333
690.0 7313 9483 10000 7770 5926 4250 3039 2133 1635 1429
730.0 1536 1896 2628 3718 4907 7053 9101 7940 6129 4226
770.0 2824 1966 1333 913 607 446 369 321 317 297
810.0 288 268 254 245 254 272 340 386 441 511
850.0 616 813 1015 1095 1019 850 643 547 499 461
890.0 443 400 379 391 449 547 563 527 576 719
930.0 1038 1634 2507 3572 4008 3409 2634 1868 1238 860
970.0 622 494 420 389 367 366 355 376 413 400
1010.0 449 533 911 1783 2960 3680 3766 3313 2510 1935
1050.0 1505 1193 1209 1418 1825 1970 1654 1428 1237 1088
1090.0 1080 1387 2042 2774 2843 2352 1515 718 386 268
1130.0 235 224 226 231 238 253 266 292 296 275
1170.0 272 270 275 281 279 259 237 208 197 189
1210.0 184 188 197 226 301 382 480 593 727 843
1250.0 840 755 639 497 412 375 373 398 438 478
1290.0 505 504 527 602 827 1181 1483 1543 1429 1165
1330.0 854 654 512 397 333 307 295 291 293 293
1370.0 304 320 327 336 354 353 345 347 379 432
1410.0 522 666 916 1272 1774 2235 2465 2511 2653 2924
1450.0 2927 2739 2526 2158 1784 1494 1349 1240 1309 1482
1490.0 1914 2883 4385 5230 4667 3410 2007 889 583 421
1530.0 394 349 358 337 300 275 267 297 285 323
1570.0 380 486 635 859 1025 1303 1834 2558 3029 2873
1610.0 2364 1749 1144 677 460 346 303 276 268 275
1650.0 302 349 398 418 451 442 425 366 363 343
1690.0 305 284 287 280 291 324 371 413 416 414
1730.0 405 438 444 444 438 415 372 304 255 216
1770.0 238 277 333 398 514 634 732 751 726 630
1810.0 541 492 467 439 402 350 304 277 261 259
1850.0 269 291 333 388 463 528 575 616 658 681
1890.0 666 619 557 470 400 368 360 350 353 371
1930.0 411 465 534 590 616 647 678 683 659 600
1970.0 525 439 383 364 342 316 282 258 244 245
2010.0 254 261 258 256 238 230 214 205 199 196
2050.0 190 188 191 191 201 211 226 238 262 286
2090.0 324 366 407 449 440 385 346 309 286 287
2130.0 291 300 293 276 247 218 204 195 188 190
2170.0 194 205 215 224 232 239 234 246 264 288
2210.0 332 422 568 865 1430 2374 3232 3225 2778 2502
2250.0 2215 1770 1274 919 684 528 431 359 319 293
2290.0 280 264 257 246 248 255 281 295 298 296
2330.0 267 264 260 283 263 307 301 292 272 269
2370.0 225 231 230 228 230 221 218 216 209 210
2410.0 209 209 206 206 207 204 204 202 206 211
2450.0 210 206 213 212 219 220 226 236 248 255
2490.0 273 285 292 283 270 255 233 219 211 206
2530.0 201 197 207 207 207 215 213 210 210 206
2570.0 208 209 209 210 218 225 236 243 251 245
2610.0 233 225 218 206 210 213 213 215 210 210
2650.0 211 212 211 212 209 208 205 204 197 197
2690.0 199 202 203 207 206 204 205 195 197 194
2730.0 190 189 189 193 195 196 195 198 196 198
2770.0 206 207 210 216 218 215 215 220 226 228
2810.0 233 232 235 224 220 216 217 210 209 215
2850.0 224 233 249 267 289 309 324 332 331 334
2890.0 332 333 340 343 359 368 370 372 367 362
2930.0 363 363 362 362 364 352 347 352 349 353
2970.0 371 390 410 438 469 502 550 610 720 871
3010.0 1125 1488 2013 2592 3337 4105 4533 4842 4962 4696
3050.0 4182 3535 3168 3315 3958 4841 5293 5155 4808 3849
3090.0 3033 2768 2920 3205 3321 2986 2632 1851 1217 899
3130.0 666 491 422 366 355 347 343 349 361 378
3170.0 383 393 391 376 362 335 326 318 298 280
3210.0 268 250 236 220 216 216 215 217 209 201
3250.0 210 205 208 205 210 213 217 215 221 209
3290.0 211 209 209 194 205 194 208 206 205 206
3330.0 212 215 207 199 198 204 203 197 200 201
3370.0 199 207 200 207 195 197 207 205 206 206
3410.0 206 204 209 209 198 207 198 215 216 208
3450.0 205 209 210 209 225 234 239 258 263 274
3490.0 266 259 260 266 255 239 235 240 220 215
3530.0 227 216 215 215 225 235 233 215 228 214
3570.0 217 212 196 191 210 212 202 190 196 201
3610.0 195 198 210 211 189 192 203 190 221 230
3650.0 233 223 217 223 236 237 211 229 231 226
3690.0 229 213 219 211 215 217 224 205 219 213
3730.0 229 233 211 219 248 216 216 218 202 191
3770.0 184 192 184 186 184 186 194 184 185 191
3810.0 184 184 203 184 185 184 185 186 195 186
3850.0 195 190 194 184 214 215 211 212 210 214
3890.0 201 206 218 223 196 203 209 192 205 229
3930.0 193 194 186 183 203 217 240 235 208 231
##END=
