##TITLE=3-Furoic acid, tetrahydro-2-oxo-, ethyl ester
##JCAMP-DX=4.24
##DATA TYPE=INFRARED SPECTRUM
##ORIGIN=Sadtler Research Labs Under US-EPA Contract
##OWNER=NIST Standard Reference Data Program
##CAS REGISTRY NO=936-13-0
##MOLFORM=C 7 H 10 O 4
##XUNITS=1/CM
##YUNITS=ABSORBANCE
##XFACTOR=1.0
##YFACTOR=0.000058322
##DELTAX=4.0
##FIRSTX=450.0
##LASTX=3966.0
##FIRSTY=0.004607
##MAXX=3966
##MINX=450
##MAXY=0.58322
##MINY=0
##NPOINTS=880
##XYDATA=(X++(Y..Y))
450.0 79 127 65 64 91 105 30 49 186 174
490.0 193 190 140 146 106 96 90 100 126 91
530.0 60 80 46 28 21 32 60 86 68 70
570.0 38 69 98 74 71 89 78 57 72 56
610.0 68 71 60 60 83 105 85 84 114 162
650.0 118 121 128 153 180 287 305 358 330 298
690.0 233 133 111 82 54 25 17 34 39 29
730.0 50 39 42 47 40 73 82 100 117 115
770.0 97 108 120 128 135 161 138 157 141 141
810.0 163 152 159 160 172 189 226 260 296 357
850.0 421 455 465 434 395 324 297 257 228 226
890.0 225 239 242 227 243 299 370 454 529 571
930.0 582 574 576 607 658 663 634 564 458 374
970.0 306 276 295 325 379 454 558 748 1012 1353
1010.0 1624 1791 1901 2059 2385 2892 3473 3943 4099 4004
1050.0 3700 3219 2820 2375 1994 1710 1575 1510 1453 1381
1090.0 1340 1357 1428 1509 1566 1643 1799 2128 2743 3769
1130.0 5207 6876 8453 9527 9711 8887 7557 6126 4941 4191
1170.0 3860 3808 3942 4124 4297 4440 4434 4202 3786 3294
1210.0 2894 2782 2927 3074 3051 2905 2676 2598 2722 2968
1250.0 3254 3400 3309 3019 2580 2126 1763 1556 1484 1531
1290.0 1661 1815 1946 2005 1941 1802 1651 1551 1598 1757
1330.0 1888 1908 1809 1603 1372 1157 971 879 1030 1513
1370.0 2096 2429 2402 1981 1337 916 759 674 629 584
1410.0 524 470 436 411 385 379 370 428 452 520
1450.0 588 651 731 686 700 678 666 585 518 462
1490.0 416 344 297 201 200 141 106 114 138 109
1530.0 86 99 108 139 76 60 69 120 105 51
1570.0 66 55 79 38 42 40 42 39 48 49
1610.0 52 58 95 66 75 79 91 114 84 118
1650.0 106 195 102 116 115 143 132 142 143 205
1690.0 171 199 266 333 344 400 478 608 681 832
1730.0 1100 1610 2395 3564 4977 6390 7447 7723 7183 6077
1770.0 4778 3643 2822 2436 2387 2611 3147 3976 5238 6855
1810.0 8480 9655 10000 9464 7936 6174 4576 3183 2150 1508
1850.0 1097 847 658 518 428 369 314 277 247 226
1890.0 214 189 173 162 148 138 125 119 105 98
1930.0 88 83 78 75 71 66 62 60 59 60
1970.0 55 53 54 53 55 56 56 59 61 55
2010.0 55 51 52 49 57 58 60 61 64 63
2050.0 62 59 64 62 64 66 67 71 66 60
2090.0 60 54 52 43 37 32 28 30 29 27
2130.0 26 24 25 24 20 17 18 15 16 16
2170.0 14 12 8 6 11 6 9 12 13 13
2210.0 14 18 19 21 26 26 30 31 33 36
2250.0 35 41 45 48 51 51 58 63 65 70
2290.0 72 74 73 82 84 78 81 79 82 68
2330.0 69 58 57 63 73 64 70 53 58 53
2370.0 57 64 60 47 29 22 23 27 24 20
2410.0 23 21 13 16 14 14 12 13 12 13
2450.0 10 17 18 16 17 20 17 15 17 19
2490.0 19 23 21 26 28 23 30 24 21 18
2530.0 18 17 15 14 11 10 5 3 5 6
2570.0 7 5 4 0 1 3 9 3 3 5
2610.0 5 8 7 2 6 8 6 3 5 7
2650.0 5 4 11 5 1 5 9 12 16 9
2690.0 16 14 16 19 25 28 32 39 42 45
2730.0 52 60 52 50 43 43 40 43 43 48
2770.0 51 52 51 56 53 53 54 54 55 58
2810.0 62 65 70 78 83 93 96 109 113 123
2850.0 144 159 184 208 233 261 308 366 451 527
2890.0 589 645 701 812 975 1213 1371 1446 1397 1247
2930.0 1097 1019 1034 1114 1194 1230 1228 1211 1214 1285
2970.0 1388 1519 1709 2002 2326 2581 2689 2640 2487 2223
3010.0 1840 1394 977 690 497 376 294 237 197 172
3050.0 142 120 107 95 90 79 73 69 70 66
3090.0 65 58 58 56 49 52 42 43 47 46
3130.0 47 42 43 46 46 42 41 42 44 39
3170.0 43 43 49 45 43 40 39 33 31 33
3210.0 34 29 29 27 33 25 25 23 28 28
3250.0 24 21 27 25 22 17 23 24 21 28
3290.0 19 17 22 23 21 26 24 20 22 24
3330.0 18 17 23 18 19 23 16 16 14 21
3370.0 15 25 16 14 28 25 14 24 24 30
3410.0 22 25 29 19 18 12 17 24 16 18
3450.0 22 24 28 33 25 30 36 34 37 37
3490.0 48 51 42 28 24 31 29 28 20 1
3530.0 10 18 14 15 1 13 26 26 29 15
3570.0 23 43 49 45 52 59 74 63 88 84
3610.0 86 81 78 88 71 75 59 68 53 49
3650.0 79 53 73 53 56 78 78 88 50 66
3690.0 82 62 48 44 51 47 27 24 30 13
3730.0 39 41 36 22 66 50 58 26 28 20
3770.0 29 28 25 37 21 28 25 23 55 50
3810.0 38 49 52 62 24 30 42 69 38 14
3850.0 29 85 45 30 16 50 39 35 31 37
3890.0 24 39 35 28 16 35 40 38 11 33
3930.0 28 19 41 38 29 27 52 50 14 48
##END=
