##TITLE=Cyclohexanone, 3-(1,1-dimethylethyl)-
##JCAMP-DX=4.24
##DATA TYPE=INFRARED SPECTRUM
##ORIGIN=Sadtler Research Labs Under US-EPA Contract
##OWNER=NIST Standard Reference Data Program
##CAS REGISTRY NO=936-99-2
##MOLFORM=C 10 H 18 O
##XUNITS=1/CM
##YUNITS=ABSORBANCE
##XFACTOR=1.0
##YFACTOR=0.000105887
##DELTAX=4.0
##FIRSTX=450.0
##LASTX=3966.0
##FIRSTY=0.003706
##MAXX=3966
##MINX=450
##MAXY=1.05887
##MINY=0
##NPOINTS=880
##XYDATA=(X++(Y..Y))
450.0 35 45 23 38 18 36 57 53 48 60
490.0 86 99 175 274 340 349 333 256 183 180
530.0 218 315 357 326 249 150 70 62 40 32
570.0 38 31 26 31 31 17 22 27 25 19
610.0 13 23 34 38 45 61 89 95 77 57
650.0 43 30 18 16 14 9 22 13 3 0
690.0 10 10 9 6 15 15 13 31 25 27
730.0 34 54 84 111 117 121 113 106 119 109
770.0 106 81 61 42 34 19 10 9 19 19
810.0 24 31 40 44 50 53 48 49 49 52
850.0 65 80 115 140 139 140 114 91 90 136
890.0 181 197 181 135 77 62 72 97 140 199
930.0 246 254 232 183 113 78 60 43 42 42
970.0 54 67 81 92 97 99 103 110 131 157
1010.0 170 176 161 142 122 105 113 164 229 292
1050.0 376 472 522 534 485 352 248 198 183 176
1090.0 168 158 139 127 118 99 86 78 73 80
1130.0 81 87 101 130 171 227 311 422 551 651
1170.0 685 663 580 487 422 374 336 325 364 475
1210.0 680 961 1239 1468 1704 1821 1844 1713 1391 999
1250.0 669 496 477 521 573 629 683 691 658 566
1290.0 421 283 248 317 432 529 601 606 568 553
1330.0 517 486 521 624 681 716 727 723 903 1241
1370.0 1565 1696 1284 866 524 435 614 804 832 763
1410.0 545 386 432 573 696 781 795 711 615 574
1450.0 610 715 760 794 844 903 999 1084 1069 935
1490.0 712 430 239 144 106 83 65 53 46 39
1530.0 30 28 21 13 12 10 10 8 9 9
1570.0 9 12 14 12 14 17 19 20 20 20
1610.0 20 22 25 31 37 47 50 58 62 73
1650.0 77 92 102 115 133 156 183 226 273 334
1690.0 392 453 533 669 906 1339 2072 3247 4888 6753
1730.0 8296 8835 8121 6384 4297 2675 1640 1081 770 578
1770.0 454 367 306 257 224 193 174 161 157 152
1810.0 143 129 111 91 76 59 47 38 29 23
1850.0 17 14 12 10 10 8 9 10 9 9
1890.0 10 8 7 10 10 12 14 15 17 16
1930.0 14 14 11 10 9 7 6 7 7 5
1970.0 7 8 7 8 7 6 7 3 3 3
2010.0 4 3 0 0 2 0 1 0 3 3
2050.0 2 3 5 7 7 7 8 10 11 11
2090.0 13 14 11 9 12 9 10 11 8 8
2130.0 8 6 3 5 3 6 4 5 5 5
2170.0 9 8 11 10 9 12 12 11 10 11
2210.0 9 6 8 6 3 3 4 3 4 4
2250.0 6 4 3 1 1 3 4 9 12 15
2290.0 20 25 31 28 29 33 20 13 12 2
2330.0 6 0 0 0 2 8 0 0 0 6
2370.0 5 16 23 26 25 16 14 12 12 8
2410.0 8 5 5 2 1 0 2 1 1 4
2450.0 5 3 4 3 4 3 2 2 3 4
2490.0 7 7 9 10 9 6 7 7 6 7
2530.0 7 8 7 7 7 8 8 9 11 9
2570.0 11 12 12 16 18 21 24 27 29 35
2610.0 37 40 42 41 42 42 45 52 53 58
2650.0 60 57 59 56 54 56 55 58 63 64
2690.0 64 63 59 58 56 56 60 64 69 76
2730.0 83 84 79 73 69 67 72 80 87 87
2770.0 83 80 79 81 89 95 100 105 123 132
2810.0 148 160 180 203 243 303 374 447 511 582
2850.0 702 915 1234 1706 2253 2811 3210 3360 3237 2935
2890.0 2633 2419 2328 2346 2457 2555 2608 2694 2828 3045
2930.0 3402 3993 4562 5235 5894 6497 7145 7795 8730 9654
2970.0 10000 9296 7471 5389 3416 2145 1382 877 586 428
3010.0 341 292 257 228 202 180 159 140 126 112
3050.0 107 99 94 91 85 81 76 72 63 58
3090.0 58 52 49 48 46 45 46 49 48 46
3130.0 50 51 52 53 53 55 51 55 59 58
3170.0 57 58 62 62 68 64 62 65 64 63
3210.0 65 65 64 60 58 56 50 47 42 35
3250.0 30 26 22 19 15 13 16 15 19 23
3290.0 23 23 25 18 22 14 14 13 13 9
3330.0 9 14 16 19 18 21 12 20 20 26
3370.0 23 26 25 27 33 28 35 33 34 32
3410.0 39 40 37 44 56 74 97 104 118 121
3450.0 112 99 81 67 55 36 25 16 21 22
3490.0 17 14 13 21 22 16 16 19 17 14
3530.0 14 14 12 12 16 6 15 8 12 5
3570.0 8 12 8 13 13 10 9 9 10 5
3610.0 10 9 14 10 9 16 6 16 15 21
3650.0 19 21 24 17 13 9 10 8 8 4
3690.0 10 5 1 6 10 12 6 5 4 13
3730.0 0 5 18 6 10 0 0 4 7 11
3770.0 10 7 3 3 15 7 19 20 12 17
3810.0 10 10 4 19 6 12 10 0 6 21
3850.0 15 8 7 16 8 9 11 5 18 18
3890.0 21 17 17 16 3 23 25 26 7 9
3930.0 8 9 10 5 11 11 12 18 0 17
##END=
