##TITLE=Isothiazole, 4-phenyl-
##JCAMP-DX=4.24
##DATA TYPE=INFRARED SPECTRUM
##ORIGIN=Sadtler Research Labs Under US-EPA Contract
##OWNER=NIST Standard Reference Data Program
##CAS REGISTRY NO=936-46-9
##MOLFORM=C 9 H 7 N S
##XUNITS=1/CM
##YUNITS=ABSORBANCE
##XFACTOR=1.0
##YFACTOR=0.000053479
##DELTAX=4.0
##FIRSTX=450.0
##LASTX=3966.0
##FIRSTY=0.000000
##MAXX=3966
##MINX=450
##MAXY=0.53479
##MINY=0
##NPOINTS=880
##XYDATA=(X++(Y..Y))
450.0 0 57 83 41 119 82 146 210 309 332
490.0 619 692 940 1309 1780 2122 2714 2409 1959 1484
530.0 1026 629 406 278 173 146 131 88 86 64
570.0 52 14 28 26 40 39 74 117 178 175
610.0 187 231 353 523 920 1069 1174 1228 1049 991
650.0 960 894 848 886 967 1296 1633 2143 2952 3807
690.0 4676 5148 4771 4062 3140 2367 1765 1378 1231 1366
730.0 1837 2766 4126 5765 7374 9058 10000 8012 6640 5033
770.0 3854 3751 4608 5155 5069 4299 2628 1631 1137 850
810.0 668 538 477 424 413 480 638 946 1661 3032
850.0 4842 5537 5319 4046 1955 1411 1544 1729 1834 2024
890.0 1892 1549 1443 1554 2282 2916 2720 2617 1361 560
930.0 331 229 173 125 106 91 93 110 118 131
970.0 132 133 126 105 97 113 173 235 265 283
1010.0 300 392 548 577 527 405 318 462 882 1061
1050.0 1037 957 608 505 523 545 560 659 663 533
1090.0 461 372 318 256 218 178 141 116 91 79
1130.0 77 72 78 86 123 168 184 156 159 178
1170.0 223 289 424 606 807 867 830 789 620 567
1210.0 620 742 911 1107 1308 1418 1436 1303 1082 776
1250.0 536 413 390 409 441 471 501 494 448 428
1290.0 474 571 646 667 676 681 715 777 814 816
1330.0 785 807 941 1165 1326 1362 1262 969 750 633
1370.0 496 391 315 257 226 193 178 172 157 142
1410.0 154 141 194 197 234 262 332 383 478 568
1450.0 571 555 526 426 381 419 594 1013 1538 1749
1490.0 1711 1322 724 462 329 267 292 421 670 961
1530.0 1200 1252 1167 893 649 494 408 405 430 528
1570.0 635 731 791 866 906 1064 1391 1821 2140 2132
1610.0 1693 1114 541 247 202 168 188 184 177 183
1650.0 238 250 296 305 289 236 197 126 134 129
1690.0 123 123 152 128 114 83 99 129 127 143
1730.0 176 215 220 238 261 273 279 295 323 356
1770.0 377 373 356 344 358 421 456 426 355 255
1810.0 185 167 156 153 126 104 74 64 69 79
1850.0 90 103 136 168 214 239 251 275 302 317
1890.0 295 238 164 95 66 64 73 92 128 159
1930.0 196 240 278 300 319 348 368 366 311 232
1970.0 125 47 28 22 15 22 18 15 17 21
2010.0 20 23 26 23 22 25 24 27 28 27
2050.0 27 23 13 16 12 13 14 14 21 22
2090.0 21 16 17 14 10 10 10 8 12 10
2130.0 14 21 21 25 23 21 18 18 15 17
2170.0 13 14 8 9 9 10 10 15 21 27
2210.0 32 42 40 45 53 61 62 62 55 49
2250.0 44 40 42 41 39 40 38 39 43 48
2290.0 52 65 71 73 85 115 128 123 122 81
2330.0 57 46 43 52 65 88 60 54 35 40
2370.0 52 66 74 81 71 54 45 46 38 38
2410.0 33 32 26 28 22 31 32 34 31 31
2450.0 29 20 12 8 10 11 14 14 12 15
2490.0 15 15 12 15 19 19 26 24 23 17
2530.0 16 17 17 17 18 16 15 16 16 20
2570.0 26 22 25 27 25 26 28 34 35 37
2610.0 27 22 26 29 29 29 29 31 29 19
2650.0 21 19 16 15 16 13 14 12 11 13
2690.0 19 16 17 20 27 25 27 36 33 35
2730.0 28 25 25 31 31 38 38 40 39 40
2770.0 41 42 42 42 43 47 52 48 44 40
2810.0 39 38 33 39 39 46 53 62 61 65
2850.0 79 75 74 81 86 88 95 96 99 96
2890.0 101 101 106 104 102 102 104 111 123 127
2930.0 134 144 147 154 152 139 129 123 125 118
2970.0 124 125 126 127 134 152 176 216 262 324
3010.0 401 505 653 894 1263 1791 2444 2981 3145 2979
3050.0 2482 2042 2150 2689 3538 4314 4565 4497 3876 3080
3090.0 2612 2271 1896 1555 1287 1002 757 543 363 277
3130.0 242 218 196 184 162 146 133 130 118 106
3170.0 82 73 60 52 40 40 39 33 28 31
3210.0 28 23 27 32 27 28 31 28 34 26
3250.0 33 19 17 18 24 24 19 23 29 23
3290.0 20 16 19 15 16 17 19 15 16 17
3330.0 13 21 24 27 18 21 14 18 22 19
3370.0 14 20 24 20 29 19 21 17 25 21
3410.0 18 26 21 15 27 26 26 36 26 23
3450.0 25 22 26 22 21 13 13 21 15 8
3490.0 16 25 27 16 19 17 20 17 8 22
3530.0 16 27 12 24 21 23 20 24 25 23
3570.0 11 19 24 23 19 13 10 20 31 27
3610.0 24 28 35 36 20 15 36 34 48 47
3650.0 34 72 52 52 52 46 49 29 54 55
3690.0 59 66 76 64 55 52 66 66 50 55
3730.0 43 50 56 57 41 57 40 63 61 63
3770.0 45 37 21 27 40 34 22 14 18 21
3810.0 25 18 33 19 25 15 21 20 13 26
3850.0 38 13 26 19 15 20 16 8 11 13
3890.0 20 17 28 8 8 12 19 15 35 24
3930.0 33 15 29 22 45 29 40 39 39 61
##END=
