##TITLE=Benzene, 1-ethynyl-4-nitro-
##JCAMP-DX=4.24
##DATA TYPE=INFRARED SPECTRUM
##ORIGIN=Sadtler Research Labs Under US-EPA Contract
##OWNER=NIST Standard Reference Data Program
##CAS REGISTRY NO=937-31-5
##MOLFORM=C 8 H 5 N O 2
##XUNITS=1/CM
##YUNITS=ABSORBANCE
##XFACTOR=1.0
##YFACTOR=0.000053540
##DELTAX=4.0
##FIRSTX=450.0
##LASTX=3966.0
##FIRSTY=0.000000
##MAXX=3966
##MINX=450
##MAXY=0.5354
##MINY=0
##NPOINTS=880
##XYDATA=(X++(Y..Y))
450.0 0 86 138 93 29 105 116 108 195 214
490.0 274 266 222 234 239 193 225 231 244 218
530.0 218 201 148 137 186 188 237 304 379 416
570.0 364 353 282 280 250 234 258 232 212 218
610.0 301 377 541 806 1239 2309 2443 2778 2458 1973
650.0 3117 2596 1520 1374 1080 803 552 535 525 520
690.0 465 412 374 311 269 189 173 130 152 163
730.0 240 336 512 722 812 1278 925 827 819 706
770.0 607 544 444 293 219 156 165 191 204 214
810.0 234 239 236 277 301 379 491 753 1178 2062
850.0 3428 4333 4499 3697 2191 1221 711 430 272 202
890.0 193 171 185 178 149 137 119 117 104 101
930.0 94 98 86 88 96 94 100 94 91 101
970.0 89 87 87 83 87 90 101 98 131 234
1010.0 434 506 475 429 217 107 106 103 100 97
1050.0 104 110 146 167 191 195 195 200 215 245
1090.0 309 417 570 731 762 750 633 437 313 249
1130.0 206 174 156 146 150 154 174 198 240 295
1170.0 404 524 553 555 488 387 317 300 266 236
1210.0 214 207 203 211 253 288 329 368 478 822
1250.0 1490 1986 2061 2044 1639 1229 1177 1157 1065 1016
1290.0 928 743 598 502 480 522 529 565 646 875
1330.0 1432 2594 4665 7412 9479 10000 8816 6023 3422 2210
1370.0 1641 1284 954 728 571 468 421 400 359 364
1410.0 378 376 465 491 515 552 614 639 531 431
1450.0 335 303 345 344 366 499 645 773 965 1352
1490.0 1571 1488 1372 1038 837 1024 1243 1897 2808 4027
1530.0 5434 6780 7162 6907 6816 5246 3394 2229 1343 920
1570.0 793 850 1072 1386 1864 2443 3023 3352 3226 2601
1610.0 1844 1333 985 645 490 321 316 282 259 275
1650.0 304 312 294 236 261 281 293 269 308 292
1690.0 244 213 233 227 191 153 171 209 156 146
1730.0 160 205 154 151 164 177 216 209 280 284
1770.0 355 343 335 322 341 333 392 372 350 294
1810.0 234 200 159 142 115 117 79 84 78 111
1850.0 76 66 74 68 76 88 77 59 72 69
1890.0 82 78 87 105 110 145 162 195 204 191
1930.0 182 159 138 114 97 67 70 61 62 60
1970.0 57 58 46 47 43 50 46 43 38 44
2010.0 39 48 46 47 43 46 48 48 51 47
2050.0 49 51 54 58 68 71 71 77 73 76
2090.0 74 80 79 90 96 101 106 100 95 88
2130.0 76 66 61 44 41 53 62 75 81 88
2170.0 91 101 104 103 107 104 104 106 105 99
2210.0 92 86 76 68 64 64 62 58 50 51
2250.0 44 47 46 53 55 64 77 88 101 114
2290.0 130 150 169 192 197 221 190 171 180 154
2330.0 123 124 105 127 180 191 192 157 150 115
2370.0 124 133 170 177 128 75 52 45 42 39
2410.0 35 29 30 35 31 41 41 53 63 74
2450.0 80 80 75 63 58 49 43 38 36 34
2490.0 33 34 32 31 31 33 29 34 29 32
2530.0 32 27 26 25 29 35 34 36 39 34
2570.0 33 35 37 38 39 42 41 43 39 45
2610.0 43 37 36 35 32 29 33 27 32 39
2650.0 36 41 36 40 48 54 50 64 66 76
2690.0 82 85 83 84 77 64 63 54 50 40
2730.0 45 34 42 41 38 43 42 47 40 46
2770.0 45 48 51 50 49 54 47 50 47 46
2810.0 48 50 52 51 54 60 52 59 62 75
2850.0 89 108 123 150 175 195 202 208 200 177
2890.0 155 124 113 101 90 81 91 89 106 123
2930.0 137 157 159 150 139 128 113 101 87 78
2970.0 70 64 50 45 45 47 43 36 36 39
3010.0 41 40 41 38 38 39 37 37 37 35
3050.0 46 58 82 101 133 170 180 215 264 290
3090.0 271 229 167 89 56 55 48 52 39 39
3130.0 37 34 32 30 31 27 32 25 29 26
3170.0 31 31 27 32 28 30 38 47 48 46
3210.0 47 52 45 43 48 38 49 44 55 57
3250.0 61 58 69 82 90 115 141 200 247 311
3290.0 387 522 743 1032 1210 1229 1292 1722 2724 3107
3330.0 3078 2633 1115 295 186 157 171 141 133 112
3370.0 95 57 57 54 55 56 58 58 50 67
3410.0 60 59 50 56 50 39 45 42 47 49
3450.0 42 41 40 49 33 44 46 28 43 42
3490.0 43 41 29 40 31 41 47 33 47 48
3530.0 45 40 43 45 68 55 69 56 65 94
3570.0 98 85 73 122 111 112 103 60 60 52
3610.0 104 52 58 52 45 120 49 46 52 37
3650.0 83 52 57 37 35 72 49 82 29 64
3690.0 64 57 50 67 51 66 71 59 48 67
3730.0 57 96 92 87 128 51 97 49 50 51
3770.0 29 59 34 70 28 47 33 45 43 58
3810.0 36 55 26 57 43 61 60 65 55 58
3850.0 49 108 79 58 83 73 61 55 56 88
3890.0 73 87 46 104 75 72 54 80 78 76
3930.0 90 95 81 89 90 67 98 65 85 66
##END=
