##TITLE=Ethanone, 1-(4-ethylphenyl)-
##JCAMP-DX=4.24
##DATA TYPE=INFRARED SPECTRUM
##ORIGIN=Sadtler Research Labs Under US-EPA Contract
##OWNER=NIST Standard Reference Data Program
##CAS REGISTRY NO=937-30-4
##MOLFORM=C 10 H 12 O
##XUNITS=1/CM
##YUNITS=ABSORBANCE
##XFACTOR=1.0
##YFACTOR=0.000148969
##DELTAX=4.0
##FIRSTX=450.0
##LASTX=3966.0
##FIRSTY=0.029198
##MAXX=3966
##MINX=450
##MAXY=1.48969
##MINY=0
##NPOINTS=880
##XYDATA=(X++(Y..Y))
450.0 196 146 142 130 145 136 138 102 102 131
490.0 162 169 166 172 200 207 208 227 191 167
530.0 156 147 147 146 160 203 252 401 712 982
570.0 1137 1139 940 753 746 853 910 856 724 553
610.0 376 242 161 117 94 97 108 133 166 194
650.0 257 351 476 484 480 252 154 95 68 64
690.0 55 74 60 77 54 51 26 13 5 15
730.0 12 6 16 1 6 6 26 32 40 60
770.0 74 90 138 151 219 234 233 254 294 395
810.0 533 685 890 1075 1284 1341 1275 1249 1210 972
850.0 706 519 318 212 139 103 84 81 69 62
890.0 69 53 58 50 55 45 53 63 69 88
930.0 127 208 354 645 1059 1385 1475 1315 956 650
970.0 471 351 264 192 170 144 143 148 182 240
1010.0 423 619 645 604 404 224 178 161 168 189
1050.0 224 286 393 465 534 585 547 486 386 249
1090.0 173 140 130 143 163 202 238 262 262 245
1130.0 199 153 124 102 90 89 95 106 126 156
1170.0 231 459 1077 1580 1666 1493 834 461 372 340
1210.0 352 364 474 644 859 1040 1237 1417 1566 1806
1250.0 2362 3730 6214 8703 9289 7898 4287 1912 1082 843
1290.0 754 755 757 729 670 603 550 514 500 456
1330.0 414 380 384 467 665 1077 1782 2566 2930 2791
1370.0 2089 1268 806 581 485 451 495 598 812 1083
1410.0 1297 1320 1255 1026 907 821 818 765 740 673
1450.0 620 599 573 606 588 554 490 385 322 271
1490.0 233 206 199 182 160 160 156 148 151 153
1530.0 159 134 168 125 150 144 207 194 317 407
1570.0 534 526 537 445 403 454 594 906 1389 2201
1610.0 2750 2680 2221 1280 684 393 348 257 283 281
1650.0 333 319 420 418 436 500 465 710 867 1499
1690.0 2406 4266 6741 10000 8557 8555 5042 2915 1612 1069
1730.0 659 475 393 344 323 294 329 248 256 192
1770.0 180 111 100 80 51 64 67 85 82 118
1810.0 102 96 80 58 47 26 40 24 25 14
1850.0 20 19 23 21 22 27 27 49 49 70
1890.0 81 94 97 102 108 109 114 129 129 127
1930.0 121 103 86 69 57 49 37 32 19 19
1970.0 11 15 10 8 10 7 10 9 16 12
2010.0 20 22 32 33 43 43 38 35 27 26
2050.0 17 18 12 6 3 3 2 0 2 2
2090.0 6 2 8 4 4 5 5 7 4 7
2130.0 3 5 4 6 4 5 6 3 7 6
2170.0 9 5 7 5 3 3 4 6 5 11
2210.0 11 15 12 16 13 12 11 9 8 6
2250.0 10 6 5 3 4 0 3 5 5 7
2290.0 5 8 7 13 14 8 11 6 1 0
2330.0 0 0 2 0 0 0 0 0 0 0
2370.0 0 0 0 0 6 15 19 20 22 19
2410.0 20 19 20 20 23 27 25 28 26 25
2450.0 15 20 14 14 10 10 10 9 14 14
2490.0 16 17 25 22 27 33 38 47 53 57
2530.0 56 53 44 42 37 36 36 36 34 34
2570.0 35 32 34 35 40 43 44 44 41 42
2610.0 40 43 44 53 57 58 60 58 54 49
2650.0 48 39 39 33 33 31 30 31 30 30
2690.0 31 34 34 40 41 41 41 37 39 36
2730.0 40 44 51 51 55 54 53 56 61 71
2770.0 76 80 81 81 78 79 82 83 86 88
2810.0 91 96 105 110 121 137 156 179 206 239
2850.0 268 308 363 448 559 683 809 911 1007 1080
2890.0 1089 1031 950 879 874 905 908 897 892 955
2930.0 1085 1278 1504 1764 1919 1844 1680 1443 1408 1667
2970.0 2486 3588 3828 3613 2515 1483 1107 930 881 905
3010.0 976 1023 995 937 874 948 1057 1090 1023 863
3050.0 727 685 645 605 593 571 548 533 534 554
3090.0 564 546 493 417 327 268 227 215 201 194
3130.0 177 157 135 121 116 102 100 90 83 77
3170.0 70 70 63 69 66 65 62 54 52 50
3210.0 47 44 44 41 40 40 41 36 37 35
3250.0 34 35 35 34 33 39 34 41 34 37
3290.0 38 38 39 41 40 41 45 42 44 42
3330.0 41 44 48 47 42 45 47 46 50 63
3370.0 72 90 118 150 182 204 196 168 127 87
3410.0 75 53 50 42 43 49 47 47 43 41
3450.0 42 46 38 42 46 40 40 39 41 31
3490.0 50 42 37 40 26 43 39 46 41 27
3530.0 37 45 42 47 29 35 48 29 64 7
3570.0 32 43 41 55 19 45 19 42 36 47
3610.0 25 31 37 23 52 30 26 61 33 59
3650.0 9 26 72 27 89 9 73 7 79 48
3690.0 50 45 62 63 59 48 42 50 54 53
3730.0 54 45 30 54 14 72 3 62 59 52
3770.0 53 54 74 39 65 58 60 47 67 34
3810.0 88 27 70 27 55 70 44 42 51 38
3850.0 60 46 30 65 57 43 61 70 42 50
3890.0 69 50 71 40 55 74 81 62 71 67
3930.0 73 72 73 74 77 69 80 79 83 74
##END=
