##TITLE=Naphthalene, 2-ethyl-
##JCAMP-DX=4.24
##DATA TYPE=INFRARED SPECTRUM
##ORIGIN=Sadtler Research Labs Under US-EPA Contract
##OWNER=NIST Standard Reference Data Program
##CAS REGISTRY NO=939-27-5
##MOLFORM=C 12 H 12
##XUNITS=1/CM
##YUNITS=ABSORBANCE
##XFACTOR=1.0
##YFACTOR=0.000055127
##DELTAX=4.0
##FIRSTX=450.0
##LASTX=3966.0
##FIRSTY=0.046527
##MAXX=3966
##MINX=450
##MAXY=0.55127
##MINY=0
##NPOINTS=880
##XYDATA=(X++(Y..Y))
450.0 844 665 1011 1587 2053 2503 3014 2448 1774 1183
490.0 661 301 88 100 71 59 56 56 40 40
530.0 86 97 111 77 64 52 27 0 32 36
570.0 0 34 53 51 46 69 47 56 30 73
610.0 204 541 695 696 640 299 208 237 279 276
650.0 228 193 141 94 52 107 42 69 44 67
690.0 71 82 78 92 114 106 194 400 853 1600
730.0 2590 3660 4777 5171 4190 3388 2419 1598 1088 743
770.0 589 519 519 561 650 833 1190 1825 2658 3546
810.0 4441 4852 3734 2808 1895 1238 1049 1299 1788 2276
850.0 3097 2803 2136 1621 1173 971 986 1131 1210 1485
890.0 1309 908 675 426 251 167 122 111 101 133
930.0 214 340 564 921 1053 986 837 584 319 235
970.0 157 113 90 81 71 90 102 93 115 165
1010.0 301 531 608 587 479 268 210 228 250 313
1050.0 420 511 546 541 464 393 327 247 177 114
1090.0 85 73 75 91 112 170 265 415 563 559
1130.0 577 582 522 489 457 375 286 239 243 241
1170.0 211 193 162 117 88 80 98 139 182 213
1210.0 227 214 202 193 211 237 268 275 278 264
1250.0 272 310 402 533 617 570 597 483 332 234
1290.0 194 204 252 337 445 569 720 837 858 793
1330.0 652 477 366 322 331 360 416 481 547 618
1370.0 653 682 707 705 629 547 445 357 305 285
1410.0 291 310 313 346 361 408 467 550 637 740
1450.0 845 954 1035 1088 1117 1044 900 759 636 549
1490.0 547 653 926 1447 2021 2179 1921 1301 556 237
1530.0 181 183 196 221 236 246 247 224 205 204
1570.0 214 245 306 396 519 666 899 1157 1269 1189
1610.0 982 669 489 525 678 902 1049 1055 927 704
1650.0 496 388 323 282 256 254 258 290 299 311
1690.0 303 295 263 232 191 152 138 132 139 164
1730.0 180 209 241 283 319 368 406 406 390 353
1770.0 315 303 308 297 289 270 232 209 189 177
1810.0 187 225 252 240 208 147 122 135 147 140
1850.0 143 122 97 81 62 45 50 70 111 164
1890.0 233 325 377 414 453 420 363 331 296 253
1930.0 274 347 396 363 284 162 56 21 14 6
1970.0 5 6 0 3 3 2 6 6 7 9
2010.0 9 9 12 15 20 33 32 31 27 25
2050.0 22 16 18 11 4 7 5 5 4 5
2090.0 4 6 2 3 9 4 7 8 11 9
2130.0 7 12 11 13 9 9 11 6 8 8
2170.0 4 6 0 3 4 6 3 1 2 1
2210.0 0 6 9 13 15 16 17 18 15 17
2250.0 19 24 24 23 20 19 30 39 48 57
2290.0 62 59 57 59 57 51 59 56 53 54
2330.0 56 49 57 50 54 38 50 44 51 45
2370.0 34 37 27 20 19 29 28 25 29 30
2410.0 32 38 45 51 57 59 59 52 44 36
2450.0 33 31 24 24 19 13 22 18 20 24
2490.0 29 38 43 46 49 46 49 41 39 33
2530.0 32 31 32 25 24 24 23 23 27 29
2570.0 28 26 26 22 23 21 22 21 24 31
2610.0 37 37 42 49 52 50 55 55 52 49
2650.0 50 43 39 35 38 34 31 33 29 32
2690.0 29 36 41 48 48 57 56 65 63 72
2730.0 79 92 96 103 105 102 98 103 111 123
2770.0 139 149 165 172 174 177 176 177 185 184
2810.0 186 197 214 245 270 315 363 426 490 570
2850.0 680 828 1042 1337 1700 2066 2349 2547 2743 2855
2890.0 2792 2625 2463 2428 2454 2452 2396 2348 2454 2767
2930.0 3242 3826 4422 4901 4977 4652 4188 3857 4125 5576
2970.0 8571 10000 9832 8039 4798 3130 2462 2164 2054 2087
3010.0 2254 2530 2862 3066 3092 2901 2644 2626 3012 3909
3050.0 5115 6378 7466 7900 7704 6819 5272 3892 2879 2281
3090.0 1889 1543 1196 873 597 436 362 307 266 225
3130.0 202 188 181 188 196 197 210 213 211 223
3170.0 214 196 180 152 128 109 90 76 75 70
3210.0 74 53 55 50 56 56 52 53 40 40
3250.0 42 22 35 33 27 18 7 1 4 22
3290.0 23 19 15 21 14 30 16 16 18 14
3330.0 21 20 14 11 18 24 18 18 18 8
3370.0 15 22 16 16 20 22 41 21 21 19
3410.0 16 27 21 18 31 28 17 36 20 29
3450.0 33 25 26 27 30 14 14 25 22 15
3490.0 19 21 14 19 29 28 26 22 7 21
3530.0 30 34 21 24 15 4 10 21 31 18
3570.0 19 24 22 21 16 20 22 20 7 14
3610.0 13 11 17 14 34 29 36 42 48 41
3650.0 44 39 31 29 38 28 22 31 33 41
3690.0 41 53 36 31 33 41 38 39 41 57
3730.0 54 46 42 33 50 54 50 48 34 34
3770.0 26 28 36 33 24 38 39 29 22 21
3810.0 32 10 36 40 21 23 32 14 26 31
3850.0 24 22 9 20 18 19 18 41 34 29
3890.0 37 42 36 31 54 17 38 12 28 47
3930.0 72 46 39 59 53 53 8 20 31 32
##END=
