##TITLE=.gamma.-Chlorobutyrophenone
##JCAMP-DX=4.24
##DATA TYPE=INFRARED SPECTRUM
##ORIGIN=Sadtler Research Labs Under US-EPA Contract
##OWNER=NIST Standard Reference Data Program
##CAS REGISTRY NO=939-52-6
##MOLFORM=C 10 H 11 Cl O
##XUNITS=1/CM
##YUNITS=ABSORBANCE
##XFACTOR=1.0
##YFACTOR=0.000073807
##DELTAX=4.0
##FIRSTX=450.0
##LASTX=3966.0
##FIRSTY=0.116688
##MAXX=3966
##MINX=450
##MAXY=0.73807
##MINY=0
##NPOINTS=880
##XYDATA=(X++(Y..Y))
450.0 1581 1262 713 575 683 292 438 362 0 289
490.0 231 259 480 403 589 509 525 500 469 517
530.0 473 499 484 531 500 601 665 764 895 972
570.0 998 989 1031 952 735 883 885 899 819 740
610.0 673 673 719 769 876 876 1057 1091 1204 1282
650.0 1444 1575 1671 1688 1692 1833 1952 2307 2651 3263
690.0 3766 3687 3377 2987 2720 2636 2885 2915 2659 2724
730.0 2775 2923 3195 3474 3574 3268 2877 2474 2106 1772
770.0 1680 1520 1286 1046 979 895 899 859 882 879
810.0 910 891 869 961 1030 979 895 798 725 714
850.0 741 808 877 981 1056 1052 1041 983 877 808
890.0 742 708 674 664 652 683 709 767 854 974
930.0 1108 1216 1379 1577 1778 1997 2198 2254 2251 2223
970.0 2244 2289 2298 2210 2200 2259 2294 2444 2382 2134
1010.0 1695 1358 1386 1544 1645 1525 1384 1152 1021 1153
1050.0 1435 1783 1963 2057 1885 1514 1211 1029 899 822
1090.0 787 773 753 711 698 670 654 632 618 623
1130.0 655 702 762 853 947 1032 1067 1090 1096 1160
1170.0 1260 1643 2359 2724 2635 2065 1670 1768 1924 2258
1210.0 2762 3632 4783 5763 6045 5416 4481 3884 3618 3432
1250.0 3279 3142 3032 2883 2768 2685 2526 2337 2257 2387
1290.0 2645 2954 3168 3235 3157 3038 2973 2982 2940 2677
1330.0 2303 1950 1742 1665 1740 1991 2325 2637 2762 2710
1370.0 2438 2070 1734 1397 1148 970 861 798 794 824
1410.0 917 1006 1078 1138 1169 1241 1345 1569 1923 2582
1450.0 2992 2910 2224 1448 1047 818 703 656 642 656
1490.0 729 785 738 679 578 462 427 426 416 438
1530.0 423 441 415 431 411 428 420 436 496 540
1570.0 649 798 980 1118 1202 1221 1275 1432 1451 1316
1610.0 1031 827 702 643 587 611 613 672 681 738
1650.0 725 807 814 848 890 964 1075 1333 1761 2686
1690.0 4206 6278 8673 10000 9720 7753 5180 3023 1841 1215
1730.0 969 819 811 772 778 773 812 779 724 687
1770.0 662 576 475 437 398 399 415 442 479 526
1810.0 529 495 452 396 363 338 321 300 275 274
1850.0 267 267 265 271 265 276 285 301 327 353
1890.0 377 395 391 383 371 360 347 315 294 289
1930.0 288 301 320 331 360 391 406 416 412 395
1970.0 377 348 320 282 245 232 219 212 211 200
2010.0 206 205 200 197 187 183 176 179 175 184
2050.0 180 187 186 185 191 192 187 186 187 182
2090.0 184 183 185 180 183 180 179 176 175 180
2130.0 174 175 166 171 172 170 173 172 173 167
2170.0 168 168 165 160 160 154 149 149 155 153
2210.0 152 154 146 149 150 152 149 148 153 159
2250.0 153 159 163 154 155 155 159 159 154 142
2290.0 134 106 95 94 70 60 82 88 80 77
2330.0 57 63 87 96 74 58 58 59 80 81
2370.0 100 117 120 127 127 141 160 163 166 166
2410.0 159 156 151 148 146 151 151 155 154 155
2450.0 152 146 142 144 138 143 143 147 150 151
2490.0 153 146 148 152 150 155 162 157 158 153
2530.0 147 146 151 149 148 150 154 155 148 146
2570.0 147 138 144 151 154 155 164 167 173 156
2610.0 147 150 146 146 156 159 149 160 155 155
2650.0 157 162 155 151 158 168 178 194 192 173
2690.0 183 183 187 208 207 185 180 183 180 221
2730.0 218 195 180 197 176 236 219 200 169 182
2770.0 165 242 229 200 194 205 206 268 247 224
2810.0 261 262 307 364 326 321 342 358 421 475
2850.0 503 577 711 898 1088 1151 1181 1158 1082 1061
2890.0 1091 1170 1268 1344 1429 1488 1527 1615 1688 1891
2930.0 1948 2018 2031 1990 2005 1972 2097 2224 2433 2454
2970.0 2422 2312 2151 1924 1618 1367 1278 1303 1192 1058
3010.0 950 874 818 783 857 956 1088 1196 1307 1317
3050.0 1244 1201 1305 1545 1842 2295 2537 2425 2022 1646
3090.0 1557 1510 1380 1157 942 784 618 471 354 283
3130.0 234 213 207 196 188 201 197 189 193 176
3170.0 170 151 138 130 128 127 121 124 118 119
3210.0 126 108 116 109 122 108 99 117 130 128
3250.0 115 136 144 128 126 137 143 156 154 142
3290.0 160 141 134 137 125 128 119 125 125 110
3330.0 116 122 132 117 129 109 106 137 130 121
3370.0 168 173 181 216 223 234 182 190 139 147
3410.0 138 91 100 106 62 105 95 74 101 124
3450.0 92 110 109 106 113 126 145 119 137 131
3490.0 113 103 106 101 88 121 89 101 91 94
3530.0 93 74 72 77 90 94 73 84 97 68
3570.0 85 113 140 127 87 118 120 111 69 94
3610.0 75 87 73 99 84 98 94 102 101 89
3650.0 110 113 122 97 92 113 123 91 126 92
3690.0 67 127 88 88 88 89 101 105 102 106
3730.0 95 73 103 80 81 76 93 83 58 69
3770.0 65 58 60 92 61 80 94 85 71 61
3810.0 111 74 58 78 108 57 79 94 86 71
3850.0 97 92 69 62 184 183 104 93 153 72
3890.0 86 88 84 78 100 169 143 172 119 82
3930.0 104 61 108 88 114 126 86 115 97 133
##END=
