##TITLE=Ethyl 4-methylbenzoate
##JCAMP-DX=4.24
##DATA TYPE=INFRARED SPECTRUM
##ORIGIN=Sadtler Research Labs Under US-EPA Contract
##OWNER=NIST Standard Reference Data Program
##CAS REGISTRY NO=94-08-6
##MOLFORM=C 10 H 12 O 2
##XUNITS=1/CM
##YUNITS=ABSORBANCE
##XFACTOR=1.0
##YFACTOR=0.000060504
##DELTAX=4.0
##FIRSTX=450.0
##LASTX=3966.0
##FIRSTY=0.004961
##MAXX=3966
##MINX=450
##MAXY=0.60504
##MINY=0
##NPOINTS=880
##XYDATA=(X++(Y..Y))
450.0 82 98 105 114 130 135 147 174 172 158
490.0 151 119 91 90 64 56 65 54 57 65
530.0 72 60 30 33 56 39 57 32 40 58
570.0 39 49 74 58 0 59 67 64 111 125
610.0 131 107 81 65 61 50 61 65 65 55
650.0 54 58 50 47 40 94 77 82 132 136
690.0 157 159 137 108 99 65 64 47 56 55
730.0 91 119 214 372 584 799 1074 1007 842 642
770.0 430 265 170 137 118 112 100 105 98 99
810.0 95 104 109 127 152 203 255 297 326 306
850.0 272 225 187 157 123 120 110 120 103 94
890.0 76 60 50 44 47 43 44 34 43 44
930.0 43 36 43 43 52 60 69 70 75 79
970.0 78 85 85 83 85 84 84 101 110 143
1010.0 182 288 528 774 890 794 528 344 245 192
1050.0 175 156 149 158 169 193 239 327 464 701
1090.0 1057 1614 2589 4123 5401 5518 4342 2486 1652 1161
1130.0 773 564 425 340 286 266 274 298 334 416
1170.0 626 1316 2000 1991 1585 675 403 386 428 449
1210.0 431 345 298 319 415 576 797 996 1081 1022
1250.0 935 1026 1439 2455 4548 7632 10000 9934 6738 3434
1290.0 2085 1439 970 665 596 616 616 560 428 324
1330.0 251 202 183 166 164 167 186 230 333 571
1370.0 665 668 505 342 297 293 303 322 358 387
1410.0 406 392 371 326 292 262 243 219 240 239
1450.0 256 275 263 308 332 368 340 320 270 231
1490.0 188 181 164 192 170 196 196 161 122 114
1530.0 103 76 77 54 74 83 82 51 85 110
1570.0 119 163 166 190 178 154 162 199 264 396
1610.0 624 827 836 700 433 257 174 107 97 56
1650.0 62 12 68 70 86 83 108 105 119 114
1690.0 147 164 163 165 211 254 329 480 838 1411
1730.0 2332 3567 4734 4974 4751 3252 1939 1100 601 341
1770.0 196 120 110 91 100 115 111 123 123 128
1810.0 103 94 66 58 37 27 25 27 14 13
1850.0 20 19 18 18 29 23 35 43 54 42
1890.0 43 39 36 35 34 42 53 53 71 66
1930.0 59 58 41 35 36 34 33 34 43 43
1970.0 43 34 33 41 34 32 23 18 18 18
2010.0 18 18 19 18 17 17 15 19 19 17
2050.0 18 8 15 15 15 8 9 9 8 9
2090.0 1 7 18 18 18 22 33 33 42 42
2130.0 42 41 33 26 26 17 17 18 23 17
2170.0 17 17 17 9 9 8 9 9 9 2
2210.0 4 10 9 9 9 9 9 9 10 10
2250.0 17 10 10 9 20 20 19 19 21 28
2290.0 23 24 26 26 19 20 13 12 15 15
2330.0 23 22 24 26 25 23 18 25 25 42
2370.0 46 51 63 50 42 38 31 22 21 20
2410.0 22 11 20 13 13 13 13 4 9 14
2450.0 13 13 13 14 14 3 14 14 13 13
2490.0 9 6 6 5 5 5 5 5 5 5
2530.0 7 7 7 5 6 6 6 7 7 7
2570.0 6 15 14 25 25 24 33 28 20 23
2610.0 14 18 24 25 14 18 20 19 26 15
2650.0 22 18 11 17 7 9 9 18 18 18
2690.0 17 19 19 19 19 19 24 26 27 35
2730.0 35 28 43 44 43 41 30 35 37 33
2770.0 35 43 45 53 44 45 46 52 36 40
2810.0 44 44 53 63 62 62 71 71 79 79
2850.0 97 110 123 144 180 223 267 299 346 355
2890.0 348 330 314 324 341 358 388 409 440 483
2930.0 553 652 720 741 708 630 544 486 478 504
2970.0 539 593 715 897 1035 1031 925 770 675 605
3010.0 555 477 415 351 319 340 383 450 486 456
3050.0 381 301 243 200 183 178 182 173 156 138
3090.0 131 134 128 127 110 93 76 60 52 52
3130.0 52 49 45 35 36 30 30 27 21 20
3170.0 20 20 21 21 21 21 21 21 21 21
3210.0 21 21 21 12 22 23 15 22 18 23
3250.0 17 24 21 13 22 23 13 5 14 13
3290.0 6 15 25 14 21 25 8 17 15 17
3330.0 15 8 15 20 8 10 27 25 19 18
3370.0 8 25 1 26 18 18 19 2 20 12
3410.0 17 18 6 20 11 19 19 28 10 22
3450.0 29 37 28 29 28 31 29 14 22 15
3490.0 29 12 14 17 18 15 27 14 26 14
3530.0 28 23 15 23 22 22 15 34 14 20
3570.0 23 33 30 31 28 33 21 25 27 29
3610.0 22 24 9 23 27 19 33 32 35 19
3650.0 12 36 14 34 27 11 26 20 23 31
3690.0 20 30 29 25 21 19 19 21 24 11
3730.0 6 1 8 7 1 1 6 7 12 19
3770.0 11 8 3 0 19 9 4 1 1 1
3810.0 1 1 1 1 14 5 1 2 7 1
3850.0 1 5 24 4 1 1 1 1 1 1
3890.0 1 1 1 2 11 3 15 10 10 1
3930.0 1 1 1 1 1 1 1 9 3 1
##END=
