##TITLE=Vinyl 2-ethylhexanoate
##JCAMP-DX=4.24
##DATA TYPE=INFRARED SPECTRUM
##ORIGIN=Sadtler Research Labs Under US-EPA Contract
##OWNER=NIST Standard Reference Data Program
##CAS REGISTRY NO=94-04-2
##MOLFORM=C 10 H 18 O 2
##XUNITS=1/CM
##YUNITS=ABSORBANCE
##XFACTOR=1.0
##YFACTOR=0.000084412
##DELTAX=4.0
##FIRSTX=450.0
##LASTX=3966.0
##FIRSTY=0.001351
##MAXX=3966
##MINX=450
##MAXY=0.84412
##MINY=0
##NPOINTS=880
##XYDATA=(X++(Y..Y))
450.0 16 45 30 33 25 25 21 33 31 22
490.0 22 33 47 38 28 58 56 61 64 66
530.0 102 177 38 46 64 44 23 35 59 52
570.0 87 0 53 56 80 47 59 51 52 60
610.0 54 71 68 66 71 63 64 55 49 57
650.0 51 56 47 50 40 82 68 81 93 99
690.0 121 135 144 130 120 111 114 119 132 149
730.0 161 173 173 176 165 173 156 139 147 142
770.0 137 142 137 154 153 161 172 191 208 228
810.0 250 252 228 222 199 175 183 211 236 268
850.0 304 355 468 688 1021 1227 1186 912 587 411
890.0 329 287 258 231 212 204 204 215 246 274
930.0 321 375 481 644 810 874 823 696 593 589
970.0 625 700 744 752 695 606 509 419 350 308
1010.0 299 301 306 322 337 356 368 370 371 375
1050.0 406 461 530 618 701 786 864 946 1010 1063
1090.0 1076 1090 1140 1290 1508 1800 2101 2395 2694 3044
1130.0 3593 4465 5877 7744 9471 10000 9370 7931 6097 4489
1170.0 3376 2582 2060 1789 1705 1738 1816 1871 1898 1882
1210.0 1821 1748 1632 1477 1300 1129 1004 950 954 980
1250.0 978 951 916 867 825 764 699 641 620 638
1290.0 703 793 829 791 688 581 513 482 463 464
1330.0 463 470 476 486 508 529 542 576 616 703
1370.0 788 824 824 798 747 663 552 407 297 233
1410.0 204 189 183 171 178 183 215 233 308 384
1450.0 485 613 711 833 849 800 637 472 327 226
1490.0 157 142 109 116 89 77 90 81 70 82
1530.0 88 77 88 51 85 100 113 107 120 156
1570.0 135 138 111 117 111 111 111 122 129 147
1610.0 169 205 248 328 418 557 794 1234 1905 2544
1650.0 2746 2310 1520 789 448 297 224 177 152 109
1690.0 128 133 116 111 138 152 168 184 235 272
1730.0 316 367 498 647 868 1187 1865 3060 4586 6184
1770.0 6272 4471 2900 1569 942 674 479 349 250 194
1810.0 165 147 140 136 124 113 113 110 103 81
1850.0 84 76 71 70 70 59 65 65 71 75
1890.0 72 76 76 76 64 53 52 46 41 46
1930.0 46 47 45 46 46 45 53 50 46 46
1970.0 51 57 56 56 51 51 53 58 68 72
2010.0 77 85 85 90 84 78 72 61 60 56
2050.0 55 52 49 50 50 43 43 43 48 44
2090.0 43 43 41 37 37 36 36 38 37 36
2130.0 30 31 30 30 25 20 22 20 18 18
2170.0 18 19 19 19 24 19 19 19 19 21
2210.0 18 19 22 23 24 28 30 35 36 36
2250.0 35 35 41 43 46 53 52 59 62 65
2290.0 64 59 59 55 48 43 37 38 32 27
2330.0 20 11 17 16 10 15 22 28 25 7
2370.0 7 7 7 7 10 14 15 16 16 21
2410.0 21 21 21 15 14 18 14 17 14 16
2450.0 15 15 15 9 7 7 7 7 7 7
2490.0 10 8 7 14 14 18 14 14 14 13
2530.0 8 12 12 12 9 7 7 12 12 7
2570.0 12 13 13 18 22 22 25 22 18 18
2610.0 18 18 19 18 18 18 25 18 18 18
2650.0 19 19 23 24 24 24 24 30 31 36
2690.0 37 29 37 36 33 34 31 37 37 36
2730.0 43 48 54 60 66 66 65 62 57 55
2770.0 54 54 65 65 67 78 84 91 97 101
2810.0 108 118 123 128 141 148 170 188 218 250
2850.0 301 391 539 764 1042 1302 1450 1519 1588 1600
2890.0 1508 1310 1095 981 968 1050 1184 1359 1592 1880
2930.0 2240 2672 3124 3456 3536 3340 2921 2612 2703 3226
2970.0 3815 4017 3483 2518 1594 973 633 466 370 310
3010.0 262 223 203 187 182 169 163 151 154 159
3050.0 172 184 172 160 137 118 116 126 147 185
3090.0 243 299 298 258 193 138 121 128 168 218
3130.0 237 198 131 81 62 52 57 56 56 51
3170.0 57 51 51 52 45 45 46 46 39 39
3210.0 40 29 35 28 35 28 34 29 22 16
3250.0 16 23 17 23 23 18 23 17 18 18
3290.0 17 24 21 17 20 24 9 23 7 18
3330.0 11 18 18 18 20 14 18 17 13 19
3370.0 16 17 24 23 23 23 23 9 13 21
3410.0 24 19 23 27 28 24 18 19 18 19
3450.0 8 23 21 28 25 25 29 24 31 21
3490.0 30 31 27 44 48 65 71 72 62 50
3530.0 35 25 26 26 23 17 14 20 20 25
3570.0 13 20 16 21 18 20 22 31 20 21
3610.0 23 30 26 17 17 19 27 19 27 30
3650.0 18 26 22 32 30 23 25 25 29 27
3690.0 18 22 27 29 26 23 22 26 27 24
3730.0 26 15 17 14 7 17 23 18 22 32
3770.0 33 29 31 25 30 29 27 25 33 27
3810.0 15 16 25 15 14 17 24 25 37 33
3850.0 23 13 15 20 17 22 20 14 22 19
3890.0 30 26 28 24 25 21 23 18 25 24
3930.0 15 17 20 24 20 24 21 29 32 34
##END=
