##TITLE=Benzoic acid, 2-phenylethyl ester
##JCAMP-DX=4.24
##DATA TYPE=INFRARED SPECTRUM
##ORIGIN=Sadtler Research Labs Under US-EPA Contract
##OWNER=NIST Standard Reference Data Program
##CAS REGISTRY NO=94-47-3
##MOLFORM=C 15 H 14 O 2
##XUNITS=1/CM
##YUNITS=ABSORBANCE
##XFACTOR=1.0
##YFACTOR=0.000086417
##DELTAX=4.0
##FIRSTX=450.0
##LASTX=3966.0
##FIRSTY=0.005617
##MAXX=3966
##MINX=450
##MAXY=0.86417
##MINY=0
##NPOINTS=880
##XYDATA=(X++(Y..Y))
450.0 65 97 259 230 369 246 448 196 167 443
490.0 602 566 279 383 400 337 200 225 238 127
530.0 113 171 257 201 211 192 342 388 256 180
570.0 314 138 180 196 196 142 263 258 282 205
610.0 166 168 157 123 134 49 159 138 166 161
650.0 216 121 164 225 214 430 482 611 713 750
690.0 1007 1455 1728 2067 2293 2366 2090 1585 1128 784
730.0 655 521 588 829 838 560 434 292 245 157
770.0 188 149 114 110 83 43 18 79 125 57
810.0 109 83 31 90 110 133 108 115 158 120
850.0 1 52 55 56 78 82 72 56 90 67
890.0 42 8 38 41 70 62 107 48 26 96
930.0 62 63 40 60 127 73 50 176 136 220
970.0 237 285 292 193 203 235 241 207 204 161
1010.0 152 251 270 573 1046 1234 742 355 263 282
1050.0 248 302 424 649 907 975 821 679 743 982
1090.0 1482 2128 2616 3011 3698 4396 4092 3022 1924 1183
1130.0 789 565 407 351 299 282 270 243 261 303
1170.0 415 798 1115 1006 524 293 263 289 322 333
1210.0 305 319 344 410 507 670 953 1320 1615 1701
1250.0 1741 2104 3062 4901 7645 10000 9258 5804 3082 1837
1290.0 1344 1108 939 814 659 734 826 801 560 395
1330.0 306 275 276 252 238 219 194 201 178 180
1370.0 204 249 316 393 412 377 259 196 138 108
1410.0 107 109 112 123 123 169 193 259 308 438
1450.0 620 741 647 471 370 310 272 237 212 221
1490.0 238 341 441 415 281 150 120 94 71 74
1530.0 70 70 78 63 78 81 69 71 65 85
1570.0 95 111 138 183 209 214 242 291 367 391
1610.0 338 238 153 129 104 89 94 88 102 105
1650.0 88 78 77 81 75 65 77 82 100 116
1690.0 146 180 193 217 236 266 339 432 654 1037
1730.0 1708 2728 4041 4792 4390 3162 1801 1003 600 404
1770.0 316 245 232 208 196 208 190 189 176 139
1810.0 139 129 123 104 80 74 66 66 61 56
1850.0 64 58 70 68 63 70 67 68 80 72
1890.0 69 62 69 75 85 89 88 101 98 95
1930.0 93 92 99 105 101 103 113 116 104 87
1970.0 78 61 53 41 35 33 30 27 30 31
2010.0 33 30 30 32 28 33 34 33 31 30
2050.0 33 36 39 44 39 41 40 46 52 54
2090.0 55 54 49 48 47 44 36 34 35 30
2130.0 34 28 28 27 29 28 29 29 29 24
2170.0 27 24 27 23 20 29 30 28 26 30
2210.0 32 26 30 24 23 26 28 27 24 31
2250.0 31 30 29 28 24 27 22 27 24 18
2290.0 16 7 7 11 4 2 23 30 36 33
2330.0 32 29 44 42 33 26 31 33 56 44
2370.0 41 28 30 29 26 29 28 32 31 30
2410.0 30 28 31 28 28 26 32 26 28 22
2450.0 21 24 26 20 22 23 26 21 23 21
2490.0 28 23 26 21 21 23 28 22 22 27
2530.0 27 23 26 27 23 26 30 26 23 28
2570.0 32 32 27 37 37 32 36 36 28 32
2610.0 37 33 32 30 28 28 26 24 33 29
2650.0 28 29 28 28 29 27 21 24 26 23
2690.0 26 23 30 30 26 21 33 32 33 32
2730.0 30 36 35 35 38 38 35 40 43 44
2770.0 37 32 37 41 39 42 42 33 36 37
2810.0 35 33 33 36 44 52 61 60 73 80
2850.0 100 110 110 118 124 127 130 135 138 144
2890.0 146 166 179 210 234 246 266 291 327 361
2930.0 356 333 317 326 359 390 437 510 587 625
2970.0 589 507 397 337 301 272 245 213 189 187
3010.0 199 208 233 275 367 514 687 785 735 599
3050.0 495 438 421 487 634 827 1016 1004 811 565
3090.0 463 435 413 350 285 231 198 146 111 75
3130.0 55 46 35 35 31 34 37 34 36 38
3170.0 38 42 36 23 22 17 19 26 21 21
3210.0 20 22 12 23 22 24 21 18 11 15
3250.0 24 22 21 17 19 22 18 30 21 13
3290.0 22 15 21 18 13 22 21 15 26 27
3330.0 29 27 20 20 19 33 24 22 17 29
3370.0 34 27 27 27 22 16 22 28 27 16
3410.0 22 29 34 33 31 18 37 21 29 30
3450.0 37 42 44 41 48 44 43 24 21 17
3490.0 12 19 20 6 18 16 15 20 23 22
3530.0 17 27 21 22 14 22 12 19 32 30
3570.0 27 20 21 29 31 24 24 24 27 26
3610.0 28 21 24 31 15 17 19 21 2 18
3650.0 16 22 27 35 24 16 22 1 26 22
3690.0 18 10 21 21 29 22 36 40 48 16
3730.0 30 37 14 37 21 30 23 54 13 14
3770.0 19 26 36 23 29 36 6 19 6 37
3810.0 36 27 7 29 24 33 9 20 29 43
3850.0 8 60 37 17 28 33 20 22 19 24
3890.0 57 31 31 8 43 32 27 23 11 1
3930.0 24 47 57 30 24 46 66 36 51 0
##END=
