##TITLE=1-Butanol, 3-methyl-, benzoate
##JCAMP-DX=4.24
##DATA TYPE=INFRARED SPECTRUM
##ORIGIN=Sadtler Research Labs Under US-EPA Contract
##OWNER=NIST Standard Reference Data Program
##CAS REGISTRY NO=94-46-2
##MOLFORM=C 12 H 16 O 2
##XUNITS=1/CM
##YUNITS=ABSORBANCE
##XFACTOR=1.0
##YFACTOR=0.000056543
##DELTAX=4.0
##FIRSTX=450.0
##LASTX=3966.0
##FIRSTY=0.003845
##MAXX=3966
##MINX=450
##MAXY=0.56543
##MINY=0
##NPOINTS=880
##XYDATA=(X++(Y..Y))
450.0 68 91 166 194 197 156 135 55 105 8
490.0 145 75 177 102 128 142 148 140 120 153
530.0 174 82 103 156 111 145 254 9 265 106
570.0 191 163 178 255 260 168 169 86 133 167
610.0 72 169 190 231 321 183 257 226 200 212
650.0 154 140 131 231 254 334 401 558 446 611
690.0 629 775 1244 1603 2178 2465 2059 1437 936 606
730.0 397 333 278 306 222 280 163 266 242 215
770.0 234 231 177 183 144 183 184 179 206 216
810.0 156 249 190 251 210 237 228 213 192 190
850.0 175 210 201 183 213 147 182 169 136 189
890.0 139 180 177 161 188 217 200 248 242 239
930.0 284 225 331 287 407 421 416 432 421 408
970.0 391 322 293 247 230 230 257 233 265 211
1010.0 275 307 423 706 1036 1027 767 433 408 380
1050.0 379 457 586 796 1065 1114 997 709 738 922
1090.0 1433 2176 2649 3083 3824 4314 4107 3062 1922 1322
1130.0 957 844 757 704 702 643 626 626 665 848
1170.0 1088 1399 1578 1390 847 536 428 429 333 344
1210.0 372 409 445 497 580 788 1026 1402 1754 1815
1250.0 1783 1936 2641 4247 6707 9732 10000 7921 5133 3365
1290.0 2229 1481 1048 881 845 916 1096 992 707 516
1330.0 461 522 566 666 667 620 546 497 439 461
1370.0 481 499 551 547 636 644 604 508 372 303
1410.0 254 228 281 268 255 291 276 398 396 482
1450.0 724 797 925 712 718 661 705 560 475 401
1490.0 434 379 383 328 367 289 232 219 280 206
1530.0 190 205 225 282 225 169 227 280 271 206
1570.0 217 215 283 251 283 293 310 349 402 412
1610.0 389 274 295 186 206 178 193 259 193 246
1650.0 223 330 164 172 155 219 201 215 237 304
1690.0 267 275 367 445 350 376 436 638 801 1244
1730.0 2053 3449 4786 5312 4774 3350 2120 1464 1101 913
1770.0 931 764 461 375 317 280 278 250 210 211
1810.0 193 212 200 170 174 146 119 124 110 138
1850.0 109 94 101 101 95 134 93 111 97 100
1890.0 114 107 132 118 134 144 143 153 162 130
1930.0 119 109 101 118 105 115 115 123 132 114
1970.0 124 113 102 88 88 79 97 75 82 72
2010.0 85 86 86 75 85 75 87 76 81 78
2050.0 85 78 89 71 92 82 82 82 81 81
2090.0 81 81 81 81 76 77 69 77 74 60
2130.0 80 63 70 69 64 69 73 66 65 68
2170.0 66 69 54 76 52 60 67 52 67 60
2210.0 58 69 52 65 60 59 57 58 40 67
2250.0 45 75 54 55 61 57 56 67 45 55
2290.0 56 55 64 62 65 80 65 98 61 101
2330.0 99 71 80 99 70 79 78 80 116 77
2370.0 88 68 61 69 52 71 49 51 49 59
2410.0 51 57 49 47 67 37 55 35 54 51
2450.0 38 48 29 38 39 37 37 38 31 37
2490.0 31 27 41 18 44 19 36 27 37 28
2530.0 38 31 41 35 30 45 25 31 44 33
2570.0 49 25 53 30 54 40 46 40 58 38
2610.0 49 42 23 49 38 26 35 24 36 29
2650.0 36 26 23 27 39 10 38 19 19 37
2690.0 7 32 19 29 27 25 38 38 41 46
2730.0 47 48 59 48 53 58 33 63 34 59
2770.0 47 59 54 63 45 55 42 58 57 52
2810.0 67 65 64 87 70 94 85 120 139 186
2850.0 198 239 224 262 286 373 531 677 813 808
2890.0 714 687 626 664 738 852 964 1034 1000 1032
2930.0 1054 1137 1174 1166 1192 1167 1335 1687 2192 2746
2970.0 2966 2463 1694 1069 747 597 470 396 305 232
3010.0 216 160 174 136 131 145 188 196 269 264
3050.0 307 293 258 278 332 430 552 600 561 374
3090.0 277 266 272 235 229 146 163 98 95 80
3130.0 57 83 52 58 55 40 72 60 54 71
3170.0 70 60 94 45 74 56 46 57 28 60
3210.0 41 40 41 32 30 62 19 42 32 8
3250.0 44 26 38 31 19 62 36 46 28 35
3290.0 31 66 6 59 27 51 56 30 31 33
3330.0 33 51 31 46 29 52 37 37 14 66
3370.0 0 64 29 21 45 56 53 48 49 36
3410.0 43 49 59 42 43 63 25 78 26 64
3450.0 79 62 72 87 78 78 59 36 55 23
3490.0 58 27 18 39 32 58 42 24 63 46
3530.0 40 36 44 34 79 43 83 18 71 82
3570.0 95 115 164 214 243 239 200 147 92 61
3610.0 90 73 94 58 83 101 81 52 53 76
3650.0 143 71 79 57 67 118 116 114 87 79
3690.0 134 68 93 85 94 114 109 95 124 110
3730.0 118 150 126 144 161 144 141 107 107 92
3770.0 99 85 83 98 100 89 93 111 116 138
3810.0 106 139 147 161 138 124 142 156 137 130
3850.0 132 163 147 135 128 144 93 130 107 128
3890.0 111 104 102 118 99 93 79 106 105 88
3930.0 99 104 85 124 85 127 21 29 29 30
##END=
