##TITLE=1,3-Benzodioxole, 5-(2-propenyl)-
##JCAMP-DX=4.24
##DATA TYPE=INFRARED SPECTRUM
##ORIGIN=Sadtler Research Labs Under US-EPA Contract
##OWNER=NIST Standard Reference Data Program
##CAS REGISTRY NO=94-59-7
##MOLFORM=C 10 H 10 O 2
##XUNITS=1/CM
##YUNITS=ABSORBANCE
##XFACTOR=1.0
##YFACTOR=0.000087784
##DELTAX=4.0
##FIRSTX=450.0
##LASTX=3966.0
##FIRSTY=0.049773
##MAXX=3966
##MINX=450
##MAXY=0.87784
##MINY=0
##NPOINTS=880
##XYDATA=(X++(Y..Y))
450.0 567 338 15 210 300 46 313 131 260 66
490.0 263 158 175 156 200 191 108 241 123 168
530.0 105 207 168 193 270 261 303 244 300 197
570.0 256 253 337 363 451 506 424 431 354 327
610.0 235 243 197 184 180 171 193 174 206 204
650.0 257 281 343 359 344 322 270 219 181 192
690.0 142 159 151 164 153 196 254 279 310 240
730.0 209 161 167 159 166 176 228 296 372 496
770.0 581 662 664 640 631 641 776 1032 1381 1613
810.0 1641 1437 1140 838 583 422 375 389 418 492
850.0 567 658 695 645 547 452 374 342 364 395
890.0 476 582 729 869 1085 1447 1744 1903 1877 1668
930.0 1585 1712 1853 2019 2124 2115 1927 1575 1186 818
970.0 630 535 550 603 770 957 1005 961 771 611
1010.0 561 584 652 785 984 1283 1738 2340 3071 3689
1050.0 3977 3772 3218 2522 1905 1418 1085 898 827 863
1090.0 890 928 960 984 976 1000 1106 1206 1183 1030
1130.0 801 598 498 412 360 313 308 307 319 371
1170.0 455 642 996 1604 2196 2491 2439 2099 1769 1542
1210.0 1406 1284 1276 1387 1679 2213 3198 4946 7218 8939
1250.0 8835 7115 4469 2579 1648 1225 1001 928 906 859
1290.0 792 684 597 508 475 441 421 415 410 420
1330.0 443 493 565 654 781 1043 1227 1234 1072 719
1370.0 461 351 329 277 309 318 382 401 403 405
1410.0 400 433 527 636 764 1177 1806 2833 3750 4080
1450.0 3525 2468 1479 983 899 877 1213 1844 3317 6728
1490.0 8992 10000 7435 4823 3425 2732 2368 1455 973 677
1530.0 516 465 390 414 300 277 219 263 220 193
1570.0 202 203 234 217 223 233 254 276 313 374
1610.0 412 437 456 425 420 435 533 667 696 627
1650.0 540 368 208 173 151 155 162 126 159 181
1690.0 145 146 214 257 266 258 274 279 210 171
1730.0 176 201 155 153 182 205 195 202 207 195
1770.0 203 195 140 132 117 116 123 119 127 105
1810.0 119 132 144 175 225 275 297 294 287 258
1850.0 200 165 156 151 163 190 170 171 178 175
1890.0 172 151 126 102 93 83 77 69 75 56
1930.0 52 52 52 58 54 53 53 55 50 61
1970.0 62 60 67 70 74 84 89 79 77 75
2010.0 72 70 70 68 62 67 70 78 85 92
2050.0 96 95 91 86 85 69 65 58 57 57
2090.0 57 56 48 45 41 38 36 36 35 35
2130.0 35 37 35 34 38 32 33 35 35 35
2170.0 38 37 33 32 33 33 33 35 38 37
2210.0 38 37 38 38 37 34 30 31 28 25
2250.0 30 29 29 29 30 28 26 29 31 34
2290.0 32 31 39 36 35 30 27 17 13 21
2330.0 18 16 20 23 34 17 2 3 23 42
2370.0 49 49 51 39 34 25 22 17 12 12
2410.0 11 9 9 8 9 11 8 11 7 10
2450.0 7 5 6 3 2 4 5 4 3 9
2490.0 11 12 11 10 9 12 11 19 17 23
2530.0 29 31 41 42 48 47 46 43 46 42
2570.0 45 44 42 45 45 49 51 62 65 62
2610.0 57 49 38 29 23 18 19 21 18 19
2650.0 20 23 21 26 31 35 42 53 61 70
2690.0 74 73 70 66 68 69 72 68 70 72
2730.0 73 77 81 85 87 95 107 130 175 256
2770.0 407 540 557 487 324 202 167 152 155 162
2810.0 172 186 207 235 273 328 401 492 582 664
2850.0 723 786 879 1009 1177 1378 1595 1750 1795 1714
2890.0 1576 1465 1434 1486 1582 1699 1774 1798 1742 1649
2930.0 1533 1419 1304 1212 1139 1065 996 917 852 784
2970.0 744 722 727 777 817 832 796 729 672 691
3010.0 784 916 993 976 863 741 677 668 673 640
3050.0 585 523 502 501 515 548 593 646 711 834
3090.0 866 781 606 429 285 220 172 148 120 95
3130.0 74 61 54 40 36 29 29 24 22 20
3170.0 16 24 20 20 22 23 15 16 24 19
3210.0 18 15 15 13 15 12 10 12 14 16
3250.0 18 17 12 13 16 15 16 6 3 6
3290.0 12 12 7 5 12 9 9 10 7 8
3330.0 7 9 4 10 7 2 6 12 9 7
3370.0 10 11 9 12 8 5 9 15 10 5
3410.0 16 15 9 16 7 12 11 5 15 9
3450.0 11 9 13 11 15 12 13 13 19 12
3490.0 5 16 13 15 9 10 15 15 13 9
3530.0 20 10 13 9 6 15 13 14 12 8
3570.0 13 20 33 21 12 26 32 21 28 14
3610.0 14 20 27 30 17 23 31 16 21 10
3650.0 32 31 20 29 4 15 22 38 24 5
3690.0 16 28 21 15 19 6 17 28 6 20
3730.0 14 19 19 9 29 11 20 26 18 21
3770.0 8 22 17 27 19 18 4 4 14 23
3810.0 11 17 18 33 27 24 14 29 16 22
3850.0 3 22 42 19 25 34 30 20 27 37
3890.0 26 28 0 27 29 35 29 30 33 28
3930.0 38 34 46 25 29 29 40 39 37 42
##END=
