##TITLE=Cyclohexanone, 2-propyl-
##JCAMP-DX=4.24
##DATA TYPE=INFRARED SPECTRUM
##ORIGIN=Sadtler Research Labs Under US-EPA Contract
##OWNER=NIST Standard Reference Data Program
##CAS REGISTRY NO=94-65-5
##MOLFORM=C 9 H 16 O
##XUNITS=1/CM
##YUNITS=ABSORBANCE
##XFACTOR=1.0
##YFACTOR=0.000083841
##DELTAX=4.0
##FIRSTX=450.0
##LASTX=3966.0
##FIRSTY=0.011319
##MAXX=3966
##MINX=450
##MAXY=0.83841
##MINY=0
##NPOINTS=880
##XYDATA=(X++(Y..Y))
450.0 135 100 145 78 48 52 67 41 48 139
490.0 30 127 103 216 193 235 280 259 144 176
530.0 174 138 57 34 123 74 107 129 181 149
570.0 182 124 135 129 96 125 118 90 95 86
610.0 85 57 96 79 184 76 3 53 69 75
650.0 75 95 112 96 82 112 87 92 77 85
690.0 52 88 98 137 164 178 197 187 182 143
730.0 137 114 118 115 114 112 106 101 86 90
770.0 72 75 69 80 68 67 118 129 161 181
810.0 228 247 251 245 210 176 166 158 147 155
850.0 171 165 166 172 169 170 173 180 199 200
890.0 195 171 174 149 153 143 157 174 168 163
930.0 138 130 127 141 160 162 153 142 131 129
970.0 130 129 140 140 155 144 181 235 287 329
1010.0 368 382 369 364 332 325 327 343 360 384
1050.0 419 470 534 589 622 614 560 521 513 505
1090.0 514 511 498 521 606 765 1006 1230 1385 1419
1130.0 1309 1157 1028 912 814 714 624 544 492 461
1170.0 444 442 443 438 456 484 537 609 646 638
1210.0 586 521 483 504 543 580 589 564 528 504
1250.0 468 450 425 399 363 340 306 298 302 308
1290.0 326 339 373 428 506 587 634 627 572 498
1330.0 468 499 536 591 610 608 609 610 611 615
1370.0 588 580 572 568 559 517 429 369 311 301
1410.0 288 320 352 439 502 610 684 797 875 1059
1450.0 1240 1395 1423 1303 1133 970 776 588 408 277
1490.0 197 163 132 114 123 130 100 129 114 110
1530.0 81 85 72 95 74 74 66 85 91 60
1570.0 68 71 74 69 63 62 63 70 67 75
1610.0 76 96 89 101 93 102 101 119 109 122
1650.0 127 170 148 154 183 189 233 257 315 392
1690.0 435 527 655 862 1196 1837 2829 4245 5714 6716
1730.0 7002 6449 5037 3433 2139 1408 1011 840 774 770
1770.0 796 833 825 783 709 621 561 501 438 376
1810.0 316 260 208 177 145 125 105 95 90 90
1850.0 81 74 74 70 70 69 73 67 68 62
1890.0 67 64 62 64 60 62 54 64 64 55
1930.0 59 57 56 56 62 59 59 65 54 60
1970.0 63 62 57 59 59 57 51 49 48 50
2010.0 46 48 48 49 49 37 39 32 27 21
2050.0 24 26 17 23 24 30 41 47 58 61
2090.0 68 61 64 62 62 64 66 64 66 68
2130.0 69 73 64 66 66 71 71 71 75 79
2170.0 78 78 76 73 79 78 81 77 77 80
2210.0 81 81 73 77 74 74 74 74 73 72
2250.0 71 71 75 67 70 70 69 63 59 49
2290.0 47 33 28 21 11 2 13 13 24 36
2330.0 20 34 47 34 4 51 0 21 4 11
2370.0 1 19 29 47 57 71 81 86 91 85
2410.0 84 82 79 75 74 77 72 70 66 69
2450.0 66 70 72 67 67 70 63 69 72 68
2490.0 70 68 67 71 72 68 69 70 71 76
2530.0 73 74 72 79 83 84 82 81 80 76
2570.0 74 71 71 77 85 79 92 96 96 97
2610.0 103 115 112 120 126 128 131 121 132 128
2650.0 140 153 165 180 192 186 170 177 155 145
2690.0 136 115 108 108 112 110 112 115 113 110
2730.0 120 120 127 133 145 135 129 129 129 133
2770.0 149 148 157 171 180 190 205 218 230 237
2810.0 255 263 272 294 315 358 422 506 634 831
2850.0 1093 1463 1984 2589 3239 3818 4019 3960 3690 3186
2890.0 2698 2294 2055 2036 2180 2407 2696 3075 3670 4563
2930.0 5834 7350 8865 10000 9974 8787 7445 6259 5600 5633
2970.0 5662 5140 4136 2860 1780 1143 809 617 508 434
3010.0 390 352 318 300 288 269 254 242 222 206
3050.0 186 175 163 144 144 136 135 115 92 104
3090.0 99 106 97 90 87 84 73 75 80 81
3130.0 73 60 66 70 70 74 75 81 72 80
3170.0 66 64 73 62 59 64 55 56 59 52
3210.0 61 53 66 59 72 65 55 67 59 56
3250.0 43 57 41 33 20 43 62 34 30 19
3290.0 27 23 19 21 44 44 58 33 60 59
3330.0 43 38 41 45 57 37 54 43 42 63
3370.0 64 38 54 58 67 66 49 52 53 56
3410.0 63 78 103 104 112 117 130 149 135 127
3450.0 115 81 68 61 51 44 48 38 30 39
3490.0 32 37 34 42 26 26 32 33 22 39
3530.0 36 21 23 18 15 33 49 58 74 79
3570.0 145 198 226 200 150 112 75 33 38 53
3610.0 47 29 18 33 19 49 35 13 20 34
3650.0 16 5 17 44 12 48 16 28 8 33
3690.0 18 1 24 13 16 23 21 26 9 13
3730.0 24 41 30 6 64 18 28 7 24 48
3770.0 16 21 33 32 24 13 42 16 23 50
3810.0 27 40 14 42 38 3 12 27 33 10
3850.0 13 39 12 5 24 26 46 14 24 53
3890.0 66 24 51 29 42 40 14 26 52 35
3930.0 55 58 53 13 21 13 90 63 8 13
##END=
