##TITLE=N-Methyl-2-chlorobenzylamine
##JCAMP-DX=4.24
##DATA TYPE=INFRARED SPECTRUM
##ORIGIN=Sadtler Research Labs Under US-EPA Contract
##OWNER=NIST Standard Reference Data Program
##CAS REGISTRY NO=94-64-4
##MOLFORM=C 8 H 10 Cl N
##XUNITS=1/CM
##YUNITS=ABSORBANCE
##XFACTOR=1.0
##YFACTOR=0.000102426
##DELTAX=4.0
##FIRSTX=450.0
##LASTX=3966.0
##FIRSTY=0.084502
##MAXX=3966
##MINX=450
##MAXY=1.02426
##MINY=0
##NPOINTS=880
##XYDATA=(X++(Y..Y))
450.0 825 631 543 555 546 469 297 319 157 114
490.0 220 179 163 83 0 113 148 265 159 113
530.0 78 70 140 100 176 216 199 244 280 352
570.0 404 580 601 535 543 505 530 536 624 595
610.0 592 572 575 599 661 675 745 700 720 753
650.0 898 1029 1210 1502 1688 1963 2072 2166 2213 2300
690.0 2164 2065 2105 2164 2206 2171 2162 2077 2045 2177
730.0 2604 3640 5253 6803 9353 10000 7998 5701 3815 2267
770.0 1366 942 784 647 601 595 604 631 726 758
810.0 874 974 1036 1035 1022 957 789 721 608 548
850.0 532 514 557 548 558 484 434 359 289 271
890.0 283 284 351 343 367 414 403 410 421 466
930.0 462 579 715 798 838 925 955 928 865 777
970.0 696 590 584 541 525 574 559 596 617 644
1010.0 820 958 1185 1575 2154 2719 3347 3828 4128 4574
1050.0 4539 4292 3786 2811 1809 1158 803 637 659 692
1090.0 855 1105 1508 1965 2389 2734 2919 2961 2964 2878
1130.0 2761 2472 2197 1919 1659 1459 1364 1274 1229 1146
1170.0 1025 968 927 844 846 885 871 950 912 891
1210.0 800 716 656 613 577 624 646 691 748 855
1250.0 959 1057 1113 1112 1093 1051 955 896 747 609
1290.0 529 523 538 541 566 579 541 525 549 571
1330.0 650 770 949 1150 1359 1580 1750 1837 1753 1536
1370.0 1256 1025 921 840 818 859 910 986 970 944
1410.0 958 996 1127 1347 1485 2079 2645 3581 4482 4663
1450.0 4824 4616 4206 4018 4083 4254 4315 4052 3412 2777
1490.0 2027 1591 1212 987 864 725 596 575 550 532
1530.0 469 490 502 565 554 545 615 705 886 950
1570.0 1211 1305 1248 1287 1145 1103 1124 992 974 822
1610.0 669 576 548 513 471 470 494 597 630 702
1650.0 790 709 611 493 466 491 556 571 594 568
1690.0 521 488 549 643 734 852 868 866 705 513
1730.0 382 295 246 198 183 177 146 149 155 167
1770.0 159 176 150 164 189 222 252 277 259 239
1810.0 210 210 205 187 238 223 206 200 172 192
1850.0 143 133 126 115 162 147 167 170 175 162
1890.0 146 150 163 193 263 281 293 276 241 183
1930.0 168 174 203 237 246 211 180 136 98 84
1970.0 72 65 42 54 42 49 56 42 34 44
2010.0 48 46 51 52 49 55 44 40 47 45
2050.0 52 55 49 52 54 55 46 51 35 42
2090.0 46 36 39 36 37 34 32 32 29 25
2130.0 28 27 20 17 15 22 23 21 22 24
2170.0 21 26 15 15 26 21 22 25 28 26
2210.0 26 19 23 16 24 22 16 19 20 28
2250.0 27 28 32 25 29 29 33 32 37 43
2290.0 39 43 41 41 60 68 74 83 82 84
2330.0 73 54 64 33 80 55 74 52 82 58
2370.0 50 33 39 40 43 35 36 38 40 44
2410.0 41 41 39 40 42 40 40 38 31 22
2450.0 21 19 16 12 7 3 0 2 4 8
2490.0 8 10 22 25 26 34 40 51 54 58
2530.0 71 71 80 84 96 107 107 116 126 127
2570.0 127 126 131 129 133 137 138 144 148 153
2610.0 152 159 162 170 180 186 189 189 199 204
2650.0 208 206 213 226 232 239 257 273 283 299
2690.0 322 342 353 366 381 393 405 423 436 452
2730.0 476 489 500 525 558 618 697 815 997 1220
2770.0 1497 1803 2093 2333 2579 2853 3126 3412 3531 3430
2810.0 3146 2781 2529 2440 2421 2424 2404 2391 2441 2605
2850.0 2823 3049 3184 3174 3026 2834 2668 2585 2587 2614
2890.0 2671 2731 2781 2793 2752 2693 2641 2655 2698 2766
2930.0 2862 2944 3087 3306 3603 3827 3829 3573 3218 2913
2970.0 2803 2929 3159 3107 2678 2085 1483 1035 847 778
3010.0 791 852 910 968 991 956 878 782 711 688
3050.0 731 851 1095 1509 2059 2621 2924 2832 2469 1922
3090.0 1327 908 667 502 372 289 238 209 195 183
3130.0 186 198 218 217 221 213 193 159 135 117
3170.0 110 102 93 93 92 84 82 79 81 72
3210.0 77 71 69 62 66 65 60 62 63 64
3250.0 70 69 64 67 71 67 64 62 62 62
3290.0 58 65 60 50 67 61 61 59 55 59
3330.0 57 49 63 61 61 68 71 70 76 88
3370.0 88 88 107 111 109 120 118 107 90 75
3410.0 77 69 79 70 69 52 71 62 66 55
3450.0 50 57 37 49 54 57 52 57 57 60
3490.0 51 51 43 44 46 49 54 40 43 49
3530.0 51 42 50 45 46 51 57 30 58 72
3570.0 72 46 61 40 80 52 75 23 57 37
3610.0 71 79 62 99 88 164 218 258 310 297
3650.0 237 192 38 51 26 33 55 46 49 26
3690.0 64 28 45 40 37 33 65 29 44 33
3730.0 49 65 48 77 28 102 37 75 27 36
3770.0 44 33 38 60 35 29 13 62 59 74
3810.0 9 61 19 95 26 49 68 55 55 57
3850.0 40 69 47 33 55 83 65 75 56 84
3890.0 78 72 77 85 99 46 61 47 60 81
3930.0 58 66 34 64 49 13 44 64 65 57
##END=
