##TITLE=Benzenamine, N-ethyl-2-methyl-
##JCAMP-DX=4.24
##DATA TYPE=INFRARED SPECTRUM
##ORIGIN=Sadtler Research Labs Under US-EPA Contract
##OWNER=NIST Standard Reference Data Program
##CAS REGISTRY NO=94-68-8
##MOLFORM=C 9 H 13 N
##XUNITS=1/CM
##YUNITS=ABSORBANCE
##XFACTOR=1.0
##YFACTOR=0.000091147
##DELTAX=4.0
##FIRSTX=450.0
##LASTX=3966.0
##FIRSTY=0.042657
##MAXX=3966
##MINX=450
##MAXY=0.91147
##MINY=0
##NPOINTS=880
##XYDATA=(X++(Y..Y))
450.0 468 520 468 415 383 383 401 387 437 480
490.0 511 526 495 524 508 500 515 479 437 407
530.0 351 403 432 460 401 467 468 481 496 513
570.0 486 503 497 500 463 500 413 371 346 321
610.0 308 330 357 402 420 468 424 425 431 434
650.0 441 415 427 428 427 398 426 412 421 454
690.0 459 527 663 869 1096 1392 1929 1836 1888 2338
730.0 3088 4111 5049 6437 6299 4223 3223 2146 1197 636
770.0 379 247 218 196 210 213 255 284 314 290
810.0 281 237 194 199 151 183 187 189 160 113
850.0 91 61 39 36 37 22 6 10 10 10
890.0 11 2 13 36 67 98 122 171 188 152
930.0 140 120 86 52 29 11 6 20 46 84
970.0 156 245 359 433 461 444 354 238 152 112
1010.0 99 97 119 144 188 258 369 551 870 1243
1050.0 1457 1546 1449 1084 692 420 274 244 263 322
1090.0 392 464 543 606 673 677 648 557 445 418
1130.0 423 538 732 1052 1514 2003 2503 2883 2709 2296
1170.0 1829 1164 738 589 562 559 556 552 516 481
1210.0 448 443 455 485 529 628 804 1070 1520 2290
1250.0 3496 4682 5304 5483 5111 4081 3308 2973 2748 2563
1290.0 2436 2557 2943 3557 4290 4838 4931 4450 3548 2518
1330.0 1654 1087 751 643 656 694 749 785 805 877
1370.0 1043 1338 1650 1846 1854 1673 1262 924 747 657
1410.0 605 655 667 832 1033 1360 1807 2525 3312 3912
1450.0 4153 4084 3594 3167 3064 3269 3572 3882 4085 4119
1490.0 4223 4557 5248 6516 8256 9770 10000 8885 6860 4438
1530.0 2441 1468 1007 710 637 632 592 509 499 635
1570.0 834 1225 1851 2620 3428 3970 4353 4734 5325 5941
1610.0 5920 5261 3964 2368 1141 722 525 400 374 342
1650.0 258 231 265 293 265 246 185 200 138 71
1690.0 108 121 36 20 44 76 59 6 52 95
1730.0 81 46 92 125 131 146 169 181 164 157
1770.0 100 62 89 83 102 105 90 99 76 88
1810.0 67 54 70 69 77 91 119 136 116 80
1850.0 83 91 95 135 176 210 257 264 244 184
1890.0 125 93 95 117 157 201 207 200 169 120
1930.0 83 63 52 42 47 51 57 52 52 39
1970.0 43 46 43 42 38 39 32 40 35 29
2010.0 20 16 1 10 8 13 10 7 8 9
2050.0 12 18 21 18 16 21 21 15 21 17
2090.0 13 22 22 30 28 23 22 21 18 22
2130.0 27 28 27 28 30 28 32 19 20 20
2170.0 18 8 13 18 18 23 19 14 25 20
2210.0 18 25 22 19 16 19 14 15 20 21
2250.0 27 32 33 27 28 26 23 28 36 38
2290.0 42 46 50 53 58 71 70 79 95 78
2330.0 82 57 49 63 58 76 87 70 21 0
2370.0 1 1 1 1 4 15 13 19 34 36
2410.0 41 52 48 46 47 48 41 42 36 42
2450.0 32 32 20 27 15 21 20 15 11 12
2490.0 5 2 1 1 1 6 7 13 18 23
2530.0 41 44 47 62 83 86 105 126 133 144
2570.0 155 155 144 131 114 106 94 94 102 108
2610.0 114 114 104 92 82 69 60 53 51 51
2650.0 53 49 56 60 66 72 83 85 107 117
2690.0 137 153 160 170 163 161 157 154 177 188
2730.0 233 266 305 306 314 305 277 245 243 235
2770.0 232 239 250 272 295 312 357 392 446 494
2810.0 541 607 659 720 781 851 933 1018 1143 1313
2850.0 1553 1870 2241 2646 3002 3334 3668 3952 4165 4256
2890.0 4200 3975 3665 3373 3193 3079 3071 3120 3220 3348
2930.0 3512 3670 3737 3692 3532 3336 3175 3210 3474 4032
2970.0 4880 5940 6483 6241 5459 4351 2962 1946 1430 1250
3010.0 1314 1570 1932 2248 2383 2367 2224 2020 1921 1922
3050.0 1997 2090 2174 2259 2369 2461 2481 2422 2240 2006
3090.0 1701 1360 1070 845 665 551 461 413 368 346
3130.0 323 282 230 187 150 133 126 114 115 109
3170.0 102 84 86 72 80 73 77 73 71 72
3210.0 65 68 56 50 50 50 38 15 27 29
3250.0 24 28 22 16 19 10 21 26 16 14
3290.0 21 16 17 8 12 18 9 12 7 17
3330.0 18 13 17 22 20 22 22 23 17 13
3370.0 28 30 24 30 25 42 29 31 46 61
3410.0 70 72 113 155 229 328 433 523 562 593
3450.0 574 526 467 416 359 302 239 184 155 118
3490.0 100 90 77 83 70 44 63 45 34 28
3530.0 24 36 25 30 26 16 30 34 36 28
3570.0 33 29 44 32 44 43 34 33 44 23
3610.0 24 40 51 23 37 39 27 30 40 51
3650.0 46 14 20 41 37 38 40 48 36 26
3690.0 27 29 42 42 59 43 37 49 32 52
3730.0 43 28 25 25 20 17 1 11 13 12
3770.0 19 22 30 31 40 47 48 36 35 19
3810.0 12 19 12 13 25 38 47 56 34 50
3850.0 40 37 52 56 58 52 57 65 61 56
3890.0 62 49 47 35 35 45 52 52 48 42
3930.0 37 38 49 60 51 42 43 34 36 42
##END=
