##TITLE=Benzenamine, 2-ethoxy-
##JCAMP-DX=4.24
##DATA TYPE=INFRARED SPECTRUM
##ORIGIN=Sadtler Research Labs Under US-EPA Contract
##OWNER=NIST Standard Reference Data Program
##CAS REGISTRY NO=94-70-2
##MOLFORM=C 8 H 11 N O
##XUNITS=1/CM
##YUNITS=ABSORBANCE
##XFACTOR=1.0
##YFACTOR=0.000057764
##DELTAX=4.0
##FIRSTX=450.0
##LASTX=3966.0
##FIRSTY=0.023683
##MAXX=3966
##MINX=450
##MAXY=0.57764
##MINY=0
##NPOINTS=880
##XYDATA=(X++(Y..Y))
450.0 410 477 490 572 610 590 560 558 572 621
490.0 564 481 444 350 373 415 470 551 610 522
530.0 519 476 456 613 655 653 588 564 502 547
570.0 677 690 697 627 608 615 636 673 688 647
610.0 636 564 531 567 711 727 751 837 779 817
650.0 901 906 886 872 662 628 645 656 705 707
690.0 688 608 654 653 797 903 1096 1644 2368 3143
730.0 4184 5454 4672 3664 3147 2272 1640 1252 1055 982
770.0 902 809 735 641 565 484 396 298 287 218
810.0 307 288 282 243 269 218 190 182 177 213
850.0 203 162 100 94 106 93 148 138 170 173
890.0 230 408 548 658 746 782 787 742 740 676
930.0 645 523 380 307 252 241 213 219 160 171
970.0 164 172 213 212 204 198 207 234 282 341
1010.0 424 498 591 794 1067 1445 1987 2607 3120 3356
1050.0 3186 2707 2083 1523 1202 1097 1055 1018 923 891
1090.0 1009 1146 1235 1193 1201 1139 1115 1043 1029 1050
1130.0 1115 1327 1580 1708 1630 1443 1061 803 635 597
1170.0 582 639 694 775 939 1328 1932 2822 4211 5971
1210.0 7613 9000 10000 9390 8069 5974 3559 2133 1514 1278
1250.0 1285 1547 2005 2913 3885 4719 4890 4693 3758 2723
1290.0 1887 1434 1132 898 729 678 631 667 770 910
1330.0 991 977 813 673 491 334 296 284 279 297
1370.0 295 341 496 693 937 1174 1279 1226 1074 806
1410.0 569 385 235 176 177 187 220 267 379 485
1450.0 661 867 964 1042 1038 1034 1024 1297 1597 2016
1490.0 2699 3899 5344 6659 7325 7418 6285 4529 3066 1954
1530.0 1146 734 537 429 461 466 479 438 538 636
1570.0 662 748 837 993 1198 1510 1817 2055 2327 2676
1610.0 3191 3790 4064 4118 3809 3159 2309 1497 990 649
1650.0 476 262 325 265 220 143 130 117 115 67
1690.0 83 69 15 0 51 73 63 34 99 105
1730.0 119 64 105 109 93 50 68 61 58 69
1770.0 42 22 50 60 57 61 44 59 58 58
1810.0 50 70 71 66 60 38 55 69 73 94
1850.0 133 136 137 111 111 104 115 107 111 107
1890.0 115 149 172 188 173 147 112 77 79 79
1930.0 95 92 88 86 85 103 120 116 111 112
1970.0 95 104 114 115 112 115 98 100 101 98
2010.0 86 86 76 70 79 79 97 106 105 106
2050.0 109 100 101 102 94 87 77 71 70 81
2090.0 73 88 83 73 71 72 75 93 85 80
2130.0 78 80 72 81 84 81 79 75 75 85
2170.0 92 89 87 78 72 71 81 81 90 84
2210.0 81 71 71 80 93 88 90 81 74 82
2250.0 93 92 101 96 90 96 97 103 118 116
2290.0 101 93 94 86 94 95 93 88 78 75
2330.0 88 114 109 133 125 73 75 114 164 195
2370.0 165 139 143 117 112 109 102 111 110 102
2410.0 111 129 132 146 147 141 147 142 156 149
2450.0 148 131 123 123 122 132 132 135 130 131
2490.0 126 134 140 131 142 133 133 143 144 151
2530.0 159 149 140 140 142 147 151 135 129 128
2570.0 111 109 130 129 129 129 120 119 150 163
2610.0 173 181 164 164 165 157 173 169 156 144
2650.0 146 140 140 158 149 150 133 134 134 135
2690.0 135 130 125 120 127 132 151 161 160 171
2730.0 171 171 188 190 189 192 192 176 173 198
2770.0 196 189 190 182 173 181 184 191 192 185
2810.0 192 202 204 233 252 244 263 279 281 317
2850.0 354 389 438 482 539 645 781 954 1131 1229
2890.0 1277 1287 1286 1297 1337 1367 1384 1422 1356 1263
2930.0 1270 1346 1432 1503 1496 1424 1297 1166 1090 1119
2970.0 1235 1489 1890 2307 2512 2676 2488 1825 1366 985
3010.0 769 692 685 762 915 1122 1327 1431 1471 1441
3050.0 1293 1164 1173 1240 1319 1387 1381 1299 1175 1055
3090.0 926 797 650 518 443 354 318 291 259 232
3130.0 219 185 164 152 153 160 165 148 141 140
3170.0 133 150 162 161 161 153 151 151 157 159
3210.0 153 135 125 125 129 127 133 118 104 93
3250.0 91 88 112 108 112 94 86 77 95 105
3290.0 116 112 90 84 96 101 106 115 106 89
3330.0 89 98 111 125 108 108 95 92 110 122
3370.0 132 143 159 152 206 272 366 521 665 756
3410.0 805 785 666 535 420 289 224 180 161 159
3450.0 171 164 182 184 190 238 290 373 479 592
3490.0 737 898 994 1030 997 861 695 522 398 303
3530.0 240 205 178 152 124 126 142 134 129 115
3570.0 114 113 116 107 122 126 102 94 93 93
3610.0 93 114 98 105 97 74 114 111 107 98
3650.0 70 88 97 98 95 97 84 84 90 74
3690.0 76 98 98 91 99 64 75 98 93 96
3730.0 86 50 59 60 51 60 81 76 75 76
3770.0 67 93 98 92 87 83 77 85 74 79
3810.0 86 70 52 53 64 86 89 79 79 80
3850.0 66 58 105 105 99 89 82 90 101 100
3890.0 114 118 107 102 110 115 128 125 118 110
3930.0 110 110 129 127 125 121 45 51 51 51
##END=
