##TITLE=Acetic acid, (4-chloro-2-methylphenoxy)-
##JCAMP-DX=4.24
##DATA TYPE=INFRARED SPECTRUM
##ORIGIN=Sadtler Research Labs Under US-EPA Contract
##OWNER=NIST Standard Reference Data Program
##CAS REGISTRY NO=94-74-6
##MOLFORM=C 9 H 9 Cl O 3
##XUNITS=1/CM
##YUNITS=ABSORBANCE
##XFACTOR=1.0
##YFACTOR=0.000062119
##DELTAX=4.0
##FIRSTX=450.0
##LASTX=3966.0
##FIRSTY=0.024599
##MAXX=3966
##MINX=450
##MAXY=0.62119
##MINY=0
##NPOINTS=880
##XYDATA=(X++(Y..Y))
450.0 396 206 303 118 121 168 202 235 319 335
490.0 362 417 480 511 514 510 482 388 336 359
530.0 358 340 402 458 467 576 706 868 1029 1203
570.0 1352 1399 1381 1311 1253 1171 1205 1272 1413 1520
610.0 1573 1599 1497 1330 1169 1076 1049 1144 1436 1751
650.0 1945 1840 1696 1553 1517 1432 1252 1056 806 607
690.0 455 407 292 248 210 190 141 116 70 35
730.0 36 18 62 116 230 386 510 537 494 443
770.0 445 486 586 749 979 1182 1373 1605 1728 1583
810.0 1285 939 653 452 366 292 258 264 285 336
850.0 399 469 547 722 1038 1394 1748 2021 2073 1841
890.0 1251 633 322 209 143 113 69 50 45 38
930.0 30 28 12 11 14 20 39 54 76 100
970.0 132 175 221 288 379 466 566 610 618 615
1010.0 612 637 705 814 957 1167 1422 1711 2041 2373
1050.0 2752 3112 3484 3797 3978 3907 3570 3051 2515 2151
1090.0 2051 2150 2380 2759 3449 4660 6395 8083 8943 8701
1130.0 7742 6729 5759 4999 4503 4194 4023 3901 3887 4018
1170.0 4401 5189 6454 7943 8567 7465 5315 3398 2435 2225
1210.0 2342 2649 3105 3760 4549 5189 5461 5371 5130 4769
1250.0 4272 3687 3205 2841 2582 2385 2292 2358 2542 2846
1290.0 3037 2938 2554 2113 1780 1616 1580 1623 1713 1863
1330.0 2055 2198 2250 2167 2021 1907 1829 1782 1739 1674
1370.0 1569 1513 1426 1381 1350 1429 1608 1875 2000 1902
1410.0 1624 1331 1235 1187 1264 1384 1564 1737 1874 2004
1450.0 2066 2014 1927 1892 2076 2622 3543 4996 6864 9199
1490.0 10000 9023 6553 4207 2820 2055 1610 1301 1165 989
1530.0 935 804 745 644 575 504 498 520 511 513
1570.0 575 629 716 777 817 876 926 934 865 771
1610.0 668 592 566 519 533 497 524 487 439 414
1650.0 399 388 371 344 364 403 411 415 462 493
1690.0 503 528 599 628 650 651 703 763 779 828
1730.0 946 1102 1228 1397 1559 1739 1910 2109 2356 2705
1770.0 3305 4319 5588 6485 6586 5895 5410 5733 6613 7307
1810.0 7304 6474 5141 3740 2636 1934 1498 1208 996 822
1850.0 640 496 383 306 245 211 162 132 112 85
1890.0 77 60 49 39 32 33 24 32 35 16
1930.0 16 15 23 20 20 9 15 12 15 22
1970.0 28 29 33 38 38 39 33 22 15 20
2010.0 23 23 32 30 30 29 27 27 22 16
2050.0 11 13 10 12 11 10 4 3 2 2
2090.0 3 0 2 0 2 4 12 10 5 11
2130.0 13 11 7 6 5 6 11 14 12 15
2170.0 15 17 20 15 19 18 13 11 16 15
2210.0 11 9 16 16 16 23 31 32 37 44
2250.0 40 40 43 42 42 44 44 53 49 54
2290.0 62 69 70 79 81 87 83 78 96 82
2330.0 71 87 82 65 149 84 150 99 125 101
2370.0 118 98 116 104 73 57 49 46 47 49
2410.0 47 49 50 51 48 52 54 63 64 67
2450.0 76 79 88 94 91 97 101 100 105 104
2490.0 104 101 93 94 91 98 96 98 98 100
2530.0 97 98 96 94 93 86 84 80 80 83
2570.0 80 75 76 77 73 76 67 69 68 68
2610.0 68 63 66 65 66 64 66 63 62 58
2650.0 63 69 69 73 76 80 80 83 86 87
2690.0 87 90 98 94 101 103 98 101 100 108
2730.0 109 107 117 129 136 143 138 134 133 135
2770.0 135 142 140 146 148 152 149 154 154 159
2810.0 167 171 176 190 210 223 240 270 295 328
2850.0 359 403 454 513 570 616 635 625 606 581
2890.0 579 585 621 653 711 788 886 1015 1164 1325
2930.0 1496 1643 1727 1724 1613 1442 1261 1125 1064 1035
2970.0 1004 949 883 814 776 731 677 607 530 481
3010.0 445 428 412 418 436 472 500 536 542 532
3050.0 505 480 464 467 481 480 478 461 447 429
3090.0 422 404 390 388 370 344 312 281 252 235
3130.0 217 210 198 196 192 190 181 180 185 174
3170.0 179 179 175 179 174 166 170 168 170 168
3210.0 165 166 176 171 168 166 165 162 169 166
3250.0 162 159 153 162 154 160 156 157 157 155
3290.0 158 158 161 159 155 154 160 158 167 160
3330.0 165 160 164 165 174 167 174 179 189 190
3370.0 199 204 203 211 203 206 216 220 218 200
3410.0 190 179 162 148 132 116 121 119 120 127
3450.0 130 119 127 140 139 142 132 145 168 169
3490.0 180 207 229 305 373 455 567 692 886 1038
3530.0 1045 938 776 640 593 554 565 671 923 1599
3570.0 2653 3695 4038 3339 2231 1230 656 438 326 260
3610.0 250 183 161 119 101 163 87 65 64 89
3650.0 161 114 93 76 42 78 70 109 19 49
3690.0 81 57 43 62 46 58 78 53 68 97
3730.0 62 117 116 80 146 93 100 41 56 51
3770.0 51 36 24 57 35 38 37 65 62 65
3810.0 30 44 81 80 72 41 70 79 76 53
3850.0 65 131 87 73 102 85 79 57 85 89
3890.0 62 85 73 119 101 68 63 84 97 75
3930.0 76 80 81 99 105 111 95 89 84 86
##END=
