##TITLE=Phenol, 2-ethoxy-
##JCAMP-DX=4.24
##DATA TYPE=INFRARED SPECTRUM
##ORIGIN=Sadtler Research Labs Under US-EPA Contract
##OWNER=NIST Standard Reference Data Program
##CAS REGISTRY NO=94-71-3
##MOLFORM=C 8 H 10 O 2
##XUNITS=1/CM
##YUNITS=ABSORBANCE
##XFACTOR=1.0
##YFACTOR=0.000053986
##DELTAX=4.0
##FIRSTX=450.0
##LASTX=3966.0
##FIRSTY=0.044970
##MAXX=3966
##MINX=450
##MAXY=0.53986
##MINY=0
##NPOINTS=880
##XYDATA=(X++(Y..Y))
450.0 833 882 846 792 781 740 655 573 478 386
490.0 322 215 261 216 216 184 100 63 130 119
530.0 136 79 115 42 37 39 36 17 183 115
570.0 61 97 132 154 148 220 197 180 152 125
610.0 107 71 63 63 45 69 59 64 63 62
650.0 66 70 56 47 47 108 71 85 82 114
690.0 107 128 142 149 186 245 387 641 1152 1794
730.0 2567 3450 4674 4252 3331 2674 1927 1345 994 854
770.0 860 868 849 743 638 506 355 299 269 275
810.0 293 322 368 438 396 388 367 340 304 262
850.0 255 242 224 225 219 225 231 240 250 287
890.0 344 442 576 701 805 889 941 917 858 775
930.0 666 545 413 300 218 175 156 140 127 128
970.0 121 122 137 151 167 176 204 242 289 367
1010.0 475 637 892 1236 1713 2233 2782 3209 3316 3089
1050.0 2620 2055 1497 1046 723 555 475 464 491 555
1090.0 681 897 1264 1768 2233 2519 2585 2422 2011 1580
1130.0 1227 867 635 571 612 667 751 872 955 1034
1170.0 1162 1366 1667 2118 2688 3311 3908 4269 4321 4334
1210.0 4556 5083 6093 7066 7233 6798 5857 4241 3173 3297
1250.0 4596 6961 9337 10000 9698 8018 4860 2685 1677 1211
1290.0 972 830 752 710 666 593 508 431 376 360
1330.0 364 448 567 789 1115 1478 1774 1975 2042 1963
1370.0 1864 1619 1409 1332 1261 1243 1322 1374 1278 1109
1410.0 850 591 429 288 267 269 285 311 349 394
1450.0 448 482 527 614 772 946 1300 1863 2441 3224
1490.0 4779 6990 8703 8963 8377 6639 4251 2458 1592 1169
1530.0 848 585 415 282 251 237 249 281 273 337
1570.0 407 471 563 689 886 1118 1351 1486 1557 1570
1610.0 1430 1224 1046 861 591 363 237 159 139 139
1650.0 127 113 95 95 97 99 81 80 89 84
1690.0 75 75 63 62 64 59 57 53 58 74
1730.0 81 104 100 130 137 145 148 129 119 101
1770.0 89 86 73 62 70 57 65 58 57 51
1810.0 51 49 50 50 50 53 43 47 47 55
1850.0 59 68 96 105 131 130 131 112 89 76
1890.0 59 60 66 85 112 132 132 123 104 86
1930.0 70 60 65 63 68 62 64 68 70 69
1970.0 61 70 61 61 54 50 62 62 62 60
2010.0 71 70 61 70 72 71 71 70 80 80
2050.0 71 71 72 54 53 45 34 45 35 34
2090.0 43 28 29 25 32 24 30 26 37 26
2130.0 26 26 26 25 20 28 17 24 17 12
2170.0 9 11 9 9 9 9 18 10 17 17
2210.0 17 17 17 16 20 20 28 28 37 38
2250.0 38 38 38 38 42 46 46 47 45 45
2290.0 45 43 42 33 40 37 39 37 46 47
2330.0 40 42 44 52 54 28 17 22 40 51
2370.0 76 75 74 66 62 51 51 53 53 52
2410.0 64 71 74 81 80 80 76 74 64 54
2450.0 54 54 54 46 56 56 55 66 68 68
2490.0 74 84 85 92 111 120 139 158 157 156
2530.0 138 108 90 71 68 69 68 62 59 50
2570.0 41 43 31 27 33 44 32 38 44 44
2610.0 44 52 53 62 63 65 62 61 55 53
2650.0 59 50 46 39 38 38 28 29 29 39
2690.0 39 49 42 48 48 50 56 59 67 68
2730.0 78 69 77 80 78 93 88 87 87 92
2770.0 89 89 79 89 81 81 70 79 71 82
2810.0 92 91 97 105 119 118 128 137 147 167
2850.0 186 204 226 252 312 362 434 533 634 742
2890.0 817 846 894 910 933 956 956 941 962 990
2930.0 982 1022 1096 1128 1129 1092 1007 902 827 830
2970.0 909 1091 1391 1741 1993 2074 2172 1624 1202 857
3010.0 602 450 381 327 299 279 289 319 422 585
3050.0 798 1034 1230 1345 1310 1211 1038 879 774 702
3090.0 627 530 433 356 318 262 224 206 180 154
3130.0 128 116 96 87 73 77 76 65 65 68
3170.0 67 67 68 68 69 59 59 52 53 61
3210.0 60 52 61 52 60 63 62 59 49 59
3250.0 58 53 57 55 56 55 56 47 56 53
3290.0 39 38 40 40 40 40 40 41 41 41
3330.0 41 41 42 40 36 53 41 48 37 44
3370.0 44 27 46 26 19 37 34 35 25 31
3410.0 24 36 19 29 30 38 48 40 50 59
3450.0 52 48 36 28 35 42 54 41 39 35
3490.0 53 37 52 59 59 57 58 65 69 86
3530.0 102 110 131 148 164 220 301 383 595 1011
3570.0 1787 2575 3273 3832 3933 3494 2767 2023 1285 724
3610.0 428 279 214 161 120 105 107 107 103 100
3650.0 118 138 141 93 86 72 76 92 85 68
3690.0 75 71 74 74 71 37 71 56 44 49
3730.0 40 45 64 38 52 79 75 74 80 62
3770.0 76 66 59 62 45 41 28 24 21 18
3810.0 26 7 21 12 16 1 1 1 20 20
3850.0 0 1 50 30 50 24 44 23 48 42
3890.0 45 39 58 60 81 55 43 41 46 50
3930.0 34 32 24 32 38 18 19 27 33 38
##END=
