##TITLE=Butanoic acid, 4-(2,4-dichlorophenoxy)-
##JCAMP-DX=4.24
##DATA TYPE=INFRARED SPECTRUM
##ORIGIN=Sadtler Research Labs Under US-EPA Contract
##OWNER=NIST Standard Reference Data Program
##CAS REGISTRY NO=94-82-6
##MOLFORM=C 10 H 10 Cl 2 O 3
##XUNITS=1/CM
##YUNITS=ABSORBANCE
##XFACTOR=1.0
##YFACTOR=0.000043219
##DELTAX=4.0
##FIRSTX=450.0
##LASTX=3966.0
##FIRSTY=0.004408
##MAXX=3966
##MINX=450
##MAXY=0.43219
##MINY=0
##NPOINTS=880
##XYDATA=(X++(Y..Y))
450.0 102 44 231 58 59 140 22 128 182 106
490.0 292 192 269 316 333 427 493 504 474 489
530.0 472 525 546 660 712 730 942 1043 1148 1055
570.0 954 839 823 769 785 816 871 965 1029 1027
610.0 1060 1097 1097 1114 1130 1177 1242 1330 1416 1405
650.0 1500 1451 1098 552 379 289 260 227 280 282
690.0 303 437 597 709 769 794 839 915 1012 1200
730.0 1333 1410 1299 1079 791 544 350 248 220 232
770.0 317 451 625 713 730 740 871 1180 1465 1463
810.0 1187 1013 861 741 675 680 728 793 818 783
850.0 673 566 622 836 1151 1312 1107 677 355 165
890.0 86 46 29 8 19 21 37 65 95 153
930.0 233 335 484 584 648 640 527 349 194 65
970.0 22 27 59 109 187 309 448 611 800 985
1010.0 1176 1379 1661 2017 2396 2753 2993 3021 2855 2617
1050.0 2604 3149 4211 4953 4744 3983 3285 2944 2824 2729
1090.0 2693 2981 3820 4739 4866 4202 3578 3443 3752 4319
1130.0 5086 5772 5990 5551 4722 4004 3498 3088 2679 2328
1170.0 2068 1882 1769 1686 1638 1604 1604 1613 1645 1708
1210.0 1807 1931 2116 2399 2788 3266 3739 4218 4761 5389
1250.0 5997 6329 6380 6274 5980 5479 5219 5314 5334 5020
1290.0 4207 3185 2336 1762 1367 1079 870 736 650 622
1330.0 600 605 647 699 744 806 881 994 1139 1316
1370.0 1592 1960 2366 2727 2921 2808 2387 1937 1553 1270
1410.0 1067 975 995 1097 1310 1561 1707 1651 1584 1595
1450.0 1708 1929 2586 3766 5959 8599 9690 10000 9692 9013
1490.0 6690 4422 2888 1967 1390 914 597 368 256 145
1530.0 117 73 56 57 48 53 93 185 263 366
1570.0 477 554 637 700 684 595 412 252 126 58
1610.0 23 6 24 0 19 7 28 23 19 23
1650.0 56 70 67 74 104 137 189 222 288 365
1690.0 444 541 716 892 1114 1348 1608 1795 1869 1902
1730.0 2005 2157 2328 2526 2765 3047 3372 3777 4320 5120
1770.0 6128 7135 7518 7131 6111 5052 4151 3469 2850 2291
1810.0 1802 1389 1062 821 646 502 413 308 252 197
1850.0 163 133 109 94 92 86 68 58 46 34
1890.0 20 18 10 9 10 10 11 10 17 12
1930.0 24 26 31 31 38 37 42 40 46 53
1970.0 51 56 58 61 56 65 66 64 65 67
2010.0 64 63 61 52 44 39 39 32 30 24
2050.0 27 27 23 19 18 19 22 25 26 20
2090.0 30 21 26 25 26 33 35 41 37 35
2130.0 29 28 16 13 14 9 9 8 7 7
2170.0 7 8 2 5 5 14 15 15 10 19
2210.0 19 16 22 14 14 16 9 10 3 4
2250.0 2 6 11 10 16 23 33 28 34 31
2290.0 40 46 56 77 73 74 74 59 65 79
2330.0 56 72 59 71 86 65 32 21 48 45
2370.0 53 57 65 57 42 29 22 31 33 38
2410.0 35 36 38 41 49 42 42 47 50 52
2450.0 61 59 62 57 63 68 69 81 85 83
2490.0 90 97 107 109 121 123 136 146 154 160
2530.0 163 163 163 145 136 130 121 102 97 91
2570.0 84 91 89 84 80 82 91 82 82 80
2610.0 82 88 91 95 92 92 97 101 93 98
2650.0 96 105 105 105 108 105 101 108 108 102
2690.0 110 112 110 110 112 113 113 118 121 129
2730.0 137 141 146 149 154 161 154 155 164 159
2770.0 162 165 164 165 172 177 183 189 199 209
2810.0 222 223 219 226 234 250 261 275 306 333
2850.0 365 404 453 493 544 594 666 753 852 923
2890.0 962 958 926 894 871 859 880 923 1009 1089
2930.0 1202 1330 1468 1595 1643 1626 1586 1565 1565 1560
2970.0 1525 1447 1308 1135 954 809 689 584 505 453
3010.0 415 387 363 369 356 352 358 361 351 333
3050.0 346 337 342 364 386 418 456 473 461 427
3090.0 407 386 357 348 327 322 308 298 298 290
3130.0 295 296 291 294 290 284 280 287 295 286
3170.0 285 280 276 271 279 275 275 281 277 281
3210.0 277 277 276 280 274 277 279 274 269 269
3250.0 261 267 276 265 276 263 264 261 260 263
3290.0 258 260 267 257 257 266 255 261 247 246
3330.0 248 245 261 246 238 240 236 232 245 239
3370.0 224 212 212 219 229 219 210 203 207 195
3410.0 186 179 189 188 164 173 178 180 157 176
3450.0 159 164 156 159 161 153 162 154 157 156
3490.0 166 163 173 195 191 176 176 180 179 199
3530.0 195 198 206 198 249 273 340 474 707 1175
3570.0 2121 3412 3778 2749 1451 778 471 303 194 148
3610.0 142 115 112 101 70 108 82 43 43 77
3650.0 109 66 24 37 5 58 60 60 38 16
3690.0 86 38 34 35 19 55 73 22 43 75
3730.0 56 78 103 60 87 95 65 50 30 52
3770.0 42 26 27 20 32 35 18 36 60 53
3810.0 49 20 75 54 53 35 39 65 96 61
3850.0 25 114 69 64 97 53 75 34 58 50
3890.0 59 40 63 95 102 36 49 63 78 83
3930.0 72 74 37 54 40 85 70 67 63 54
##END=
