##TITLE=Propanenitrile, 3-[(2-chlorophenyl)amino]-
##JCAMP-DX=4.24
##DATA TYPE=INFRARED SPECTRUM
##ORIGIN=Sadtler Research Labs Under US-EPA Contract
##OWNER=NIST Standard Reference Data Program
##CAS REGISTRY NO=94-89-3
##MOLFORM=C 9 H 9 Cl N 2
##XUNITS=1/CM
##YUNITS=ABSORBANCE
##XFACTOR=1.0
##YFACTOR=0.000070517
##DELTAX=4.0
##FIRSTX=450.0
##LASTX=3966.0
##FIRSTY=0.000000
##MAXX=3966
##MINX=450
##MAXY=0.70517
##MINY=0
##NPOINTS=880
##XYDATA=(X++(Y..Y))
450.0 0 137 92 501 302 113 260 387 347 440
490.0 283 522 481 369 477 453 551 544 367 383
530.0 251 300 520 286 384 339 539 465 437 260
570.0 244 145 258 280 374 348 305 305 208 327
610.0 192 187 261 151 223 369 268 187 222 366
650.0 364 407 558 611 583 735 948 1301 1380 1501
690.0 1295 1081 963 766 633 898 808 904 1259 1877
730.0 3053 4896 7733 8885 6867 4894 2962 1755 1233 742
770.0 652 606 533 365 248 427 327 188 104 184
810.0 191 114 146 209 249 194 326 396 304 285
850.0 296 373 450 461 467 433 453 411 423 401
890.0 409 354 364 348 245 200 230 280 364 411
930.0 364 245 215 134 176 184 155 167 183 184
970.0 242 258 279 359 404 424 469 433 406 500
1010.0 547 703 947 1341 1983 2925 3788 3888 3241 2476
1050.0 1826 1320 979 801 693 665 793 1038 1429 1840
1090.0 2285 2700 2876 2798 2579 2020 1571 1273 1101 1087
1130.0 1433 1931 2044 1729 1314 1045 865 1010 1153 1076
1170.0 890 756 706 643 632 651 730 912 1049 1112
1210.0 1151 1102 1017 1047 1177 1450 1718 2126 2438 2709
1250.0 2896 2992 3047 2983 2774 2549 2426 2539 2814 3114
1290.0 3304 3261 3257 3348 3667 4350 5106 5574 5370 4667
1330.0 3747 2720 1892 1338 1066 944 945 1097 1391 1701
1370.0 1890 1802 1561 1278 1040 958 904 881 891 891
1410.0 990 1145 1394 1658 1926 2468 3025 3271 2920 2430
1450.0 2230 2431 3021 3807 3903 3731 3194 2927 2818 2851
1490.0 3351 4107 5370 6560 8024 9851 10000 9652 7094 4641
1530.0 3008 1954 1517 1130 986 880 796 836 945 1199
1570.0 1507 1837 2181 2761 3571 5124 7782 8767 9168 6723
1610.0 4154 2412 1321 996 779 678 610 558 529 560
1650.0 516 589 672 715 790 765 739 645 559 427
1690.0 395 348 302 310 303 340 342 361 408 473
1730.0 525 518 599 572 583 559 544 517 464 401
1770.0 350 290 266 240 236 202 202 173 167 141
1810.0 129 130 113 109 90 97 105 132 141 153
1850.0 168 144 118 118 113 130 166 214 241 249
1890.0 211 174 145 139 137 168 190 223 209 195
1930.0 150 122 94 68 69 60 58 56 56 49
1970.0 48 48 51 56 56 45 52 51 55 58
2010.0 58 51 49 50 51 51 45 46 45 41
2050.0 43 45 41 40 46 49 48 50 62 63
2090.0 68 67 66 65 57 62 66 61 65 71
2130.0 65 64 64 61 60 58 57 53 55 55
2170.0 58 57 60 68 69 74 80 83 84 76
2210.0 72 79 87 88 102 132 166 244 381 544
2250.0 590 479 344 248 163 116 103 106 101 103
2290.0 121 126 138 137 140 170 154 157 160 151
2330.0 156 138 166 113 182 100 187 134 205 181
2370.0 138 149 115 107 93 76 70 68 71 70
2410.0 68 70 69 66 63 58 55 50 53 53
2450.0 51 55 57 60 60 58 62 60 66 63
2490.0 65 76 76 81 82 89 93 96 105 105
2530.0 107 112 111 114 117 122 129 133 143 147
2570.0 145 141 132 133 122 127 134 138 135 144
2610.0 147 141 134 128 123 115 110 105 102 98
2650.0 95 93 86 86 82 80 88 86 83 84
2690.0 90 92 90 102 106 108 120 127 132 133
2730.0 122 124 121 120 117 115 114 112 117 110
2770.0 104 106 113 116 115 122 126 140 153 160
2810.0 178 192 210 242 259 283 315 352 399 456
2850.0 528 624 729 821 904 960 1001 1024 1049 1075
2890.0 1088 1089 1047 1002 963 937 937 944 972 1037
2930.0 1121 1205 1281 1346 1377 1346 1322 1312 1299 1290
2970.0 1265 1216 1111 955 775 612 497 418 367 351
3010.0 349 367 390 442 500 559 609 631 614 588
3050.0 565 585 665 812 963 1115 1233 1336 1403 1383
3090.0 1222 947 669 492 394 314 253 207 179 156
3130.0 145 129 117 109 117 114 102 98 106 113
3170.0 109 102 112 112 118 114 118 122 111 110
3210.0 101 102 98 107 104 109 113 114 111 109
3250.0 112 106 117 116 115 113 118 114 117 116
3290.0 123 134 130 137 136 150 152 159 162 177
3330.0 193 218 218 229 261 294 323 348 399 460
3370.0 511 572 645 726 847 959 1094 1219 1297 1357
3410.0 1388 1386 1379 1375 1358 1309 1218 1144 1051 962
3450.0 872 755 649 545 447 374 322 281 245 222
3490.0 213 187 186 174 169 162 167 164 156 144
3530.0 122 153 154 151 147 125 135 141 135 127
3570.0 140 151 151 164 120 145 100 143 99 141
3610.0 110 120 119 94 135 99 105 121 122 86
3650.0 132 51 172 74 151 86 123 102 103 133
3690.0 46 160 86 121 112 123 93 132 95 112
3730.0 101 91 121 81 119 77 149 82 137 102
3770.0 136 127 127 121 124 127 145 100 169 80
3810.0 194 91 151 91 157 118 133 127 115 152
3850.0 126 111 96 177 107 123 160 140 146 145
3890.0 104 150 100 153 95 144 145 169 153 152
3930.0 129 106 158 157 126 151 120 135 170 160
##END=
