##TITLE=1-Piperidinepropanol, 2-methyl-
##JCAMP-DX=4.24
##DATA TYPE=INFRARED SPECTRUM
##ORIGIN=Sadtler Research Labs Under US-EPA Contract
##OWNER=NIST Standard Reference Data Program
##CAS REGISTRY NO=94-88-2
##MOLFORM=C 9 H 19 N O
##XUNITS=1/CM
##YUNITS=ABSORBANCE
##XFACTOR=1.0
##YFACTOR=0.000185715
##DELTAX=4.0
##FIRSTX=450.0
##LASTX=3966.0
##FIRSTY=0.091743
##MAXX=3966
##MINX=450
##MAXY=1.85715
##MINY=0
##NPOINTS=880
##XYDATA=(X++(Y..Y))
450.0 494 490 490 501 460 478 408 457 394 346
490.0 361 433 306 306 336 303 308 261 284 208
530.0 226 165 127 59 209 146 136 155 117 119
570.0 108 163 129 148 129 136 151 138 125 96
610.0 97 79 80 56 76 5 90 93 88 97
650.0 40 60 50 51 57 56 72 42 73 72
690.0 72 55 62 59 71 81 88 104 108 142
730.0 133 144 136 139 135 134 134 128 124 107
770.0 115 104 120 131 148 177 199 214 225 229
810.0 222 223 212 223 229 264 307 355 381 380
850.0 372 320 284 236 221 202 205 224 239 268
890.0 289 315 325 340 355 394 438 482 515 525
930.0 519 491 467 436 430 419 435 475 519 549
970.0 556 557 558 600 640 661 652 573 524 497
1010.0 506 514 525 508 518 552 610 691 776 874
1050.0 977 1105 1215 1273 1246 1186 1160 1241 1394 1538
1090.0 1617 1580 1494 1367 1256 1156 1108 1119 1200 1340
1130.0 1491 1606 1585 1450 1181 885 658 525 470 474
1170.0 513 564 614 632 616 551 480 407 357 337
1210.0 339 364 411 495 591 684 743 762 764 764
1250.0 772 781 804 850 949 1071 1196 1279 1283 1204
1290.0 1079 963 872 825 802 829 898 1028 1181 1287
1330.0 1301 1211 1086 980 922 901 891 881 889 938
1370.0 1038 1172 1236 1213 1095 978 897 907 948 989
1410.0 962 870 717 578 482 477 532 666 802 980
1450.0 1149 1263 1323 1257 1110 961 773 607 446 323
1490.0 223 168 129 99 98 95 62 70 62 57
1530.0 36 43 39 45 33 32 29 34 42 17
1570.0 20 22 27 16 20 16 16 19 15 16
1610.0 8 20 16 24 8 16 12 24 10 23
1650.0 11 43 16 13 23 16 22 22 18 36
1690.0 20 21 36 46 34 31 34 36 31 21
1730.0 24 33 31 22 25 27 28 31 29 31
1770.0 26 33 16 21 15 21 15 16 18 13
1810.0 13 11 12 6 15 9 11 4 14 12
1850.0 9 11 10 12 7 14 12 10 11 10
1890.0 12 10 13 7 10 7 11 9 9 6
1930.0 6 5 5 7 7 7 6 10 13 15
1970.0 15 15 16 15 15 12 14 12 10 12
2010.0 10 12 10 15 12 15 11 14 13 15
2050.0 17 14 16 18 17 14 14 12 10 7
2090.0 7 8 8 12 10 12 11 14 11 12
2130.0 13 14 13 13 14 12 14 13 14 15
2170.0 17 18 19 20 23 24 22 23 24 25
2210.0 25 24 28 25 25 23 22 20 19 21
2250.0 21 21 21 24 21 25 23 24 22 21
2290.0 21 19 17 14 13 6 12 5 4 11
2330.0 14 16 20 30 26 20 1 5 31 50
2370.0 62 63 58 46 38 29 27 24 25 26
2410.0 29 26 26 31 28 30 30 30 25 27
2450.0 28 26 28 28 31 30 35 31 35 33
2490.0 34 34 34 36 35 34 33 39 40 45
2530.0 50 56 60 63 67 67 72 74 74 76
2570.0 81 81 82 86 86 91 92 100 105 107
2610.0 112 114 124 130 140 149 162 165 186 202
2650.0 209 227 237 253 269 279 291 306 323 342
2690.0 364 382 400 403 410 417 424 436 449 462
2730.0 477 500 521 567 608 671 723 778 831 892
2770.0 948 1007 1059 1103 1168 1267 1427 1633 1886 2136
2810.0 2352 2489 2571 2572 2510 2382 2188 2003 1848 1782
2850.0 1841 2018 2345 2693 2945 3024 2940 2756 2586 2418
2890.0 2289 2216 2230 2383 2675 3145 3778 4631 5740 7156
2930.0 8748 10000 9831 8892 7261 5605 4286 3309 2641 2269
2970.0 2135 2115 2121 2098 1833 1463 1021 599 341 236
3010.0 181 154 130 127 112 107 98 90 80 77
3050.0 68 65 60 55 50 52 45 38 42 39
3090.0 37 33 35 25 27 23 30 18 26 22
3130.0 20 24 21 23 23 22 14 21 24 22
3170.0 28 26 21 28 25 23 29 25 19 21
3210.0 16 13 6 10 4 7 6 7 6 14
3250.0 10 5 11 13 12 9 18 21 15 20
3290.0 24 29 22 31 21 31 36 37 43 43
3330.0 62 57 57 59 62 69 75 68 63 69
3370.0 72 68 67 76 78 84 86 102 106 109
3410.0 125 136 141 159 162 167 187 205 224 244
3450.0 262 266 255 250 240 227 205 211 226 258
3490.0 335 417 550 707 806 823 787 711 628 535
3530.0 466 408 366 335 311 299 268 264 253 217
3570.0 206 182 170 159 135 126 100 85 83 63
3610.0 62 45 39 46 52 53 43 61 64 74
3650.0 74 91 97 73 66 54 33 13 12 13
3690.0 27 1 4 1 1 1 1 1 1 1
3730.0 5 3 4 5 22 0 13 1 1 1
3770.0 1 7 1 8 4 8 3 1 1 4
3810.0 1 5 1 7 2 0 4 6 3 6
3850.0 3 8 20 1 5 4 20 11 1 14
3890.0 1 12 17 4 7 5 1 18 1 1
3930.0 9 6 0 10 1 1 1 1 1 1
##END=
