##TITLE=Benzene, 2,4-dichloro-1-(chloromethyl)-
##JCAMP-DX=4.24
##DATA TYPE=INFRARED SPECTRUM
##ORIGIN=Sadtler Research Labs Under US-EPA Contract
##OWNER=NIST Standard Reference Data Program
##CAS REGISTRY NO=94-99-5
##MOLFORM=C 7 H 5 Cl 3
##XUNITS=1/CM
##YUNITS=ABSORBANCE
##XFACTOR=1.0
##YFACTOR=0.000057190
##DELTAX=4.0
##FIRSTX=450.0
##LASTX=3966.0
##FIRSTY=0.049241
##MAXX=3966
##MINX=450
##MAXY=0.5719
##MINY=0
##NPOINTS=880
##XYDATA=(X++(Y..Y))
450.0 861 856 780 664 547 411 335 266 256 258
490.0 207 129 149 142 150 148 203 159 188 207
530.0 223 256 305 366 496 558 676 655 622 475
570.0 219 125 79 131 159 263 160 190 138 116
610.0 129 148 146 146 118 168 262 397 658 1100
650.0 1304 1253 1050 941 1167 1889 2391 2866 2627 2069
690.0 1436 947 737 720 778 916 1120 1429 1873 2354
730.0 2872 3373 3799 4088 3940 3285 2538 1873 1486 1387
770.0 1455 1585 1630 1498 1245 970 832 964 1287 1812
810.0 2456 2915 3049 2796 2421 2478 3349 5499 8494 10000
850.0 9261 6928 4619 3712 3467 3744 2564 1771 1065 620
890.0 484 529 631 787 861 820 654 419 269 171
930.0 78 33 24 16 22 18 27 33 33 30
970.0 31 27 38 26 10 9 2 10 10 25
1010.0 20 26 61 77 133 257 474 884 1549 2560
1050.0 3356 3497 3152 2080 1102 632 482 541 729 1083
1090.0 1855 3096 4386 4934 4566 3460 2402 1802 1477 1325
1130.0 1305 1415 1628 1769 1722 1473 1076 677 434 319
1170.0 267 271 314 389 487 612 715 810 826 828
1210.0 792 766 723 668 593 545 504 530 576 680
1250.0 811 962 1170 1510 2115 2768 3057 2815 2171 1588
1290.0 1233 1043 919 753 565 392 271 225 201 192
1330.0 175 155 147 168 205 254 336 434 587 814
1370.0 1200 1775 2445 2943 3021 2685 2025 1338 899 676
1410.0 596 665 820 1003 1084 1097 1020 1060 1289 1683
1450.0 2045 2300 2571 3245 5174 7996 9797 9150 6640 3597
1490.0 2094 1616 1437 1339 1253 1009 824 626 461 353
1530.0 343 380 456 629 852 1278 1835 2368 2717 2782
1570.0 2608 2471 2917 3896 5250 6371 6534 5461 3731 2012
1610.0 1016 614 402 328 259 264 270 232 217 207
1650.0 160 131 69 82 70 77 58 56 72 43
1690.0 54 90 71 81 117 175 223 248 250 301
1730.0 365 400 357 325 252 210 217 263 304 299
1770.0 276 186 122 87 52 47 36 34 38 37
1810.0 37 46 48 36 43 22 18 22 12 1
1850.0 0 8 18 18 34 55 76 107 144 197
1890.0 228 224 188 146 110 91 65 65 47 40
1930.0 30 32 27 18 10 11 18 10 11 9
1970.0 3 12 22 22 23 23 26 23 18 13
2010.0 18 17 15 7 2 8 4 15 21 15
2050.0 26 20 26 26 24 18 18 9 2 1
2090.0 8 2 4 5 10 15 14 17 17 17
2130.0 17 18 16 18 8 12 14 5 15 8
2170.0 8 7 10 9 1 17 18 2 6 9
2210.0 5 10 11 8 7 9 9 18 19 27
2250.0 20 20 19 19 31 19 31 31 40 39
2290.0 44 65 76 87 89 105 94 84 94 86
2330.0 88 84 99 106 121 109 122 94 85 65
2370.0 71 76 72 69 55 52 40 48 39 49
2410.0 41 49 39 48 42 36 31 42 32 32
2450.0 34 33 33 25 33 33 33 33 38 43
2490.0 38 41 47 45 51 44 60 61 45 43
2530.0 46 42 53 42 55 40 30 27 19 26
2570.0 26 27 29 29 39 35 46 46 46 36
2610.0 45 36 36 36 46 53 53 48 54 58
2650.0 68 63 56 64 64 72 72 73 70 72
2690.0 75 77 78 82 96 88 100 105 118 116
2730.0 90 81 81 62 56 59 44 46 39 39
2770.0 39 49 57 40 49 40 40 60 59 62
2810.0 57 68 56 73 67 75 82 93 101 110
2850.0 118 135 140 148 166 178 188 220 222 231
2890.0 206 187 152 126 109 129 130 143 163 191
2930.0 212 245 246 273 291 300 328 365 444 545
2970.0 706 877 1020 1037 880 688 498 355 266 230
3010.0 208 235 243 266 305 322 324 304 280 250
3050.0 232 257 285 365 419 444 466 443 404 364
3090.0 273 223 150 115 78 69 77 59 61 63
3130.0 58 56 37 48 33 28 19 43 27 53
3170.0 44 32 52 20 26 22 35 23 17 17
3210.0 18 12 19 26 18 26 24 19 23 13
3250.0 24 20 16 17 18 11 27 35 18 18
3290.0 18 18 14 23 36 31 35 18 18 18
3330.0 18 18 22 23 32 13 23 22 18 13
3370.0 34 43 18 18 17 41 32 25 19 13
3410.0 23 18 22 24 37 35 27 12 18 16
3450.0 15 33 32 12 13 12 18 17 20 10
3490.0 27 35 18 28 8 14 40 18 13 14
3530.0 6 19 34 43 39 30 50 12 17 28
3570.0 40 32 23 23 11 17 31 22 15 23
3610.0 52 23 8 27 36 54 20 48 58 30
3650.0 41 46 57 42 61 71 53 51 46 54
3690.0 61 42 60 54 65 44 54 59 67 40
3730.0 70 73 81 55 70 66 83 62 62 61
3770.0 47 57 36 58 54 59 44 48 55 32
3810.0 46 55 38 48 55 23 15 54 45 55
3850.0 45 61 54 87 92 91 79 48 60 49
3890.0 50 66 69 72 71 87 107 103 92 81
3930.0 64 69 77 63 48 61 66 66 86 97
##END=
