##TITLE=Butyraldehyde, phenylhydrazone
##JCAMP-DX=4.24
##DATA TYPE=INFRARED SPECTRUM
##ORIGIN=Sadtler Research Labs Under US-EPA Contract
##OWNER=NIST Standard Reference Data Program
##CAS REGISTRY NO=940-54-5
##MOLFORM=C 10 H 14 N 2
##XUNITS=1/CM
##YUNITS=ABSORBANCE
##XFACTOR=1.0
##YFACTOR=0.000068442
##DELTAX=4.0
##FIRSTX=450.0
##LASTX=3966.0
##FIRSTY=0.000958
##MAXX=3966
##MINX=450
##MAXY=0.68442
##MINY=0
##NPOINTS=880
##XYDATA=(X++(Y..Y))
450.0 14 271 248 153 460 536 302 366 424 607
490.0 657 618 708 472 687 727 678 517 416 349
530.0 239 244 273 263 342 296 288 155 185 106
570.0 335 224 263 145 185 240 309 215 21 266
610.0 390 442 403 419 409 413 456 474 338 371
650.0 427 564 589 640 680 1048 1223 1367 1555 2222
690.0 2224 2196 1910 1498 1135 972 835 748 866 999
730.0 1410 1877 2490 2984 3408 3194 2760 2141 1543 1108
770.0 805 706 681 583 522 413 335 308 220 245
810.0 213 230 234 122 128 189 176 88 170 88
850.0 62 128 200 174 182 301 355 407 447 489
890.0 488 411 416 327 403 407 360 252 271 204
930.0 231 152 86 127 133 118 198 217 173 261
970.0 224 184 174 190 181 155 299 318 321 316
1010.0 371 457 441 537 642 812 918 1186 1373 1691
1050.0 1980 2209 2308 2357 2233 2000 1864 1898 1994 2270
1090.0 2601 2688 2575 2521 2603 2782 2770 2542 2276 1944
1130.0 1823 1721 1676 1628 1633 1663 1634 1460 1205 1021
1170.0 936 834 702 605 535 527 531 580 566 629
1210.0 759 899 1000 1193 1376 1556 1907 2431 3389 5031
1250.0 6451 6707 5376 3294 2006 1660 1621 1685 1554 1400
1290.0 1517 1672 1758 1621 1329 1184 1128 1166 1153 1133
1330.0 1161 1117 1117 1009 933 880 812 862 925 970
1370.0 981 908 828 741 681 659 554 569 543 501
1410.0 608 590 784 796 983 1126 1221 1338 1329 1333
1450.0 1330 1309 1332 1478 1458 1504 1438 1493 1575 2000
1490.0 3082 4773 7726 9549 9575 7144 4378 2499 1627 1224
1530.0 927 710 648 523 592 551 538 629 587 806
1570.0 901 928 1151 1421 2063 3168 5126 7319 10000 9532
1610.0 7430 4918 2891 2101 1669 1349 1215 956 809 730
1650.0 523 505 405 435 377 297 340 248 319 215
1690.0 286 257 219 180 194 162 149 124 102 95
1730.0 57 52 28 0 80 87 90 129 172 201
1770.0 214 169 148 144 149 117 142 90 148 92
1810.0 98 124 106 152 134 161 163 165 189 169
1850.0 179 152 137 110 102 107 85 99 85 96
1890.0 98 117 117 140 149 174 183 213 220 218
1930.0 192 194 199 182 162 109 95 92 74 80
1970.0 59 60 52 45 51 52 56 53 44 54
2010.0 44 51 56 52 55 44 41 48 54 49
2050.0 43 41 41 36 52 34 35 37 38 40
2090.0 45 42 49 44 53 49 52 56 53 56
2130.0 60 68 64 60 62 63 62 66 63 71
2170.0 68 66 67 56 63 59 53 53 40 43
2210.0 38 41 37 33 36 33 36 36 34 38
2250.0 32 31 35 30 37 35 33 40 40 45
2290.0 44 41 58 60 68 86 89 109 110 136
2330.0 130 110 169 66 222 64 216 121 219 177
2370.0 146 134 108 83 68 60 56 63 64 59
2410.0 73 69 58 61 62 67 67 58 71 74
2450.0 71 68 72 70 70 64 61 62 54 54
2490.0 58 51 55 61 56 59 66 73 81 91
2530.0 107 105 117 130 152 148 136 121 114 109
2570.0 100 97 100 94 97 96 87 91 92 87
2610.0 91 94 98 97 99 99 104 110 106 105
2650.0 114 117 120 127 132 134 129 133 139 139
2690.0 143 141 149 144 146 156 154 157 166 171
2730.0 179 181 197 207 227 220 225 221 225 218
2770.0 224 232 236 248 263 281 291 312 326 347
2810.0 367 386 414 454 502 574 664 809 978 1177
2850.0 1367 1523 1652 1764 1887 2034 2209 2392 2528 2537
2890.0 2365 2134 1948 1907 1929 2012 2070 2121 2193 2333
2930.0 2571 2887 3289 3654 3771 3596 3333 3244 3437 3827
2970.0 4300 4496 4105 3271 2295 1654 1295 1049 924 876
3010.0 908 1006 1142 1299 1462 1546 1531 1429 1328 1263
3050.0 1291 1464 1747 1988 1993 1789 1493 1277 1215 1183
3090.0 1136 1036 898 791 695 600 495 393 311 251
3130.0 211 196 175 160 147 141 155 151 153 147
3170.0 148 151 154 151 166 169 166 157 162 163
3210.0 160 168 162 151 152 153 155 156 156 159
3250.0 156 159 163 169 163 166 152 161 163 156
3290.0 152 154 157 153 151 160 167 162 167 182
3330.0 199 226 225 230 225 227 227 219 207 201
3370.0 211 218 220 204 197 168 172 161 168 172
3410.0 171 163 156 162 148 148 147 149 144 142
3450.0 136 148 138 140 136 142 145 134 145 131
3490.0 137 134 143 157 177 164 179 171 160 165
3530.0 145 141 151 139 141 132 144 124 147 115
3570.0 163 145 140 163 133 158 138 162 141 179
3610.0 125 132 135 142 140 127 136 198 158 124
3650.0 118 85 204 130 219 66 161 81 175 191
3690.0 98 199 175 223 184 140 159 186 192 197
3730.0 180 158 118 179 76 131 104 180 201 171
3770.0 215 189 243 207 212 249 217 208 207 106
3810.0 268 119 207 97 223 177 181 117 123 235
3850.0 123 180 78 264 172 171 226 158 229 143
3890.0 224 174 178 165 186 240 176 193 177 163
3930.0 181 191 211 215 146 172 186 183 216 213
##END=
