##TITLE=Ethanone, 1-(1-Naphthalenyl)-
##JCAMP-DX=4.24
##DATA TYPE=INFRARED SPECTRUM
##ORIGIN=Sadtler Research Labs Under US-EPA Contract
##OWNER=NIST Standard Reference Data Program
##CAS REGISTRY NO=941-98-0
##MOLFORM=C 12 H 10 O
##XUNITS=1/CM
##YUNITS=ABSORBANCE
##XFACTOR=1.0
##YFACTOR=0.000048325
##DELTAX=4.0
##FIRSTX=450.0
##LASTX=3966.0
##FIRSTY=0.020200
##MAXX=3966
##MINX=450
##MAXY=0.48325
##MINY=0
##NPOINTS=880
##XYDATA=(X++(Y..Y))
450.0 418 263 55 174 87 178 161 215 113 42
490.0 142 130 109 155 101 225 118 131 69 70
530.0 18 20 57 166 316 410 557 497 478 405
570.0 530 561 745 1055 1319 1233 1268 1019 664 373
610.0 250 230 203 207 224 144 115 91 185 178
650.0 261 366 474 542 530 421 285 265 300 303
690.0 192 153 109 93 94 119 135 214 119 213
730.0 520 801 910 1243 1123 879 1030 1295 2046 2818
770.0 3925 4719 3528 2685 2621 2296 2864 3153 2299 1753
810.0 1519 1069 970 828 611 439 327 310 365 500
850.0 575 786 807 652 461 328 221 184 180 187
890.0 241 233 238 266 273 310 331 381 427 568
930.0 881 1311 1563 1593 1384 1010 740 639 585 530
970.0 481 396 375 341 331 306 301 303 286 319
1010.0 377 465 556 574 526 447 323 252 239 231
1050.0 237 239 299 365 431 479 481 419 323 253
1090.0 214 211 219 275 307 389 547 896 1460 1940
1130.0 2107 1975 1406 827 596 546 497 505 483 515
1170.0 632 919 1325 1953 2596 2937 2897 2422 1858 1541
1210.0 1519 1668 1907 2187 2506 3137 4081 4888 5012 4520
1250.0 3292 2098 1829 2170 2851 3596 4096 4164 3679 2593
1290.0 1461 760 487 386 356 333 347 369 401 450
1330.0 515 643 766 981 1339 1876 2463 2912 3134 2928
1370.0 2405 1881 1381 1022 826 705 609 545 519 481
1410.0 450 515 558 671 751 840 888 919 907 818
1450.0 748 720 772 911 976 894 699 487 396 388
1490.0 487 672 930 1270 1438 1430 1251 912 597 463
1530.0 399 361 318 266 281 284 287 272 329 416
1570.0 501 589 608 658 662 706 725 713 628 493
1610.0 396 377 394 501 591 665 626 548 471 455
1650.0 488 582 699 849 964 1122 1317 1725 2223 3132
1690.0 4602 6799 8884 10000 9818 8116 5827 3994 2831 2118
1730.0 1634 1297 1104 960 860 731 643 552 468 427
1770.0 359 313 295 268 249 240 253 286 300 330
1810.0 337 318 282 262 241 221 229 210 176 152
1850.0 153 156 167 210 219 224 221 199 171 154
1890.0 154 168 176 192 220 244 283 313 348 356
1930.0 347 318 306 304 286 274 248 199 161 115
1970.0 101 80 71 68 79 95 99 99 103 98
2010.0 91 75 71 57 56 46 34 26 23 24
2050.0 9 6 26 26 16 10 11 17 28 46
2090.0 71 90 98 103 93 93 95 92 86 92
2130.0 100 101 100 95 95 101 95 102 96 97
2170.0 104 105 120 112 117 104 112 106 102 114
2210.0 110 114 113 108 108 101 110 103 119 111
2250.0 111 117 110 112 107 112 112 117 125 123
2290.0 106 97 96 91 71 63 78 66 79 98
2330.0 82 84 80 98 68 53 114 119 50 5
2370.0 6 6 7 26 67 76 97 113 114 119
2410.0 121 107 121 105 104 94 93 91 91 96
2450.0 98 88 85 85 78 77 82 77 88 79
2490.0 83 86 93 83 78 63 73 76 69 69
2530.0 77 84 83 77 80 85 91 81 66 77
2570.0 73 81 75 70 71 87 74 85 109 107
2610.0 98 140 155 150 141 166 163 134 151 181
2650.0 185 173 149 151 132 113 100 80 65 55
2690.0 59 60 59 44 49 40 46 53 57 49
2730.0 61 46 56 43 52 45 20 19 8 21
2770.0 31 55 56 65 65 55 48 48 52 51
2810.0 60 67 70 60 62 73 68 71 97 92
2850.0 108 99 92 100 85 99 85 105 110 134
2890.0 111 152 145 150 148 170 189 214 234 279
2930.0 321 341 360 361 355 348 331 341 369 365
2970.0 406 413 431 433 432 432 452 479 580 716
3010.0 801 862 875 833 786 793 855 980 1228 1595
3050.0 2016 2504 3035 3462 3394 3105 2654 2113 1697 1499
3090.0 1410 1307 1160 927 674 477 329 260 195 169
3130.0 139 137 141 141 136 120 131 122 134 108
3170.0 89 89 104 104 91 87 79 88 103 97
3210.0 98 89 99 73 105 86 83 65 71 80
3250.0 71 68 64 91 84 79 80 65 72 89
3290.0 74 76 69 94 89 92 94 94 100 94
3330.0 83 74 87 106 94 143 182 200 202 184
3370.0 217 220 212 238 247 248 210 183 173 156
3410.0 164 141 133 105 135 100 98 76 107 81
3450.0 93 102 96 109 110 120 94 128 128 121
3490.0 100 89 119 105 82 69 84 103 115 108
3530.0 83 126 98 104 57 105 88 87 103 94
3570.0 109 81 90 126 110 108 141 81 122 108
3610.0 98 69 52 55 45 71 58 105 60 85
3650.0 89 64 32 42 27 7 98 55 73 74
3690.0 101 80 38 104 88 36 35 34 90 40
3730.0 79 55 53 58 65 67 48 61 58 61
3770.0 28 6 57 13 50 22 31 58 1 36
3810.0 54 33 55 7 70 4 4 17 32 50
3850.0 84 25 0 78 12 6 38 23 15 64
3890.0 69 24 33 50 76 57 71 41 87 70
3930.0 36 29 120 70 132 85 70 27 4 28
##END=
