##TITLE=Naphthalene, sec-hexadecyl-
##JCAMP-DX=4.24
##DATA TYPE=INFRARED SPECTRUM
##ORIGIN=Sadtler Research Labs Under US-EPA Contract
##OWNER=NIST Standard Reference Data Program
##CAS REGISTRY NO=94247-63-9
##MOLFORM=C 26 H 40
##XUNITS=1/CM
##YUNITS=ABSORBANCE
##XFACTOR=1.0
##YFACTOR=0.000074432
##DELTAX=4.0
##FIRSTX=450.0
##LASTX=3966.0
##FIRSTY=0.011537
##MAXX=3966
##MINX=450
##MAXY=0.74432
##MINY=0
##NPOINTS=880
##XYDATA=(X++(Y..Y))
450.0 155 88 124 252 301 628 1249 1157 380 115
490.0 94 63 76 43 41 62 40 17 69 38
530.0 20 11 31 58 55 9 14 47 20 42
570.0 31 33 30 30 20 2 27 13 27 19
610.0 31 85 137 221 138 40 13 8 9 15
650.0 35 69 154 140 62 54 51 29 52 52
690.0 69 88 94 120 144 191 241 298 340 366
730.0 453 730 1642 2683 1727 790 460 335 288 282
770.0 292 245 225 188 178 181 195 244 366 665
810.0 1398 1884 1065 463 282 227 219 254 352 649
850.0 1097 874 378 189 135 120 118 146 280 513
890.0 511 292 167 121 104 93 88 79 70 71
930.0 73 87 132 251 262 222 244 236 128 78
970.0 63 55 48 40 41 43 46 48 53 58
1010.0 85 140 220 118 52 42 39 41 46 45
1050.0 44 50 56 60 70 69 70 76 68 77
1090.0 92 96 98 107 104 102 109 129 180 250
1130.0 242 197 164 171 134 108 113 109 92 89
1170.0 85 81 75 74 75 78 89 96 98 94
1210.0 95 97 94 93 100 116 139 153 142 131
1250.0 125 129 151 193 267 343 244 183 175 180
1290.0 190 206 219 239 251 252 253 263 278 303
1330.0 329 347 377 406 418 429 430 443 466 497
1370.0 533 589 650 579 409 283 225 195 185 181
1410.0 193 201 226 247 296 369 494 627 792 960
1450.0 1130 1338 1477 1515 1365 1015 646 453 342 297
1490.0 274 303 399 606 685 453 242 137 88 69
1530.0 67 52 60 52 65 67 66 58 49 67
1570.0 71 86 79 108 135 209 323 455 360 194
1610.0 120 108 111 152 234 321 286 146 76 33
1650.0 35 1 26 25 31 23 37 45 78 68
1690.0 70 59 60 52 58 50 50 44 53 54
1730.0 58 61 67 56 59 71 87 82 72 71
1770.0 71 65 67 68 66 69 56 46 38 38
1810.0 44 51 52 50 35 29 25 23 30 26
1850.0 24 16 17 15 10 4 9 15 25 40
1890.0 45 67 85 86 90 96 89 59 54 53
1930.0 63 77 85 66 36 15 9 6 5 5
1970.0 1 0 2 3 4 8 4 5 7 8
2010.0 9 10 11 13 12 15 17 17 16 15
2050.0 10 9 8 10 7 7 8 8 6 6
2090.0 5 5 5 5 3 4 4 4 2 6
2130.0 1 5 4 5 7 5 6 8 7 5
2170.0 5 4 4 4 4 5 2 5 1 3
2210.0 4 4 7 3 7 5 4 2 7 6
2250.0 8 9 8 8 10 11 17 23 30 45
2290.0 55 65 73 78 77 81 57 54 39 23
2330.0 12 6 0 4 22 40 11 17 5 16
2370.0 14 33 44 56 53 35 25 24 21 24
2410.0 26 24 23 25 24 22 22 23 21 22
2450.0 21 21 20 22 23 23 23 24 27 27
2490.0 27 28 30 36 35 34 39 33 39 43
2530.0 45 46 47 47 50 49 51 52 57 57
2570.0 61 60 66 67 69 70 73 74 78 85
2610.0 85 88 90 92 95 100 102 108 114 118
2650.0 124 129 136 143 148 148 153 153 152 150
2690.0 147 144 140 142 145 146 149 152 157 165
2730.0 174 177 183 186 187 185 188 193 204 213
2770.0 227 240 260 282 308 333 360 393 430 473
2810.0 521 588 657 746 848 995 1198 1507 2000 2764
2850.0 3755 4631 5015 4847 4322 3854 3535 3217 3024 3003
2890.0 3097 3341 3718 4180 4741 5410 6239 7245 8346 9380
2930.0 10000 9759 8604 7118 5808 4961 4603 4502 4328 3925
2970.0 3286 2531 1893 1480 1213 1049 933 857 821 817
3010.0 838 865 854 808 739 692 694 760 890 1057
3050.0 1227 1359 1371 1230 965 711 565 478 420 365
3090.0 301 235 196 162 145 132 115 100 87 88
3130.0 84 81 76 72 65 62 60 59 55 50
3170.0 52 54 47 47 41 42 33 31 31 32
3210.0 32 25 23 22 20 17 16 10 10 9
3250.0 9 7 3 8 6 12 8 6 5 5
3290.0 10 8 1 5 6 7 5 7 7 12
3330.0 5 11 11 4 5 3 6 11 5 4
3370.0 8 13 22 7 13 20 21 16 10 10
3410.0 12 20 17 18 13 17 16 14 12 9
3450.0 2 10 18 13 13 13 16 9 8 12
3490.0 9 8 8 9 12 14 11 10 11 17
3530.0 7 13 10 16 11 14 10 22 12 15
3570.0 10 9 15 17 27 13 14 18 9 20
3610.0 20 31 25 19 24 11 28 32 36 27
3650.0 29 39 35 25 28 25 33 17 36 28
3690.0 24 24 23 23 9 14 14 29 15 11
3730.0 14 20 12 20 14 33 12 29 26 22
3770.0 15 21 24 24 23 17 22 27 15 22
3810.0 12 12 7 19 33 21 9 11 9 18
3850.0 13 0 7 9 21 11 26 24 10 9
3890.0 24 21 19 3 26 16 25 12 12 23
3930.0 23 26 20 12 26 24 10 10 28 30
##END=
