##TITLE=Benzene, 1-methyl-4-(1-methylethyl)-2-nitro-
##JCAMP-DX=4.24
##DATA TYPE=INFRARED SPECTRUM
##ORIGIN=Sadtler Research Labs Under US-EPA Contract
##OWNER=NIST Standard Reference Data Program
##CAS REGISTRY NO=943-15-7
##MOLFORM=C 10 H 13 N O 2
##XUNITS=1/CM
##YUNITS=ABSORBANCE
##XFACTOR=1.0
##YFACTOR=0.000097476
##DELTAX=4.0
##FIRSTX=450.0
##LASTX=3966.0
##FIRSTY=0.015889
##MAXX=3966
##MINX=450
##MAXY=0.97476
##MINY=0
##NPOINTS=880
##XYDATA=(X++(Y..Y))
450.0 163 97 82 71 73 1 42 82 63 125
490.0 93 108 126 144 150 171 149 155 141 167
530.0 165 161 183 169 189 178 161 132 125 110
570.0 121 114 118 122 127 140 151 158 194 237
610.0 261 261 230 192 164 113 105 51 68 63
650.0 53 46 75 120 165 288 346 430 389 364
690.0 320 334 430 448 399 331 295 315 343 358
730.0 336 326 282 262 278 314 357 417 444 421
770.0 347 280 221 200 221 331 610 1112 1516 1581
810.0 1416 1104 1091 1329 1400 950 627 353 200 152
850.0 164 212 322 474 557 535 413 302 287 342
890.0 431 509 473 371 276 227 223 229 215 190
930.0 138 84 57 48 47 52 56 61 52 43
970.0 37 36 26 23 21 30 46 65 81 85
1010.0 94 97 112 140 178 199 204 197 186 193
1050.0 224 257 282 292 297 335 444 547 576 509
1090.0 386 284 231 213 208 196 189 185 167 162
1130.0 144 143 153 160 176 198 238 276 282 266
1170.0 215 170 128 102 95 99 114 152 218 289
1210.0 344 353 311 259 215 189 189 222 271 325
1250.0 348 348 351 409 524 669 786 816 757 637
1290.0 551 481 457 484 558 641 744 839 949 1083
1330.0 1308 1645 2049 2614 3379 4321 5210 5586 5210 4252
1370.0 3282 2433 1864 1574 1469 1362 1257 1001 758 643
1410.0 571 541 457 462 466 512 544 636 755 891
1450.0 1024 1140 1211 1309 1342 1278 1131 1012 975 995
1490.0 1133 1368 1552 1718 1867 2078 2362 2690 3154 3881
1530.0 4922 6526 8493 9972 10000 8553 6303 4553 3597 3080
1570.0 2653 2215 1768 1355 1037 778 607 488 428 379
1610.0 348 325 289 281 232 214 157 127 127 115
1650.0 79 72 67 55 43 36 16 41 9 6
1690.0 17 28 3 21 52 87 83 50 56 54
1730.0 38 18 45 43 32 16 25 21 27 49
1770.0 56 76 103 97 83 61 42 33 14 24
1810.0 14 13 14 9 7 0 11 21 13 10
1850.0 24 35 33 30 19 8 20 23 21 21
1890.0 22 31 47 63 82 96 93 77 51 37
1930.0 30 23 22 16 16 20 18 18 18 13
1970.0 15 16 18 18 22 14 15 19 24 23
2010.0 22 18 15 15 16 15 15 13 12 11
2050.0 14 12 12 12 10 11 13 15 14 14
2090.0 11 9 10 8 11 10 9 6 7 10
2130.0 8 9 8 9 6 5 5 5 7 4
2170.0 3 2 0 2 3 5 8 5 3 6
2210.0 6 6 6 5 10 8 11 12 10 11
2250.0 13 12 12 11 10 11 11 11 15 19
2290.0 20 18 16 19 21 20 18 19 19 19
2330.0 20 17 19 25 22 25 20 25 14 11
2370.0 19 18 19 21 21 21 22 26 26 31
2410.0 33 36 38 37 34 35 37 32 32 27
2450.0 26 26 27 22 26 27 26 24 22 22
2490.0 23 23 20 20 19 19 19 13 12 15
2530.0 12 13 11 13 17 18 17 22 20 25
2570.0 28 32 37 45 52 57 59 57 58 55
2610.0 46 42 44 42 39 44 45 44 42 41
2650.0 39 36 34 34 34 37 35 34 37 40
2690.0 37 40 40 43 46 45 48 51 54 66
2730.0 71 75 76 81 82 89 91 95 96 95
2770.0 82 72 71 69 69 69 74 83 87 94
2810.0 107 123 135 149 159 174 190 211 233 263
2850.0 303 352 417 495 603 761 991 1254 1478 1553
2890.0 1469 1364 1302 1296 1319 1337 1333 1325 1343 1413
2930.0 1555 1773 2057 2301 2335 2219 2039 2019 2581 3981
2970.0 5505 6403 5771 4084 2580 1688 1275 1015 814 645
3010.0 530 463 440 437 483 560 633 651 612 536
3050.0 476 469 513 566 590 570 508 431 357 296
3090.0 233 185 145 119 112 103 102 87 82 75
3130.0 72 65 62 61 54 54 47 51 55 57
3170.0 58 62 66 71 70 75 77 74 70 70
3210.0 66 59 56 47 50 48 41 37 40 34
3250.0 35 33 31 22 31 26 20 23 22 22
3290.0 24 26 21 21 21 20 19 22 20 25
3330.0 21 19 24 22 25 17 20 32 31 28
3370.0 31 30 28 27 24 30 33 31 31 31
3410.0 28 26 34 33 30 38 31 27 25 31
3450.0 25 23 23 28 20 19 21 24 26 23
3490.0 28 26 26 28 32 26 30 25 34 30
3530.0 28 24 17 24 18 25 28 24 32 25
3570.0 21 22 24 26 24 17 23 24 18 14
3610.0 21 26 21 18 14 18 13 10 18 18
3650.0 18 17 18 11 17 8 6 12 10 6
3690.0 17 12 17 13 13 22 25 16 20 17
3730.0 10 8 15 8 17 20 16 7 11 5
3770.0 8 10 6 3 8 15 10 12 13 19
3810.0 18 21 18 24 25 27 23 25 22 23
3850.0 16 24 17 20 10 12 13 21 12 14
3890.0 19 18 6 27 30 18 20 19 14 19
3930.0 23 34 22 17 17 22 20 18 32 25
##END=
