##TITLE=Benzoic acid, p-nitro-, 2-chloroethyl ester
##JCAMP-DX=4.24
##DATA TYPE=INFRARED SPECTRUM
##ORIGIN=Sadtler Research Labs Under US-EPA Contract
##OWNER=NIST Standard Reference Data Program
##CAS REGISTRY NO=949-03-1
##MOLFORM=C 9 H 8 Cl N O 4
##XUNITS=1/CM
##YUNITS=ABSORBANCE
##XFACTOR=1.0
##YFACTOR=0.000079950
##DELTAX=4.0
##FIRSTX=450.0
##LASTX=3966.0
##FIRSTY=0.000000
##MAXX=3966
##MINX=450
##MAXY=0.7995
##MINY=0
##NPOINTS=880
##XYDATA=(X++(Y..Y))
450.0 0 68 134 134 173 212 262 295 315 291
490.0 298 300 268 325 298 293 279 247 194 156
530.0 149 125 141 148 162 143 110 111 108 105
570.0 118 113 126 126 108 100 94 102 93 104
610.0 79 90 83 89 82 81 95 94 97 104
650.0 102 104 113 164 195 306 318 326 333 300
690.0 243 187 204 281 479 809 1189 1617 1648 1317
730.0 931 618 422 348 305 301 333 389 431 439
770.0 447 429 435 458 445 402 405 408 435 512
810.0 579 637 633 603 563 549 564 626 769 877
850.0 916 934 1009 1015 977 905 784 587 416 288
890.0 217 182 164 156 147 137 127 124 135 131
930.0 148 137 130 141 153 183 221 285 354 412
970.0 372 318 252 220 205 189 216 227 285 344
1010.0 609 1241 1674 1248 552 367 352 341 363 393
1050.0 424 460 510 567 638 698 761 854 999 1284
1090.0 1787 2715 4021 4673 4248 3879 4009 3785 2937 1965
1130.0 1239 851 634 508 426 380 352 340 356 391
1170.0 462 499 461 374 342 357 403 486 559 582
1210.0 567 582 637 752 977 1360 1818 2102 2137 2269
1250.0 3070 4665 6747 8452 9708 10000 8955 6411 3807 2288
1290.0 1653 1434 1447 1551 1601 1570 1442 1254 1089 1029
1330.0 1092 1238 1465 1732 2118 2495 2592 2302 1880 1489
1370.0 1170 953 869 865 856 786 680 545 481 517
1410.0 630 613 495 342 302 311 369 463 511 506
1450.0 473 453 441 427 391 382 355 350 373 384
1490.0 398 411 419 410 431 504 566 728 929 1255
1530.0 1630 2251 3047 3727 3987 3489 2617 1816 1288 1015
1570.0 844 746 732 748 811 838 894 961 1050 1064
1610.0 997 864 691 543 412 351 286 263 224 225
1650.0 156 180 148 119 132 152 142 195 178 194
1690.0 197 214 230 305 337 389 409 457 525 694
1730.0 900 1332 2082 3118 4316 4965 4799 3753 2480 1546
1770.0 952 646 475 417 345 326 294 288 284 284
1810.0 258 228 195 157 155 130 134 123 124 114
1850.0 108 102 99 93 87 85 81 83 83 80
1890.0 80 78 85 82 88 94 94 110 108 124
1930.0 130 141 145 149 142 126 113 97 89 84
1970.0 78 76 76 74 71 74 73 67 68 66
2010.0 70 73 71 67 70 71 74 73 75 76
2050.0 76 81 86 89 91 92 94 97 95 93
2090.0 93 91 91 84 84 83 82 82 82 84
2130.0 82 77 76 74 71 68 66 66 67 67
2170.0 67 66 68 66 67 70 72 71 77 75
2210.0 75 76 77 74 71 76 74 73 74 78
2250.0 81 79 83 83 84 88 100 110 119 133
2290.0 147 168 188 198 212 241 211 195 201 172
2330.0 154 142 121 150 223 198 235 178 209 190
2370.0 193 176 211 207 169 116 96 89 85 87
2410.0 81 84 80 83 81 79 80 78 78 79
2450.0 82 82 83 82 80 80 81 77 78 79
2490.0 77 78 81 80 78 79 78 79 79 80
2530.0 82 79 77 78 78 76 76 80 81 81
2570.0 83 82 80 81 78 80 81 81 82 80
2610.0 84 81 87 81 82 80 81 79 81 83
2650.0 84 85 82 83 88 88 91 93 97 101
2690.0 104 103 107 110 110 110 107 105 108 102
2730.0 101 101 94 98 100 98 99 99 96 98
2770.0 96 95 97 95 95 97 95 98 95 95
2810.0 98 99 103 108 113 117 122 127 132 137
2850.0 151 160 170 183 194 198 205 210 218 229
2890.0 242 254 251 240 221 199 198 194 195 194
2930.0 205 220 239 261 302 362 425 457 462 512
2970.0 563 553 506 470 411 328 278 255 238 239
3010.0 253 261 245 214 184 163 150 138 133 130
3050.0 132 143 150 158 151 134 131 135 134 133
3090.0 131 133 126 123 123 120 121 118 117 106
3130.0 106 108 102 103 101 102 97 96 95 97
3170.0 94 97 90 95 96 94 93 93 95 94
3210.0 92 92 90 90 95 94 88 92 90 89
3250.0 91 87 90 87 83 83 83 78 87 88
3290.0 81 81 74 80 76 77 77 73 74 72
3330.0 75 75 75 75 72 76 81 77 73 74
3370.0 77 71 75 78 74 83 80 78 78 77
3410.0 79 89 87 85 77 76 81 88 86 84
3450.0 84 89 89 93 95 111 109 109 118 122
3490.0 103 95 94 88 92 83 84 83 87 92
3530.0 87 79 88 80 91 98 82 96 85 112
3570.0 117 85 108 94 124 112 100 97 90 91
3610.0 106 94 88 95 91 114 111 80 101 92
3650.0 101 97 93 109 76 110 80 111 76 99
3690.0 83 93 84 90 89 87 97 93 83 97
3730.0 88 110 108 88 151 69 109 82 83 90
3770.0 79 86 70 95 73 83 78 85 69 96
3810.0 67 87 73 99 81 71 90 85 66 90
3850.0 90 90 101 83 83 90 76 70 85 108
3890.0 74 86 69 120 92 97 72 103 85 79
3930.0 109 93 97 96 112 91 86 70 98 90
##END=
