##TITLE=5-Norbornene-2-methanol
##JCAMP-DX=4.24
##DATA TYPE=INFRARED SPECTRUM
##ORIGIN=Sadtler Research Labs Under US-EPA Contract
##OWNER=NIST Standard Reference Data Program
##CAS REGISTRY NO=95-12-5
##MOLFORM=C 8 H 12 O
##XUNITS=1/CM
##YUNITS=ABSORBANCE
##XFACTOR=1.0
##YFACTOR=0.000058191
##DELTAX=4.0
##FIRSTX=450.0
##LASTX=3966.0
##FIRSTY=0.003026
##MAXX=3966
##MINX=450
##MAXY=0.58191
##MINY=0
##NPOINTS=880
##XYDATA=(X++(Y..Y))
450.0 52 56 54 42 14 5 12 6 10 20
490.0 29 47 92 121 121 123 140 169 211 265
530.0 308 331 280 320 263 210 143 127 112 124
570.0 107 144 138 144 168 161 207 171 121 128
610.0 98 110 80 70 85 76 79 85 90 95
650.0 168 126 156 116 107 105 49 85 125 217
690.0 404 697 1095 1590 2231 3047 3292 3290 2746 2469
730.0 1613 712 332 195 113 110 106 125 145 167
770.0 184 211 245 243 210 205 85 106 104 137
810.0 200 285 374 442 488 515 487 389 306 237
850.0 201 177 168 156 134 132 117 121 148 192
890.0 271 359 452 521 585 589 595 610 630 608
930.0 613 581 545 493 470 489 521 580 635 719
970.0 799 834 865 868 881 916 985 1092 1262 1507
1010.0 1863 2382 3043 3740 4384 4721 4735 4391 3785 3124
1050.0 2544 2223 2062 2006 1866 1672 1439 1213 1037 927
1090.0 804 709 555 494 432 393 406 453 504 584
1130.0 652 731 789 822 810 792 741 689 646 603
1170.0 579 568 559 539 546 539 555 572 590 608
1210.0 626 626 635 626 642 648 658 685 724 783
1250.0 816 845 839 830 787 718 657 598 542 494
1290.0 454 437 414 402 411 435 469 530 601 715
1330.0 837 971 1121 1242 1269 1219 1106 977 847 745
1370.0 742 811 890 948 953 908 818 700 582 492
1410.0 415 364 329 303 277 285 314 365 437 507
1450.0 566 623 626 617 600 573 524 465 386 294
1490.0 215 138 98 75 62 53 45 39 37 31
1530.0 29 37 29 29 48 56 68 84 113 153
1570.0 174 193 169 142 117 82 66 67 83 94
1610.0 111 142 162 185 194 193 188 161 144 110
1650.0 85 50 43 32 28 19 20 10 21 10
1690.0 13 12 13 5 4 4 14 7 17 21
1730.0 35 43 52 61 62 62 53 36 28 21
1770.0 26 19 25 19 24 26 18 26 43 35
1810.0 35 26 33 26 26 16 22 16 10 18
1850.0 15 16 17 7 8 8 7 16 15 15
1890.0 9 17 14 15 14 15 5 5 15 13
1930.0 11 6 6 5 10 9 6 14 11 12
1970.0 13 11 11 11 20 30 29 19 18 28
2010.0 34 36 43 36 52 52 53 59 63 71
2050.0 75 76 80 79 76 67 59 49 41 41
2090.0 41 41 38 23 24 24 14 23 14 7
2130.0 14 7 15 22 25 21 31 26 31 29
2170.0 31 37 30 38 45 37 46 46 38 37
2210.0 37 38 38 28 28 29 28 20 19 19
2250.0 19 19 17 11 16 10 11 18 21 5
2290.0 15 17 12 14 14 18 19 10 3 5
2330.0 12 1 0 7 16 14 10 17 1 7
2370.0 30 38 17 28 28 24 25 24 22 15
2410.0 16 17 17 24 21 28 21 26 17 17
2450.0 17 17 19 19 19 20 28 14 21 20
2490.0 26 19 20 20 20 20 21 21 29 30
2530.0 33 32 38 33 40 40 39 39 41 31
2570.0 31 31 35 38 32 47 41 47 51 42
2610.0 42 44 50 43 44 51 49 51 54 56
2650.0 55 61 65 63 53 62 53 54 72 63
2690.0 63 72 82 84 90 96 96 105 113 124
2730.0 125 133 140 160 159 153 162 171 174 185
2770.0 178 185 200 202 219 236 228 221 231 236
2810.0 236 237 252 275 278 311 345 388 443 558
2850.0 711 954 1358 1921 2654 3455 4170 4667 4718 4344
2890.0 3867 3346 2918 2679 2636 2732 2944 3198 3490 3790
2930.0 4109 4480 4920 5429 5987 6320 6716 7113 7680 8373
2970.0 9028 9655 10000 9111 7661 6078 4548 2704 1549 931
3010.0 602 389 276 203 167 159 165 184 223 335
3050.0 515 808 1190 1525 1788 1879 1767 1426 1045 671
3090.0 378 215 134 117 100 92 101 111 122 147
3130.0 171 193 232 236 233 206 172 139 104 70
3170.0 62 53 52 51 32 33 30 36 30 30
3210.0 30 30 22 30 38 31 31 30 27 36
3250.0 26 18 30 46 14 21 30 30 30 14
3290.0 31 27 50 35 27 8 20 38 44 62
3330.0 55 43 39 38 54 58 58 52 57 41
3370.0 30 44 36 34 34 35 36 55 40 50
3410.0 59 52 47 57 64 66 58 57 57 66
3450.0 55 62 86 79 70 70 79 61 71 85
3490.0 68 58 59 52 51 51 45 44 49 43
3530.0 54 50 37 37 38 56 62 50 60 50
3570.0 43 51 51 41 31 41 48 48 56 46
3610.0 57 74 89 129 158 175 201 254 302 386
3650.0 516 637 791 921 1006 1014 941 811 632 466
3690.0 307 199 143 108 72 62 71 60 62 60
3730.0 59 67 71 57 57 46 45 62 44 60
3770.0 51 55 52 43 57 59 57 47 66 61
3810.0 66 73 75 73 62 71 70 69 68 75
3850.0 68 80 97 96 97 95 110 100 93 93
3890.0 98 90 91 87 86 84 73 74 73 63
3930.0 62 78 76 74 75 67 70 79 84 91
##END=
