##TITLE=Indene
##JCAMP-DX=4.24
##DATA TYPE=INFRARED SPECTRUM
##ORIGIN=Sadtler Research Labs Under US-EPA Contract
##OWNER=NIST Standard Reference Data Program
##CAS REGISTRY NO=95-13-6
##MOLFORM=C 9 H 8
##XUNITS=1/CM
##YUNITS=ABSORBANCE
##XFACTOR=1.0
##YFACTOR=0.000075800
##DELTAX=4.0
##FIRSTX=450.0
##LASTX=3966.0
##FIRSTY=0.002426
##MAXX=3966
##MINX=450
##MAXY=0.758
##MINY=0
##NPOINTS=880
##XYDATA=(X++(Y..Y))
450.0 32 68 59 50 49 72 68 114 80 55
490.0 66 88 0 70 107 98 84 122 143 262
530.0 372 494 569 684 1157 619 374 358 348 206
570.0 181 162 194 206 157 47 166 169 120 86
610.0 62 98 83 65 76 72 41 65 24 35
650.0 49 67 128 187 368 785 1017 1221 1446 1888
690.0 3475 1641 2127 2493 2607 2532 3131 5358 2386 2448
730.0 2453 2183 2034 2493 3781 4354 5346 5864 7266 10000
770.0 4591 4334 3593 2345 1044 342 82 22 38 66
810.0 113 163 256 290 252 299 257 248 214 233
850.0 328 488 451 554 508 536 359 210 197 236
890.0 286 354 497 664 792 941 1362 1552 1098 1266
930.0 1168 1338 1621 1552 1320 1150 1139 652 262 121
970.0 76 82 103 60 56 56 86 104 166 337
1010.0 601 682 684 593 670 478 190 124 150 134
1050.0 125 143 187 245 228 181 242 198 128 110
1090.0 125 144 185 227 259 310 348 355 396 484
1130.0 281 289 260 226 193 210 256 289 326 316
1170.0 350 348 283 228 210 181 203 266 274 260
1210.0 403 458 524 530 514 510 532 457 355 317
1250.0 302 302 319 226 169 143 154 164 167 162
1290.0 202 264 293 307 329 374 373 392 404 352
1330.0 331 342 293 266 288 323 379 391 354 419
1370.0 469 404 371 422 571 843 1270 1669 1425 1285
1410.0 1613 1211 663 340 204 157 155 271 509 880
1450.0 1323 1639 1889 1917 1946 1564 1319 915 514 281
1490.0 181 132 102 78 67 22 43 41 59 74
1530.0 82 119 143 164 223 299 308 342 334 318
1570.0 235 210 199 176 170 196 257 376 577 741
1610.0 805 793 789 763 536 367 258 200 146 118
1650.0 77 120 97 113 151 205 241 298 325 325
1690.0 311 268 221 157 113 90 80 68 59 71
1730.0 79 76 74 88 70 65 77 101 110 140
1770.0 163 184 198 228 259 251 232 230 230 217
1810.0 216 230 245 246 233 232 206 193 196 212
1850.0 248 266 280 264 245 223 241 229 215 196
1890.0 230 220 204 206 181 148 145 161 167 191
1930.0 240 260 258 229 214 136 54 19 11 14
1970.0 8 10 10 11 2 7 6 8 10 8
2010.0 18 8 23 23 25 41 49 47 62 59
2050.0 60 64 55 46 46 47 47 48 47 47
2090.0 37 36 32 23 22 17 23 16 32 30
2130.0 37 31 38 44 38 38 32 28 37 32
2170.0 34 44 44 44 44 43 37 28 28 26
2210.0 24 42 30 37 32 44 42 50 58 58
2250.0 58 58 56 42 43 43 35 35 37 37
2290.0 46 48 58 65 70 79 86 79 59 60
2330.0 50 58 49 42 58 40 43 25 24 44
2370.0 53 50 47 44 32 31 24 23 14 17
2410.0 16 30 34 40 30 34 37 37 38 38
2450.0 44 37 44 38 38 30 36 34 34 37
2490.0 32 34 36 36 36 37 36 36 43 43
2530.0 43 43 40 44 44 40 50 58 49 66
2570.0 49 49 43 43 41 42 47 46 50 36
2610.0 35 34 35 10 10 17 12 17 16 1
2650.0 12 10 25 31 40 56 56 58 49 55
2690.0 49 46 48 32 50 53 44 56 50 52
2730.0 52 43 50 60 59 58 67 72 70 86
2770.0 119 163 233 329 418 389 349 383 306 211
2810.0 142 97 79 68 68 71 70 61 70 62
2850.0 71 92 90 98 115 121 150 206 319 541
2890.0 913 1474 2044 2148 2262 2588 2328 2615 1606 1050
2930.0 853 624 426 271 197 173 167 167 173 169
2970.0 160 162 172 154 156 172 218 295 449 667
3010.0 977 1325 1685 1962 2259 2457 2225 2207 2253 2063
3050.0 2110 2495 3096 3875 4887 5719 5981 5935 5844 5072
3090.0 3874 2568 1695 1144 859 721 675 633 588 571
3130.0 512 467 431 419 427 390 347 254 160 102
3170.0 88 71 54 65 53 56 56 54 52 49
3210.0 52 58 50 50 37 41 37 41 38 32
3250.0 26 38 35 37 35 37 37 37 53 42
3290.0 53 56 89 96 80 86 112 78 71 62
3330.0 54 76 55 55 44 32 52 43 59 49
3370.0 48 48 41 34 49 41 38 31 59 58
3410.0 44 34 19 36 52 37 42 35 34 36
3450.0 47 42 50 48 55 30 25 7 20 42
3490.0 36 28 5 34 19 22 42 20 24 16
3530.0 30 52 23 7 24 30 52 48 26 40
3570.0 62 58 48 62 54 84 59 48 53 55
3610.0 35 59 44 59 20 48 38 55 43 56
3650.0 55 62 60 64 55 66 50 68 80 58
3690.0 55 55 56 61 54 37 50 50 41 43
3730.0 40 48 76 49 67 52 84 65 64 46
3770.0 18 38 18 29 26 34 34 38 52 55
3810.0 65 48 32 59 59 26 16 32 29 47
3850.0 50 48 61 48 61 60 25 25 50 68
3890.0 37 64 66 79 80 79 86 91 103 116
3930.0 131 128 109 106 92 76 53 38 40 41
##END=
