##TITLE=Benzothiazole
##JCAMP-DX=4.24
##DATA TYPE=INFRARED SPECTRUM
##ORIGIN=Sadtler Research Labs Under US-EPA Contract
##OWNER=NIST Standard Reference Data Program
##CAS REGISTRY NO=95-16-9
##MOLFORM=C 7 H 5 N S
##XUNITS=1/CM
##YUNITS=ABSORBANCE
##XFACTOR=1.0
##YFACTOR=0.000067450
##DELTAX=4.0
##FIRSTX=450.0
##LASTX=3966.0
##FIRSTY=0.004789
##MAXX=3966
##MINX=450
##MAXY=0.6745
##MINY=0
##NPOINTS=880
##XYDATA=(X++(Y..Y))
450.0 71 65 196 170 277 187 217 121 92 163
490.0 121 196 167 101 88 164 178 148 260 330
530.0 307 260 325 242 148 83 103 70 22 34
570.0 38 152 126 143 108 192 301 265 324 317
610.0 426 343 426 330 356 301 538 725 662 627
650.0 639 973 1214 1281 1157 1392 1128 693 613 474
690.0 538 458 677 760 1503 2166 3346 4219 4187 6037
730.0 7583 3713 5331 5564 5792 5768 8186 10000 5314 5352
770.0 4218 2697 1553 1358 1980 3045 4695 4428 4408 5606
810.0 5073 3618 3217 4736 4363 2492 2905 2208 1857 1730
850.0 1878 3053 4157 5398 8015 6358 5462 7303 4554 2551
890.0 1448 705 465 235 330 292 324 300 335 370
930.0 316 412 674 440 314 380 315 298 255 273
970.0 270 192 184 111 131 116 186 268 580 1085
1010.0 1259 1276 1090 1013 556 213 156 191 293 447
1050.0 614 728 987 1457 1788 1757 1903 1972 1607 1131
1090.0 807 765 470 667 834 816 909 1482 1471 1545
1130.0 1293 1113 720 510 435 510 591 464 554 569
1170.0 483 353 278 277 322 498 659 716 741 757
1210.0 574 315 205 173 163 176 223 246 251 264
1250.0 255 320 473 668 871 985 1036 1303 1790 2031
1290.0 2265 2632 2909 2812 2430 2460 2073 2218 1931 1183
1330.0 900 681 602 489 453 418 274 222 224 201
1370.0 148 147 138 170 261 398 623 776 932 1085
1410.0 1458 2140 3356 4561 5270 4911 5231 4314 3100 2860
1450.0 3653 4315 4212 5537 7465 8112 7391 6459 6482 5779
1490.0 3363 1792 941 465 363 272 242 250 246 293
1530.0 288 361 436 597 656 736 801 822 756 718
1570.0 761 696 654 628 687 686 644 611 614 641
1610.0 518 426 373 356 370 612 965 1166 1198 1085
1650.0 980 716 344 351 386 482 488 474 501 519
1690.0 467 414 412 315 227 133 133 135 187 209
1730.0 320 431 574 701 855 1026 1122 1193 1106 1034
1770.0 925 1314 1040 943 1333 1667 1683 1598 1243 867
1810.0 591 444 391 354 333 273 231 140 76 54
1850.0 42 38 61 110 162 204 199 196 194 152
1890.0 144 212 311 379 386 362 398 328 227 205
1930.0 255 351 410 414 380 322 204 89 38 29
1970.0 29 25 28 19 24 20 29 22 22 19
2010.0 14 9 10 18 6 6 5 6 6 8
2050.0 3 3 4 1 5 0 5 8 20 24
2090.0 24 31 28 28 22 31 29 23 22 20
2130.0 25 41 43 46 48 46 46 43 52 61
2170.0 65 65 59 64 56 57 45 47 42 41
2210.0 46 57 70 70 74 64 61 65 70 69
2250.0 69 76 66 71 80 92 105 112 107 111
2290.0 97 78 79 71 85 98 122 113 115 101
2330.0 101 88 76 75 66 96 69 60 33 68
2370.0 46 47 61 54 51 43 47 36 36 22
2410.0 17 17 10 22 25 31 31 32 23 24
2450.0 15 14 22 28 45 46 60 56 70 65
2490.0 59 56 38 27 9 14 3 9 6 3
2530.0 9 17 29 32 45 47 60 48 43 42
2570.0 46 47 47 51 55 41 28 29 31 50
2610.0 69 75 93 101 97 85 66 50 36 28
2650.0 31 36 32 34 36 34 27 27 24 24
2690.0 23 27 29 31 27 32 32 27 36 41
2730.0 48 45 47 47 42 50 47 50 48 55
2770.0 57 65 69 71 70 68 62 52 36 24
2810.0 20 20 23 27 33 40 47 57 70 76
2850.0 93 115 130 145 163 171 194 205 214 245
2890.0 264 273 268 282 272 269 250 247 255 261
2930.0 265 270 261 254 228 203 195 186 176 163
2970.0 171 159 163 180 208 238 273 311 335 359
3010.0 352 351 367 394 478 612 760 848 909 934
3050.0 952 1044 1419 2092 3039 3946 4495 4687 4489 3909
3090.0 2667 1889 1551 1115 765 577 507 474 455 402
3130.0 340 235 140 91 55 55 37 36 25 24
3170.0 24 23 24 28 27 29 29 14 24 22
3210.0 14 15 15 22 20 20 22 27 23 27
3250.0 18 23 17 18 22 23 18 10 28 27
3290.0 31 31 23 23 20 24 17 11 17 20
3330.0 27 22 22 18 19 15 20 18 24 23
3370.0 18 14 20 11 25 25 10 25 27 18
3410.0 24 32 32 22 50 24 31 15 25 17
3450.0 29 19 19 8 15 34 28 19 38 40
3490.0 37 52 42 52 61 61 76 66 87 82
3530.0 98 122 116 141 154 157 148 156 127 131
3570.0 127 125 121 156 159 167 162 129 152 119
3610.0 120 99 99 85 57 82 57 59 41 37
3650.0 51 23 25 25 23 20 24 41 19 34
3690.0 24 4 25 45 41 23 38 43 25 41
3730.0 14 43 45 76 38 66 64 60 42 37
3770.0 40 55 61 52 47 52 56 54 46 24
3810.0 31 31 5 51 31 41 23 50 29 41
3850.0 32 69 78 60 96 106 120 120 115 112
3890.0 115 85 64 68 87 56 66 57 73 54
3930.0 82 103 108 97 135 147 136 88 96 85
##END=
