##TITLE=Benzo[b]thiophene
##JCAMP-DX=4.24
##DATA TYPE=INFRARED SPECTRUM
##ORIGIN=Sadtler Research Labs Under US-EPA Contract
##OWNER=NIST Standard Reference Data Program
##CAS REGISTRY NO=95-15-8
##MOLFORM=C 8 H 6 S
##XUNITS=1/CM
##YUNITS=ABSORBANCE
##XFACTOR=1.0
##YFACTOR=0.000102762
##DELTAX=4.0
##FIRSTX=450.0
##LASTX=3966.0
##FIRSTY=0.037508
##MAXX=3966
##MINX=450
##MAXY=1.02762
##MINY=0
##NPOINTS=880
##XYDATA=(X++(Y..Y))
450.0 365 351 688 554 1164 1604 947 705 685 501
490.0 293 235 168 134 107 198 150 191 236 218
530.0 361 366 571 480 727 621 960 1363 948 471
570.0 621 424 275 139 82 149 62 128 90 136
610.0 69 53 107 37 90 0 138 32 143 144
650.0 258 369 542 983 923 2012 2653 3839 3266 5678
690.0 7690 4281 3935 3690 3039 2262 2190 2542 3066 3064
730.0 4809 7526 5729 5422 6835 7209 6622 9795 10000 6116
770.0 5582 4792 3391 2270 1815 2336 2257 2168 2210 2243
810.0 1388 806 650 485 455 373 443 312 370 475
850.0 674 882 1359 1755 1651 1749 1646 1656 1056 661
890.0 498 443 317 230 206 200 322 354 402 402
930.0 520 543 400 323 285 263 189 196 168 150
970.0 117 141 114 92 109 85 152 279 649 967
1010.0 1156 1140 1114 989 711 445 426 559 719 1135
1050.0 1401 1341 1164 1339 1119 710 524 676 1168 1373
1090.0 1461 1598 1619 1361 765 487 278 187 290 373
1130.0 469 440 475 486 500 602 770 794 750 807
1170.0 720 431 249 236 268 385 517 683 849 748
1210.0 697 781 599 356 239 155 165 198 314 509
1250.0 801 1003 991 946 955 779 428 266 182 155
1290.0 164 202 275 342 471 586 696 702 650 589
1330.0 575 567 570 589 541 518 403 318 302 398
1370.0 509 552 570 529 580 493 559 659 875 1263
1410.0 1956 2672 2963 2739 2982 2719 2051 1326 1230 1369
1450.0 1849 2036 1992 1977 1898 1349 650 366 374 365
1490.0 416 403 433 369 325 242 182 149 128 177
1530.0 163 183 211 274 359 446 726 876 1091 1095
1570.0 1151 1097 889 605 589 506 471 381 380 316
1610.0 265 232 218 202 229 328 386 364 368 354
1650.0 356 244 318 301 316 299 280 215 198 210
1690.0 236 240 222 218 165 138 131 196 213 235
1730.0 266 280 293 321 378 427 474 457 503 541
1770.0 514 471 422 422 399 335 290 289 323 359
1810.0 371 342 313 250 182 110 85 78 75 87
1850.0 102 152 191 229 239 250 232 225 235 275
1890.0 341 364 379 362 360 312 270 274 326 394
1930.0 429 419 374 308 203 116 68 64 62 67
1970.0 61 54 57 51 59 58 69 63 71 71
2010.0 76 68 67 67 54 54 47 45 39 40
2050.0 40 44 53 56 63 61 68 57 64 58
2090.0 57 53 51 56 58 61 58 58 51 47
2130.0 42 47 51 56 61 56 62 54 52 47
2170.0 61 71 78 82 82 86 75 68 59 56
2210.0 56 53 53 47 52 44 43 40 49 57
2250.0 67 77 83 90 90 95 88 97 101 110
2290.0 112 125 129 123 125 119 114 91 93 86
2330.0 72 64 71 66 51 85 62 81 58 75
2370.0 76 95 92 100 102 100 101 91 87 80
2410.0 76 67 66 72 68 67 64 62 54 54
2450.0 48 52 45 53 57 54 58 47 40 34
2490.0 30 23 24 32 35 43 39 47 40 40
2530.0 39 47 49 61 73 69 72 66 62 47
2570.0 43 43 43 47 49 57 63 76 83 96
2610.0 109 126 133 126 125 111 105 86 83 73
2650.0 83 80 78 66 57 49 38 29 25 28
2690.0 23 24 23 27 27 25 27 19 28 21
2730.0 20 20 16 18 19 24 19 23 16 20
2770.0 15 14 11 18 15 14 15 15 16 13
2810.0 18 15 20 20 23 29 33 40 33 35
2850.0 35 32 29 34 38 51 62 76 86 97
2890.0 111 130 140 147 155 152 135 125 102 88
2930.0 73 63 57 58 59 58 61 64 71 71
2970.0 86 107 126 162 207 269 321 392 453 523
3010.0 585 687 802 912 1005 1104 1226 1316 1392 1490
3050.0 1743 2290 3194 4202 4886 5393 5683 5592 4608 3512
3090.0 2873 2307 1601 1140 938 841 720 647 613 469
3130.0 322 212 134 86 58 54 47 48 34 45
3170.0 44 44 49 51 45 45 44 34 29 23
3210.0 24 16 21 16 24 20 19 19 21 25
3250.0 23 25 21 32 24 25 27 28 14 18
3290.0 24 25 28 23 24 19 15 25 16 20
3330.0 20 27 23 23 27 24 23 20 32 24
3370.0 23 23 25 16 19 27 27 28 24 23
3410.0 18 25 19 14 19 25 19 19 24 16
3450.0 20 18 25 18 29 28 18 32 29 29
3490.0 15 24 20 20 18 20 24 15 25 23
3530.0 27 21 35 32 34 35 47 23 39 44
3570.0 35 52 27 49 30 66 52 39 45 33
3610.0 59 29 48 37 28 63 32 68 49 44
3650.0 66 39 47 21 47 24 45 44 34 51
3690.0 34 64 51 73 58 32 52 64 56 85
3730.0 73 102 81 152 54 153 109 106 120 96
3770.0 97 92 120 96 104 63 73 44 85 38
3810.0 48 30 39 68 33 49 30 51 57 42
3850.0 47 52 78 58 101 80 77 63 91 40
3890.0 97 63 109 81 99 88 109 114 105 144
3930.0 144 170 170 144 136 143 119 106 82 83
##END=
