##TITLE=1H-Indole, 2-methyl-
##JCAMP-DX=4.24
##DATA TYPE=INFRARED SPECTRUM
##ORIGIN=Sadtler Research Labs Under US-EPA Contract
##OWNER=NIST Standard Reference Data Program
##CAS REGISTRY NO=95-20-5
##MOLFORM=C 9 H 9 N
##XUNITS=1/CM
##YUNITS=ABSORBANCE
##XFACTOR=1.0
##YFACTOR=0.000045081
##DELTAX=4.0
##FIRSTX=450.0
##LASTX=3966.0
##FIRSTY=0.020602
##MAXX=3966
##MINX=450
##MAXY=0.45081
##MINY=0
##NPOINTS=880
##XYDATA=(X++(Y..Y))
450.0 457 376 225 239 384 322 318 285 308 351
490.0 520 415 456 480 502 492 478 457 376 393
530.0 389 264 314 357 302 381 369 397 389 427
570.0 408 371 312 315 364 404 649 925 1477 1890
610.0 2624 3081 3275 4222 2540 2072 1710 1153 849 571
650.0 571 420 472 288 197 245 137 79 69 133
690.0 91 176 150 306 525 989 1704 2671 3626 4850
730.0 7173 8934 7040 7167 8415 6557 4969 4901 4889 5346
770.0 6316 7213 8759 10000 8933 7408 6640 5650 4730 4000
810.0 3459 3101 2714 2495 2264 2067 1780 1644 1276 1026
850.0 846 698 524 429 353 223 164 127 164 164
890.0 279 347 403 490 545 560 485 519 455 274
930.0 175 98 49 14 1 26 77 151 265 360
970.0 445 507 526 503 477 400 319 315 562 951
1010.0 1132 1092 1139 944 493 260 184 135 154 105
1050.0 124 78 93 62 74 91 88 86 74 145
1090.0 185 246 253 276 261 222 219 226 348 493
1130.0 673 823 1012 1161 1211 1124 1045 1012 846 700
1170.0 523 443 429 439 448 481 579 708 896 972
1210.0 1064 1246 1338 1312 1327 1206 1057 1068 885 674
1250.0 560 608 787 1338 2618 4748 7029 7888 8121 7772
1290.0 5817 3087 1931 1762 1750 1803 1826 2084 2409 2757
1330.0 2758 2797 3002 3040 2863 2489 2465 2191 1811 1278
1370.0 1185 1170 1298 1614 1914 2754 3648 4746 4793 4954
1410.0 4761 4026 2923 2016 1445 1269 1404 1955 3578 5431
1450.0 7143 7211 8061 7289 5479 3964 3265 2679 2334 1855
1490.0 1646 1370 1116 773 621 446 366 531 343 583
1530.0 457 693 757 954 1343 1787 2391 2411 2819 2616
1570.0 2318 1981 1695 1479 1600 1706 1735 1767 1658 1670
1610.0 1857 2213 2328 2219 2035 1464 1010 709 747 820
1650.0 828 794 639 596 346 257 229 222 221 187
1690.0 251 334 303 243 385 483 692 923 1453 1969
1730.0 2556 2527 2650 2349 1907 1266 936 781 648 586
1770.0 456 344 367 464 573 647 574 582 418 236
1810.0 151 64 79 87 121 163 199 234 226 182
1850.0 159 170 184 283 344 345 348 350 333 234
1890.0 158 145 207 311 422 430 406 343 215 58
1930.0 16 16 25 29 26 37 20 23 26 6
1970.0 16 17 26 19 22 22 21 18 23 35
2010.0 27 33 10 15 1 15 4 8 15 23
2050.0 32 25 31 31 44 37 48 50 51 44
2090.0 40 48 37 56 41 44 39 34 22 23
2130.0 25 13 22 11 17 5 17 24 22 23
2170.0 22 20 20 28 13 16 13 18 17 26
2210.0 25 26 25 18 21 5 3 1 8 7
2250.0 7 13 20 36 34 49 43 62 63 87
2290.0 108 130 166 173 206 210 196 177 169 112
2330.0 130 126 122 182 139 227 289 234 261 206
2370.0 180 171 163 151 120 68 43 24 28 23
2410.0 30 37 41 56 58 64 75 86 96 104
2450.0 113 107 118 115 119 120 129 115 111 106
2490.0 87 89 89 109 119 137 135 131 118 104
2530.0 94 109 122 118 124 111 109 90 81 82
2570.0 73 78 85 102 116 163 186 221 236 237
2610.0 231 217 184 147 132 101 82 61 65 55
2650.0 69 72 78 93 105 132 131 125 118 116
2690.0 118 112 107 102 101 81 94 100 120 134
2730.0 156 164 174 190 211 255 286 303 291 277
2770.0 224 164 151 135 145 148 162 173 188 198
2810.0 228 253 271 301 323 365 397 445 512 627
2850.0 750 881 1040 1181 1344 1468 1567 1625 1681 1726
2890.0 1771 1879 2022 2180 2321 2461 2595 2745 2983 3373
2930.0 3725 3901 3875 3631 3229 2854 2383 1874 1558 1348
2970.0 1212 1140 1135 1207 1283 1346 1309 1305 1329 1333
3010.0 1354 1476 1684 1916 2228 2554 2859 3000 3203 3470
3050.0 3764 4180 5089 6108 6491 6380 6103 5086 3706 2965
3090.0 2750 2581 2387 2068 1722 1393 1070 758 542 421
3130.0 344 290 258 253 226 215 188 166 141 122
3170.0 119 118 122 129 126 128 113 124 104 110
3210.0 120 104 98 98 96 110 122 94 90 92
3250.0 66 43 45 30 40 33 43 20 26 6
3290.0 14 9 21 34 16 20 14 34 30 33
3330.0 11 29 9 32 46 30 47 27 46 32
3370.0 33 48 31 43 33 49 25 58 59 56
3410.0 34 74 103 126 170 190 272 342 416 484
3450.0 552 602 665 767 876 1097 1332 1717 1867 2192
3490.0 2736 3402 4443 5381 5178 4621 4982 3844 2171 1230
3530.0 628 338 159 103 158 72 38 69 71 183
3570.0 59 75 78 111 209 119 125 58 88 99
3610.0 147 87 115 60 87 144 64 60 63 164
3650.0 191 95 35 58 66 213 73 175 0 138
3690.0 113 17 51 78 71 108 63 97 161 140
3730.0 143 195 133 163 202 108 143 48 43 60
3770.0 56 26 45 38 43 29 30 108 31 89
3810.0 1 65 1 143 106 69 155 158 119 93
3850.0 187 185 131 145 125 224 144 109 177 128
3890.0 157 56 108 219 106 89 121 137 115 152
3930.0 153 151 150 194 182 213 116 178 140 129
##END=
