##TITLE=Benzothiazole, 2,5-dimethyl-
##JCAMP-DX=4.24
##DATA TYPE=INFRARED SPECTRUM
##ORIGIN=Sadtler Research Labs Under US-EPA Contract
##OWNER=NIST Standard Reference Data Program
##CAS REGISTRY NO=95-26-1
##MOLFORM=C 9 H 9 N S
##XUNITS=1/CM
##YUNITS=ABSORBANCE
##XFACTOR=1.0
##YFACTOR=0.000043256
##DELTAX=4.0
##FIRSTX=450.0
##LASTX=3966.0
##FIRSTY=0.000000
##MAXX=3966
##MINX=450
##MAXY=0.43256
##MINY=0
##NPOINTS=880
##XYDATA=(X++(Y..Y))
450.0 0 229 381 192 110 120 101 121 109 183
490.0 132 241 241 340 402 441 532 680 864 1019
530.0 919 621 548 293 213 127 78 109 71 118
570.0 48 178 105 180 155 299 324 562 809 911
610.0 1546 1482 1149 1456 1539 2043 2905 3688 3733 3450
650.0 3101 1680 896 440 268 283 226 342 579 921
690.0 932 915 749 367 259 217 224 175 147 120
730.0 118 133 147 180 196 238 266 425 605 836
770.0 946 1341 1956 3022 4321 5337 8679 6464 4734 3826
810.0 2194 1143 526 280 219 176 207 164 187 188
850.0 246 361 571 930 1408 1835 2495 2654 1770 1498
890.0 978 596 387 316 345 400 614 883 1261 1664
930.0 1794 1687 1537 1066 722 602 536 568 604 737
970.0 882 1080 1228 1340 1382 1418 1490 1559 1604 1569
1010.0 1459 1230 1026 868 819 851 971 1111 1267 1408
1050.0 1575 1947 2446 2708 2713 2497 1837 1267 1063 866
1090.0 671 540 476 429 408 399 430 506 683 1000
1130.0 1461 2059 2769 3676 4750 6638 8216 8762 9533 9588
1170.0 9388 9011 8420 7626 5238 3126 1831 1030 659 469
1210.0 409 416 437 432 438 473 575 913 1405 1835
1250.0 2156 2067 1669 1321 1119 1089 1163 1328 1448 1627
1290.0 2090 2595 2853 2791 2646 2136 1525 1154 930 844
1330.0 765 697 650 640 639 654 701 769 896 1060
1370.0 1308 1535 1707 1849 1815 1703 1652 1704 1786 2024
1410.0 2538 3510 4420 4798 4675 3944 3186 3115 3639 4652
1450.0 5795 6232 6065 5305 4004 2887 2373 2008 1894 1848
1490.0 1999 2180 2375 2669 3041 3748 4706 6345 8028 9466
1530.0 10000 9423 8028 6214 4732 3872 3305 2948 2522 2117
1570.0 1754 1431 1210 1120 1055 959 941 841 809 826
1610.0 854 862 814 743 641 573 482 424 368 343
1650.0 277 255 222 229 240 234 217 206 175 157
1690.0 160 164 161 166 174 214 283 402 535 634
1730.0 632 584 530 469 448 412 392 315 235 185
1770.0 154 133 129 120 111 115 116 138 163 205
1810.0 219 217 202 183 151 128 135 131 126 127
1850.0 150 190 263 353 463 537 542 492 397 264
1890.0 164 117 96 96 101 118 121 129 118 107
1930.0 94 81 73 59 56 55 52 48 53 55
1970.0 55 67 67 78 76 79 84 79 86 89
2010.0 93 88 96 84 74 58 60 60 53 59
2050.0 64 66 67 66 71 75 80 74 63 62
2090.0 45 45 44 42 40 38 41 39 42 45
2130.0 48 49 59 70 90 104 110 117 111 117
2170.0 120 115 120 103 95 76 76 71 76 74
2210.0 78 74 72 69 75 77 81 82 71 73
2250.0 69 61 59 51 46 45 53 56 60 64
2290.0 80 100 121 133 142 153 147 140 135 128
2330.0 117 127 132 163 182 163 212 185 209 191
2370.0 196 189 195 187 172 164 160 168 165 172
2410.0 189 192 193 190 193 183 175 172 166 168
2450.0 176 171 168 165 164 165 162 156 151 152
2490.0 148 150 132 132 136 145 155 166 177 184
2530.0 193 193 200 202 206 197 184 156 135 131
2570.0 125 123 121 122 114 121 120 126 129 127
2610.0 124 108 106 88 97 96 90 87 84 94
2650.0 95 105 114 115 105 110 112 117 120 119
2690.0 132 143 162 165 189 196 197 198 196 217
2730.0 234 278 327 366 360 339 268 210 184 166
2770.0 161 164 173 186 190 183 196 203 217 238
2810.0 255 282 316 337 375 430 491 563 658 781
2850.0 958 1222 1574 1997 2402 2773 3004 3047 2951 2730
2890.0 2456 2263 2186 2180 2247 2388 2644 3073 3840 5147
2930.0 6945 8428 8601 7750 5934 3940 2812 2398 2220 2100
2970.0 2060 2044 1984 1935 1909 1916 1933 2004 2152 2274
3010.0 2365 2436 2483 2570 2733 2934 3049 3036 2966 2870
3050.0 2935 3149 3424 3569 3509 3292 2946 2590 2220 1883
3090.0 1548 1211 942 729 565 469 406 337 296 263
3130.0 231 207 194 172 166 158 149 130 127 118
3170.0 104 99 92 96 87 81 74 79 81 74
3210.0 81 85 74 77 80 78 79 86 88 77
3250.0 92 83 78 74 78 82 70 70 71 66
3290.0 77 76 70 85 86 74 82 78 95 82
3330.0 78 76 87 80 88 79 72 74 104 91
3370.0 78 79 71 68 63 68 81 69 86 81
3410.0 80 87 78 91 69 78 77 89 78 66
3450.0 54 70 78 74 81 90 82 80 76 74
3490.0 94 92 85 91 93 94 81 83 59 66
3530.0 70 81 74 70 72 78 84 62 80 62
3570.0 85 86 84 92 58 80 85 67 58 81
3610.0 72 54 41 60 58 59 50 69 55 72
3650.0 66 80 86 68 100 72 78 78 76 69
3690.0 74 74 67 78 79 85 87 82 51 63
3730.0 59 70 46 83 52 89 72 64 58 77
3770.0 57 65 79 70 53 60 86 52 76 41
3810.0 50 44 62 79 83 72 96 96 86 82
3850.0 53 49 86 69 94 85 66 44 70 63
3890.0 87 74 40 35 81 60 71 96 71 97
3930.0 64 52 91 71 77 64 84 67 70 105
##END=
