##TITLE=Benzene, 1-bromo-2-methyl-
##JCAMP-DX=4.24
##DATA TYPE=INFRARED SPECTRUM
##ORIGIN=Sadtler Research Labs Under US-EPA Contract
##OWNER=NIST Standard Reference Data Program
##CAS REGISTRY NO=95-46-5
##MOLFORM=C 7 H 7 Br
##XUNITS=1/CM
##YUNITS=ABSORBANCE
##XFACTOR=1.0
##YFACTOR=0.000090137
##DELTAX=4.0
##FIRSTX=450.0
##LASTX=3966.0
##FIRSTY=0.002163
##MAXX=3966
##MINX=450
##MAXY=0.90137
##MINY=0
##NPOINTS=880
##XYDATA=(X++(Y..Y))
450.0 24 65 44 10 26 111 165 150 61 2
490.0 48 110 15 34 91 32 68 120 168 189
530.0 251 360 389 357 407 224 146 85 5 44
570.0 46 147 34 48 48 129 110 26 165 98
610.0 67 53 30 129 95 123 117 127 359 707
650.0 1236 1782 2015 1896 1478 694 308 100 123 130
690.0 180 174 290 265 195 233 187 395 896 1943
730.0 3517 4820 5858 10000 8220 5075 4185 2698 1238 474
770.0 225 200 163 196 274 370 461 419 363 304
810.0 160 135 142 192 176 236 184 156 143 132
850.0 137 65 107 108 126 150 155 165 149 84
890.0 125 81 95 90 125 134 151 151 174 201
930.0 218 226 248 220 258 233 234 216 239 246
970.0 233 235 264 316 458 592 721 720 693 622
1010.0 633 807 1383 2781 5131 7059 7542 7268 5903 2501
1050.0 1160 892 635 518 499 469 454 384 322 291
1090.0 274 233 226 182 188 201 273 314 328 321
1130.0 298 244 194 209 165 163 170 156 163 151
1170.0 143 133 133 119 102 104 106 100 114 112
1210.0 94 107 106 80 69 71 83 69 86 96
1250.0 94 102 116 162 218 277 305 283 277 228
1290.0 162 126 98 117 96 100 98 98 106 118
1330.0 124 118 127 139 184 192 190 180 156 141
1370.0 166 211 310 450 477 553 621 485 388 343
1410.0 311 337 462 776 1191 1494 1736 1879 1781 1719
1450.0 1854 2215 2709 3136 3389 3796 4306 4360 3833 3395
1490.0 2608 1352 671 449 288 226 228 182 131 154
1530.0 156 133 132 91 157 201 275 405 726 1109
1570.0 1338 1457 1418 1258 1048 973 915 830 718 524
1610.0 350 219 114 104 80 75 69 42 69 55
1650.0 47 0 85 87 132 143 202 220 221 165
1690.0 171 145 100 75 110 114 94 54 80 78
1730.0 63 37 70 61 80 62 68 68 71 95
1770.0 109 137 207 230 238 226 176 146 104 103
1810.0 117 156 180 190 170 137 101 70 54 32
1850.0 46 61 91 92 116 110 131 122 125 124
1890.0 143 189 243 289 290 272 234 170 119 111
1930.0 124 174 227 238 219 197 137 81 46 46
1970.0 40 33 39 39 46 37 36 46 37 41
2010.0 39 45 32 33 32 32 26 28 28 25
2050.0 26 29 31 44 49 52 44 39 38 38
2090.0 30 32 28 25 25 24 29 24 23 32
2130.0 32 31 25 24 24 24 22 22 30 21
2170.0 31 34 36 36 42 41 37 30 31 23
2210.0 26 22 24 20 23 22 23 17 29 24
2250.0 36 36 30 32 36 36 39 33 36 41
2290.0 47 34 34 47 59 62 79 80 87 69
2330.0 59 56 21 29 22 9 34 33 33 23
2370.0 29 28 23 25 32 26 25 34 40 40
2410.0 39 53 53 47 47 50 55 45 40 30
2450.0 28 26 26 26 25 24 24 25 21 20
2490.0 16 14 14 20 13 20 14 14 26 26
2530.0 17 25 34 49 50 60 64 62 50 25
2570.0 24 31 24 41 48 56 62 75 73 60
2610.0 57 54 37 23 36 24 23 29 22 15
2650.0 10 20 8 10 11 5 5 3 10 5
2690.0 6 10 3 7 6 8 10 5 16 11
2730.0 18 37 36 57 77 76 79 81 64 34
2770.0 28 21 20 14 21 15 23 32 29 46
2810.0 40 52 57 71 84 96 123 135 151 195
2850.0 228 270 317 379 438 479 528 537 515 503
2890.0 472 426 407 418 456 505 567 677 816 1001
2930.0 1219 1400 1471 1457 1409 1249 1089 1001 1004 1166
2970.0 1104 1072 1166 1332 1352 1261 1219 1002 775 708
3010.0 767 923 1095 1191 1195 1175 1022 838 782 804
3050.0 957 1206 1517 1844 2339 2828 3051 2975 2615 2138
3090.0 1405 839 658 580 421 285 196 158 148 129
3130.0 140 145 148 130 117 107 93 63 64 52
3170.0 40 39 32 41 44 47 48 45 63 37
3210.0 36 38 38 38 31 29 18 37 25 26
3250.0 30 28 22 14 22 28 23 16 9 36
3290.0 29 20 28 21 18 18 34 30 20 18
3330.0 20 25 30 22 14 25 28 36 31 26
3370.0 36 29 30 37 36 30 25 33 22 30
3410.0 39 31 33 23 32 26 20 40 40 25
3450.0 25 38 30 28 40 40 33 40 29 31
3490.0 23 31 25 17 25 20 17 31 29 23
3530.0 14 20 28 26 21 29 21 15 25 25
3570.0 15 32 38 30 31 17 31 24 25 25
3610.0 13 32 33 29 38 3 28 18 33 30
3650.0 5 16 23 41 44 25 29 11 36 59
3690.0 25 38 38 31 38 38 15 46 39 37
3730.0 47 38 22 47 17 23 26 53 48 55
3770.0 48 62 59 55 52 45 57 44 34 50
3810.0 44 59 33 45 53 56 33 34 39 71
3850.0 56 45 59 78 73 73 73 73 67 59
3890.0 38 44 47 41 42 52 59 34 39 46
3930.0 46 55 59 65 63 67 20 23 23 25
##END=
