##TITLE=Phenol, 2-methyl-
##JCAMP-DX=4.24
##DATA TYPE=INFRARED SPECTRUM
##ORIGIN=Sadtler Research Labs Under US-EPA Contract
##OWNER=NIST Standard Reference Data Program
##CAS REGISTRY NO=95-48-7
##MOLFORM=C 7 H 8 O
##XUNITS=1/CM
##YUNITS=ABSORBANCE
##XFACTOR=1.0
##YFACTOR=0.000084738
##DELTAX=4.0
##FIRSTX=450.0
##LASTX=3966.0
##FIRSTY=0.013643
##MAXX=3966
##MINX=450
##MAXY=0.84738
##MINY=0
##NPOINTS=880
##XYDATA=(X++(Y..Y))
450.0 161 243 142 71 18 20 36 40 78 70
490.0 110 147 209 248 352 512 632 720 673 730
530.0 594 570 337 186 142 152 211 170 186 303
570.0 253 290 274 254 198 229 186 164 145 145
610.0 149 140 135 101 90 99 76 67 53 41
650.0 52 59 68 73 67 118 116 168 231 347
690.0 533 712 790 833 1423 1861 949 1163 1501 2190
730.0 3262 4370 5069 5732 9730 10000 5200 4198 3593 2447
770.0 1342 595 277 190 188 177 198 201 205 219
810.0 234 271 350 486 679 1229 1805 2004 1930 1850
850.0 1895 1491 833 407 268 204 181 146 154 134
890.0 127 107 113 128 155 184 195 235 330 289
930.0 332 246 218 211 198 189 202 227 285 339
970.0 413 495 585 624 648 642 595 546 447 381
1010.0 365 376 423 551 788 1073 1231 1335 1293 1233
1050.0 1059 826 640 541 534 566 662 804 1084 1660
1090.0 2631 3804 4460 4468 4435 4278 3618 2360 1367 900
1130.0 777 915 1269 1749 2198 2747 3668 4582 4927 4810
1170.0 4773 4815 4747 4148 3713 3947 4717 5744 6628 7140
1210.0 7410 7374 7056 5642 4213 3143 2601 2867 3899 5079
1250.0 5755 6123 6206 5950 4711 2993 1739 1149 1015 1104
1290.0 1208 1295 1427 1632 2109 2757 3504 3914 3899 3855
1330.0 3581 2964 1817 910 481 313 255 253 274 273
1370.0 332 411 463 488 533 516 511 409 294 245
1410.0 218 230 279 348 466 708 1076 1514 1916 2391
1450.0 2684 2922 3115 3125 3076 3060 3280 3614 4029 4410
1490.0 4714 5082 5460 5615 5207 4310 3611 3020 2181 1249
1530.0 645 437 383 358 339 358 392 462 520 674
1570.0 955 1344 1860 2312 2793 3169 3403 3432 3262 2895
1610.0 2432 1858 1343 1002 757 556 383 250 162 161
1650.0 132 178 140 181 208 247 237 240 234 219
1690.0 176 161 158 157 113 106 111 140 97 105
1730.0 117 155 141 159 190 223 218 221 247 259
1770.0 274 240 209 202 197 176 165 141 148 137
1810.0 123 102 86 78 91 77 80 79 92 111
1850.0 93 93 87 93 126 165 185 219 237 273
1890.0 271 238 204 174 158 157 164 182 188 185
1930.0 177 150 117 95 60 33 30 34 34 21
1970.0 22 17 22 18 33 50 65 63 68 68
2010.0 57 43 36 23 30 34 30 42 42 41
2050.0 43 43 43 30 37 38 29 36 43 50
2090.0 55 62 62 62 46 26 19 12 17 10
2130.0 10 10 10 10 4 6 0 6 3 4
2170.0 9 7 10 10 11 18 17 11 16 17
2210.0 10 17 11 18 24 29 30 30 37 39
2250.0 39 40 46 41 38 38 34 36 32 33
2290.0 31 42 50 57 70 80 78 88 97 93
2330.0 92 77 78 76 83 67 73 66 71 69
2370.0 43 57 56 56 57 53 72 72 80 93
2410.0 100 107 119 125 119 127 122 128 128 120
2450.0 127 122 121 128 123 123 115 98 100 95
2490.0 103 105 105 112 106 113 99 80 75 69
2530.0 60 53 53 59 56 50 45 52 46 46
2570.0 47 53 53 59 62 56 63 68 66 81
2610.0 81 81 81 76 75 75 70 68 61 58
2650.0 45 56 33 33 33 33 34 39 33 41
2690.0 40 56 49 53 59 51 62 62 68 75
2730.0 82 101 122 149 154 162 152 135 113 85
2770.0 67 68 67 67 67 68 68 73 79 89
2810.0 103 113 127 123 149 158 178 210 238 284
2850.0 357 474 640 816 982 1119 1209 1249 1235 1204
2890.0 1158 1117 1079 1094 1128 1182 1293 1452 1647 1845
2930.0 2010 2101 2134 2079 1917 1686 1486 1330 1371 1275
2970.0 1202 1247 1315 1312 1208 1139 1087 980 880 871
3010.0 974 1193 1486 1874 2281 2619 2784 2868 2939 2855
3050.0 2657 2425 2286 2285 2353 2405 2392 2358 2245 2010
3090.0 1720 1396 1119 889 732 586 481 388 299 258
3130.0 199 170 144 117 82 70 72 58 66 65
3170.0 65 59 45 65 50 43 34 51 34 37
3210.0 48 56 43 37 38 43 51 36 49 47
3250.0 28 34 28 21 17 27 47 28 50 32
3290.0 39 33 32 24 31 18 36 36 36 56
3330.0 51 82 82 83 86 73 91 86 82 90
3370.0 77 86 86 67 72 77 80 66 50 68
3410.0 82 76 82 65 66 63 69 69 52 41
3450.0 49 51 63 58 34 49 52 62 78 46
3490.0 33 53 53 42 31 21 22 32 24 10
3530.0 28 23 47 50 50 57 58 47 73 48
3570.0 65 76 72 91 81 89 87 103 98 129
3610.0 148 169 208 329 482 839 1338 2187 3398 4683
3650.0 5386 5399 5167 5090 4004 2593 1403 797 417 237
3690.0 132 97 62 42 27 38 28 34 68 57
3730.0 68 61 72 53 72 57 73 51 47 55
3770.0 57 53 43 65 40 31 38 29 29 39
3810.0 50 41 52 58 53 62 59 72 79 71
3850.0 57 71 69 65 75 77 79 80 76 90
3890.0 75 85 68 63 62 75 93 91 103 100
3930.0 115 117 122 111 102 95 88 82 91 85
##END=
