##TITLE=Benzene, 1-chloro-2-methyl-
##JCAMP-DX=4.24
##DATA TYPE=INFRARED SPECTRUM
##ORIGIN=Sadtler Research Labs Under US-EPA Contract
##OWNER=NIST Standard Reference Data Program
##CAS REGISTRY NO=95-49-8
##MOLFORM=C 7 H 7 Cl
##XUNITS=1/CM
##YUNITS=ABSORBANCE
##XFACTOR=1.0
##YFACTOR=0.000128140
##DELTAX=4.0
##FIRSTX=450.0
##LASTX=3966.0
##FIRSTY=0.021528
##MAXX=3966
##MINX=450
##MAXY=1.2814
##MINY=0
##NPOINTS=880
##XYDATA=(X++(Y..Y))
450.0 168 194 115 52 60 64 105 106 156 58
490.0 50 56 81 97 54 39 77 63 103 49
530.0 69 71 167 322 348 295 354 330 267 123
570.0 84 90 95 73 21 121 113 103 74 84
610.0 93 69 106 97 119 83 77 97 64 14
650.0 108 114 136 310 460 1076 1500 1859 1832 1795
690.0 1679 937 496 481 336 282 284 346 644 1424
730.0 2638 3994 4473 6026 10000 5311 4178 4242 2584 1325
770.0 545 277 176 153 206 305 493 615 673 624
810.0 636 487 297 170 146 131 129 162 174 187
850.0 166 177 139 113 91 87 84 77 101 99
890.0 127 114 132 123 116 98 97 114 142 171
930.0 177 274 288 221 201 195 163 137 140 149
970.0 184 216 242 268 294 312 313 380 472 578
1010.0 634 673 679 703 778 993 1420 1916 2441 3488
1050.0 4973 5664 5776 5571 5388 3395 1421 694 508 422
1090.0 395 355 327 290 238 238 300 470 687 820
1130.0 907 933 837 612 424 316 195 164 154 149
1170.0 139 126 119 109 116 118 149 186 219 225
1210.0 216 206 164 125 90 88 91 112 120 131
1250.0 137 145 148 151 178 202 231 239 238 232
1290.0 205 160 126 107 97 103 103 108 98 100
1330.0 106 106 128 131 145 169 199 216 228 222
1370.0 216 240 288 374 400 454 551 497 376 325
1410.0 308 315 403 531 775 1134 1484 1734 1884 2094
1450.0 2076 2032 2286 2564 3018 3560 3830 4255 4219 3813
1490.0 2985 2526 1851 1047 662 497 371 290 261 226
1530.0 219 206 211 230 220 214 245 343 456 640
1570.0 874 1056 1178 1252 1250 1133 920 770 688 551
1610.0 374 250 187 139 133 107 124 128 116 112
1650.0 122 114 92 93 124 159 205 194 213 202
1690.0 160 130 147 164 182 199 211 229 188 143
1730.0 123 139 112 103 116 111 90 81 88 93
1770.0 128 171 211 244 231 227 219 167 125 94
1810.0 106 135 151 161 164 153 126 82 65 62
1850.0 55 54 74 92 111 123 113 115 115 119
1890.0 152 198 248 271 263 248 232 171 127 113
1930.0 133 173 195 213 197 169 124 72 38 35
1970.0 28 28 25 22 25 29 30 26 28 31
2010.0 32 31 35 34 31 31 25 32 30 25
2050.0 23 27 30 21 22 20 23 29 26 26
2090.0 32 26 18 19 18 18 13 11 14 13
2130.0 12 10 9 9 13 10 12 11 13 10
2170.0 12 15 12 18 21 26 28 31 26 14
2210.0 12 9 5 5 9 7 8 7 10 10
2250.0 12 13 20 21 24 29 30 31 36 37
2290.0 43 42 42 44 57 64 64 73 70 59
2330.0 42 25 13 9 5 21 33 34 4 5
2370.0 5 5 6 10 18 22 28 32 37 43
2410.0 44 44 45 50 46 44 46 44 44 37
2450.0 30 26 25 24 26 26 29 32 38 32
2490.0 32 29 24 20 25 24 27 28 28 28
2530.0 28 31 32 39 52 59 69 72 71 66
2570.0 54 44 32 34 39 45 39 42 42 39
2610.0 31 28 33 31 32 34 37 34 26 23
2650.0 23 28 22 21 28 26 17 10 14 11
2690.0 15 19 24 27 35 35 37 41 42 48
2730.0 50 57 61 79 91 107 103 97 93 75
2770.0 58 41 37 33 36 37 37 43 55 63
2810.0 68 70 79 84 97 107 122 144 174 197
2850.0 239 292 358 418 485 544 577 572 567 540
2890.0 494 456 446 459 502 564 637 722 848 1028
2930.0 1228 1382 1468 1456 1452 1367 1202 1049 1009 1182
2970.0 1108 1043 1119 1219 1223 1114 1084 1006 792 665
3010.0 665 803 996 1199 1268 1257 1299 1184 992 928
3050.0 960 1137 1352 1620 1999 2473 2685 2702 2550 2219
3090.0 1789 1217 789 579 469 374 276 205 168 128
3130.0 123 128 106 104 99 97 96 89 69 49
3170.0 55 43 34 32 40 33 27 27 25 24
3210.0 24 33 30 28 34 25 25 29 19 20
3250.0 17 21 15 22 24 18 11 22 24 26
3290.0 23 15 26 28 28 30 13 13 31 13
3330.0 24 13 17 22 24 22 30 40 40 22
3370.0 33 35 35 18 5 22 26 32 25 19
3410.0 23 31 37 44 28 28 31 50 25 52
3450.0 32 15 30 23 30 23 33 29 28 32
3490.0 24 38 35 19 24 29 35 37 30 29
3530.0 28 26 28 14 31 25 36 40 26 36
3570.0 25 32 40 35 32 41 38 45 24 27
3610.0 28 38 50 53 50 56 30 36 40 39
3650.0 14 23 41 48 40 33 20 29 49 49
3690.0 77 46 30 60 44 44 44 50 46 32
3730.0 28 36 27 30 64 43 45 37 52 51
3770.0 44 42 39 53 50 49 63 43 44 34
3810.0 46 27 22 48 49 44 36 40 38 37
3850.0 52 56 59 57 40 54 49 79 64 56
3890.0 42 54 30 31 58 42 31 42 46 13
3930.0 43 59 11 33 0 80 70 38 57 54
##END=
