##TITLE=Benzene, 1,2-dimethyl-
##JCAMP-DX=4.24
##DATA TYPE=INFRARED SPECTRUM
##ORIGIN=Sadtler Research Labs Under US-EPA Contract
##OWNER=NIST Standard Reference Data Program
##CAS REGISTRY NO=95-47-6
##MOLFORM=C 8 H 10
##XUNITS=1/CM
##YUNITS=ABSORBANCE
##XFACTOR=1.0
##YFACTOR=0.000085172
##DELTAX=4.0
##FIRSTX=450.0
##LASTX=3966.0
##FIRSTY=0.000000
##MAXX=3966
##MINX=450
##MAXY=0.85172
##MINY=0
##NPOINTS=880
##XYDATA=(X++(Y..Y))
450.0 0 950 1526 1152 1505 1011 1369 1318 1260 955
490.0 1183 1256 1218 1314 1255 1330 1339 1273 1212 1204
530.0 1217 1209 1197 1204 1220 1197 1210 1196 1189 1206
570.0 1231 1207 1223 1267 1321 1296 1194 1241 1183 1170
610.0 1195 1164 1187 1165 1159 1178 1179 1161 1201 1184
650.0 1191 1163 1186 1175 1187 1151 1178 1201 1171 1194
690.0 1177 1205 1177 1226 1234 1339 1568 2152 3139 4200
730.0 4858 4632 7421 10000 4362 4813 4638 3428 2313 1598
770.0 1340 1191 1223 1181 1194 1184 1203 1182 1174 1179
810.0 1185 1191 1204 1234 1199 1176 1199 1168 1164 1179
850.0 1204 1194 1207 1198 1241 1204 1212 1202 1190 1189
890.0 1164 1190 1174 1188 1181 1186 1186 1193 1193 1203
930.0 1240 1223 1211 1217 1221 1211 1215 1216 1222 1256
970.0 1307 1376 1409 1439 1452 1452 1428 1405 1365 1370
1010.0 1391 1408 1418 1458 1441 1381 1373 1421 1566 1707
1050.0 1726 1775 1697 1665 1545 1362 1253 1195 1183 1169
1090.0 1169 1167 1185 1218 1281 1355 1428 1456 1459 1489
1130.0 1498 1458 1402 1333 1295 1299 1263 1241 1212 1205
1170.0 1189 1186 1186 1180 1178 1168 1167 1164 1173 1196
1210.0 1230 1256 1268 1281 1264 1252 1225 1188 1147 1141
1250.0 1142 1135 1139 1140 1148 1139 1152 1158 1158 1161
1290.0 1160 1159 1163 1162 1162 1159 1160 1169 1176 1185
1330.0 1199 1196 1193 1206 1221 1230 1241 1251 1267 1304
1370.0 1364 1409 1429 1516 1568 1581 1532 1495 1430 1339
1410.0 1301 1318 1316 1353 1394 1485 1572 1721 1926 2157
1450.0 2382 2660 3003 3247 3244 3106 3073 3028 3013 3049
1490.0 3164 3150 3133 2955 2790 2418 1857 1479 1354 1308
1530.0 1293 1301 1298 1284 1272 1275 1271 1281 1279 1277
1570.0 1297 1343 1398 1458 1548 1607 1600 1634 1687 1652
1610.0 1530 1477 1430 1360 1255 1195 1144 1131 1126 1123
1650.0 1117 1148 1161 1179 1194 1190 1195 1180 1155 1135
1690.0 1122 1119 1130 1130 1132 1129 1129 1116 1112 1101
1730.0 1083 1084 1089 1079 1086 1087 1100 1099 1114 1132
1770.0 1156 1186 1206 1207 1190 1202 1187 1154 1119 1111
1810.0 1113 1142 1167 1169 1169 1155 1155 1129 1104 1096
1850.0 1122 1138 1141 1147 1150 1155 1158 1166 1188 1223
1890.0 1263 1273 1259 1248 1239 1196 1142 1111 1099 1124
1930.0 1161 1188 1192 1187 1180 1165 1124 1088 1069 1057
1970.0 1059 1060 1058 1048 1049 1044 1044 1038 1038 1032
2010.0 1030 1024 1020 1018 1021 1015 1017 1014 1022 1020
2050.0 1018 1019 1017 1004 999 1005 1019 1025 1031 1033
2090.0 1033 1032 1030 1031 1025 1030 1034 1029 1027 1019
2130.0 1017 1017 1013 1011 1009 1011 1011 1009 1007 1006
2170.0 1006 1002 1000 1008 1005 1010 1014 1020 1021 1017
2210.0 1019 1018 1012 1011 1015 1008 1002 998 1000 1000
2250.0 1000 998 1001 1008 1008 1008 1007 1004 1006 1009
2290.0 1010 1009 1008 1011 1025 1032 1037 1045 1050 1047
2330.0 1044 1043 1035 1024 1005 1028 1049 1044 998 953
2370.0 939 939 942 951 962 973 976 978 989 985
2410.0 988 985 987 992 996 993 1000 1005 996 991
2450.0 988 987 983 975 972 966 966 961 961 955
2490.0 952 955 956 954 952 954 949 944 943 948
2530.0 946 946 952 951 953 956 969 973 985 1003
2570.0 1009 1003 1008 1005 994 988 982 983 986 983
2610.0 980 981 984 984 982 979 994 996 983 990
2650.0 994 999 1007 1015 1026 1029 1022 1008 1009 995
2690.0 994 996 994 995 1002 1004 1012 1028 1047 1072
2730.0 1113 1144 1164 1177 1165 1164 1140 1100 1085 1080
2770.0 1087 1087 1094 1102 1101 1086 1080 1082 1086 1097
2810.0 1101 1112 1133 1160 1186 1218 1244 1287 1343 1411
2850.0 1518 1658 1855 2089 2359 2651 2921 3114 3199 3215
2890.0 3132 3056 2920 2804 2758 2821 3016 3304 3722 4179
2930.0 4602 4836 4948 4902 4795 4805 4510 3966 3721 3764
2970.0 3859 3884 3616 3416 3365 3112 2711 2409 2329 2545
3010.0 2940 3492 3980 4187 4309 4497 4371 3871 3502 3265
3050.0 3234 3383 3633 3889 4055 4079 3975 3772 3438 3015
3090.0 2631 2276 1989 1757 1647 1559 1496 1449 1387 1297
3130.0 1210 1141 1101 1084 1071 1057 1052 1043 1043 1037
3170.0 1022 1025 1012 992 995 992 984 989 980 976
3210.0 959 957 959 947 967 975 969 973 959 981
3250.0 963 955 954 963 965 968 968 966 968 980
3290.0 968 961 953 948 956 947 940 946 949 966
3330.0 952 962 973 971 963 956 956 949 977 972
3370.0 971 974 980 987 989 1004 1003 988 992 983
3410.0 997 991 972 993 984 988 991 998 1005 1005
3450.0 1007 1002 1003 1003 1014 1018 1010 1001 1007 1009
3490.0 1020 1007 1009 984 1005 996 992 990 991 981
3530.0 977 999 985 988 982 989 989 977 985 1000
3570.0 979 990 988 1002 995 1001 994 987 974 990
3610.0 976 977 997 968 985 982 983 965 963 959
3650.0 945 941 955 988 975 963 978 988 960 966
3690.0 974 948 955 957 947 961 980 966 976 939
3730.0 973 962 939 944 992 972 974 949 951 966
3770.0 970 947 959 978 962 942 975 1004 988 983
3810.0 952 970 939 973 973 952 991 994 1018 1006
3850.0 993 991 994 998 1015 996 990 984 1001 997
3890.0 1048 1028 1020 1062 1041 1017 973 995 1012 1020
3930.0 1011 1013 985 992 981 967 994 972 978 963
##END=
