##TITLE=o-Chloroaniline
##JCAMP-DX=4.24
##DATA TYPE=INFRARED SPECTRUM
##ORIGIN=Sadtler Research Labs Under US-EPA Contract
##OWNER=NIST Standard Reference Data Program
##CAS REGISTRY NO=95-51-2
##MOLFORM=C 6 H 6 Cl N
##XUNITS=1/CM
##YUNITS=ABSORBANCE
##XFACTOR=1.0
##YFACTOR=0.000116074
##DELTAX=4.0
##FIRSTX=450.0
##LASTX=3966.0
##FIRSTY=0.128958
##MAXX=3966
##MINX=450
##MAXY=1.16074
##MINY=0
##NPOINTS=880
##XYDATA=(X++(Y..Y))
450.0 1111 948 786 907 801 937 710 703 653 623
490.0 620 490 490 460 489 470 518 552 590 624
530.0 575 665 731 710 760 854 842 852 764 645
570.0 585 497 509 500 567 643 801 834 949 981
610.0 1015 1045 991 916 838 773 768 807 900 971
650.0 1083 1270 1471 1724 1995 2533 2968 3421 3678 3735
690.0 3448 3126 2806 2570 2547 2656 2776 3181 3841 4582
730.0 5146 5590 8460 9022 5733 5106 4461 3210 2126 1522
770.0 1195 998 899 806 729 708 674 614 593 551
810.0 517 503 508 527 571 633 616 667 638 504
850.0 436 346 304 280 282 260 242 236 225 227
890.0 208 213 212 209 211 228 257 264 322 468
930.0 375 284 286 239 218 189 176 179 188 205
970.0 202 206 196 199 179 173 155 149 173 253
1010.0 494 893 1307 1556 1716 1712 1560 1287 1157 1182
1050.0 1260 1383 1506 1504 1472 1519 1658 1863 2259 2757
1090.0 3208 3300 3127 2809 2221 1312 682 424 364 390
1130.0 504 691 892 1014 1150 1408 1269 979 909 722
1170.0 424 219 137 97 65 45 39 35 36 30
1210.0 27 24 25 34 43 71 103 162 224 352
1250.0 520 723 821 781 843 860 653 551 650 993
1290.0 1658 2339 2879 3334 3693 3640 2771 2207 1878 1141
1330.0 561 238 100 35 1 4 6 36 84 144
1370.0 185 211 208 194 176 118 77 68 61 67
1410.0 61 60 75 92 95 148 278 560 951 1439
1450.0 1752 1577 1735 1859 1643 1905 2913 4535 5895 6607
1490.0 7112 7664 6656 4683 3577 2907 1818 1018 729 564
1530.0 460 407 381 413 383 442 508 652 790 934
1570.0 1121 1221 1298 1344 1355 1386 1570 1987 2801 4141
1610.0 5998 8064 8895 9259 10000 8689 6751 4943 3590 2296
1650.0 1498 1052 756 634 579 544 504 438 390 368
1690.0 286 262 276 248 212 168 161 166 140 116
1730.0 136 163 155 147 182 221 237 252 241 238
1770.0 232 207 148 135 122 120 114 98 87 61
1810.0 43 28 20 22 29 42 49 63 96 122
1850.0 111 110 114 103 107 140 179 220 235 221
1890.0 226 193 139 110 125 174 212 228 216 191
1930.0 140 82 46 40 32 34 37 43 46 55
1970.0 63 67 70 67 66 64 59 51 47 43
2010.0 40 33 37 36 30 28 23 23 26 23
2050.0 22 22 21 21 20 10 12 12 9 9
2090.0 10 14 13 14 15 13 13 14 14 14
2130.0 22 26 36 40 46 43 42 40 38 38
2170.0 39 41 35 37 33 29 20 19 18 15
2210.0 14 12 11 8 10 9 10 8 7 7
2250.0 4 11 4 7 10 18 25 30 37 41
2290.0 44 49 53 50 54 61 61 60 51 54
2330.0 36 32 36 28 36 23 4 7 16 20
2370.0 31 14 20 19 19 20 20 16 25 31
2410.0 26 27 24 28 25 24 28 32 40 45
2450.0 56 56 53 56 49 35 25 20 10 5
2490.0 0 1 2 0 1 8 6 12 12 19
2530.0 20 22 31 42 54 63 73 80 82 77
2570.0 64 54 39 33 36 45 59 79 107 125
2610.0 138 142 141 132 110 86 64 49 41 31
2650.0 25 29 30 24 24 24 25 18 17 12
2690.0 13 5 9 11 14 13 18 18 16 13
2730.0 12 11 9 12 9 16 18 21 24 17
2770.0 18 16 18 11 10 12 8 11 11 7
2810.0 9 10 4 5 2 3 4 7 9 13
2850.0 11 22 27 27 41 45 64 70 75 84
2890.0 81 72 68 50 43 40 30 30 27 34
2930.0 39 33 43 35 22 27 39 19 28 35
2970.0 31 39 37 40 35 40 36 40 69 99
3010.0 148 248 413 638 908 1112 1161 1223 1223 1051
3050.0 906 862 895 970 1122 1385 1655 1867 1912 1908
3090.0 1763 1394 936 584 359 225 144 98 76 55
3130.0 41 36 27 34 40 47 41 44 57 64
3170.0 75 85 97 107 119 134 135 135 138 119
3210.0 107 87 76 63 55 48 30 41 36 40
3250.0 30 17 25 25 27 20 12 3 0 6
3290.0 13 20 16 12 5 10 14 22 19 33
3330.0 23 12 22 25 33 17 37 45 60 63
3370.0 66 79 98 125 168 263 413 680 1004 1268
3410.0 1462 1614 1729 1633 1411 1116 950 688 381 195
3450.0 145 116 116 129 147 182 232 316 422 618
3490.0 918 1188 1310 1414 1520 1482 1358 1320 1251 1031
3530.0 907 763 479 271 127 98 68 48 40 19
3570.0 24 43 25 15 11 30 22 37 15 12
3610.0 23 24 31 23 21 40 41 19 43 37
3650.0 42 29 9 18 23 29 26 57 44 31
3690.0 29 16 18 44 34 51 36 36 32 16
3730.0 23 21 29 25 30 16 46 17 27 32
3770.0 26 37 32 43 35 38 41 35 49 60
3810.0 58 30 22 21 11 3 16 60 111 117
3850.0 131 165 142 95 83 65 44 48 19 0
3890.0 17 15 32 52 48 48 29 0 24 1
3930.0 47 52 88 96 67 32 47 9 21 2
##END=
