##TITLE=Benzene, 1,2-dichloro-
##JCAMP-DX=4.24
##DATA TYPE=INFRARED SPECTRUM
##ORIGIN=Sadtler Research Labs Under US-EPA Contract
##OWNER=NIST Standard Reference Data Program
##CAS REGISTRY NO=95-50-1
##MOLFORM=C 6 H 4 Cl 2
##XUNITS=1/CM
##YUNITS=ABSORBANCE
##XFACTOR=1.0
##YFACTOR=0.000053845
##DELTAX=4.0
##FIRSTX=450.0
##LASTX=3966.0
##FIRSTY=0.008184
##MAXX=3966
##MINX=450
##MAXY=0.53845
##MINY=0
##NPOINTS=880
##XYDATA=(X++(Y..Y))
450.0 152 179 190 223 307 403 539 627 664 572
490.0 449 302 119 47 37 32 27 54 65 78
530.0 90 73 56 86 96 61 122 99 6 47
570.0 44 17 44 42 54 41 37 59 64 56
610.0 48 56 38 41 37 69 84 121 216 443
650.0 796 1113 1412 1509 1509 1006 759 393 177 95
690.0 70 86 80 54 66 97 135 231 480 956
730.0 2007 3887 6063 7353 10000 8059 4783 3729 1981 716
770.0 179 30 10 30 34 59 61 84 92 97
810.0 108 113 110 154 172 175 173 140 108 59
850.0 50 43 45 93 69 101 104 114 102 92
890.0 71 52 35 44 36 46 63 80 101 130
930.0 163 186 268 313 166 154 119 80 66 73
970.0 69 78 82 108 115 115 127 170 247 366
1010.0 492 614 746 1044 1652 2722 3785 3895 3525 3666
1050.0 2309 900 277 95 77 79 100 126 153 194
1090.0 217 229 240 241 359 661 1281 2238 3288 3935
1130.0 4122 3651 3065 1685 788 579 547 506 529 601
1170.0 642 649 583 503 381 228 117 91 66 68
1210.0 78 68 66 66 79 81 95 143 211 314
1250.0 371 426 446 394 330 247 186 144 92 62
1290.0 46 47 47 36 36 36 37 37 36 46
1330.0 48 47 38 48 82 121 169 199 211 211
1370.0 181 149 108 99 122 163 202 250 273 248
1410.0 233 248 321 592 1124 1714 1909 1846 2402 2679
1450.0 3736 5043 5694 5935 5520 4094 2503 1822 1250 969
1490.0 783 570 349 203 151 82 84 83 77 66
1530.0 47 57 68 77 80 125 202 328 518 695
1570.0 815 942 975 837 806 670 512 420 372 347
1610.0 275 193 126 91 70 60 68 60 57 68
1650.0 46 63 39 61 74 98 118 157 185 184
1690.0 168 179 149 126 108 108 121 93 65 79
1730.0 79 84 68 60 68 68 68 68 68 81
1770.0 110 155 187 252 289 278 253 224 161 108
1810.0 108 118 141 146 135 124 98 72 56 50
1850.0 56 55 56 78 88 109 123 121 133 126
1890.0 122 135 169 214 268 262 251 240 176 127
1930.0 122 153 194 217 212 189 143 102 69 56
1970.0 56 57 57 45 46 56 56 56 56 55
2010.0 57 56 45 45 46 46 46 46 50 50
2050.0 50 55 56 56 44 56 56 56 66 65
2090.0 64 56 56 44 51 57 52 55 56 44
2130.0 44 45 45 45 35 44 39 47 32 45
2170.0 45 53 54 55 53 53 54 52 52 44
2210.0 44 44 44 42 43 43 52 42 42 53
2250.0 53 52 63 64 56 62 62 62 73 81
2290.0 82 92 91 92 92 95 101 105 107 91
2330.0 80 62 52 51 38 39 81 79 23 11
2370.0 0 9 12 29 39 51 51 51 51 50
2410.0 50 51 51 39 39 38 45 33 33 29
2450.0 29 29 28 29 29 32 30 27 28 28
2490.0 28 28 28 28 28 28 37 38 50 57
2530.0 72 89 89 96 78 61 39 38 47 48
2570.0 47 36 36 34 27 32 25 26 27 27
2610.0 35 37 26 26 25 24 25 16 15 14
2650.0 20 28 21 25 25 25 24 24 25 25
2690.0 25 25 25 24 24 24 24 24 23 23
2730.0 24 12 14 21 14 14 14 19 11 12
2770.0 0 12 12 11 12 3 10 5 2 17
2810.0 16 21 21 21 21 21 12 23 20 20
2850.0 23 10 9 17 23 23 17 8 11 10
2890.0 9 10 9 9 10 12 16 0 6 5
2930.0 9 8 8 20 18 19 8 19 19 19
2970.0 19 19 23 32 39 57 56 57 78 78
3010.0 89 79 68 72 78 73 75 68 68 66
3050.0 65 118 213 398 715 1088 1403 1505 1508 1267
3090.0 946 501 331 259 150 75 34 27 35 36
3130.0 38 61 70 78 99 86 80 66 33 14
3170.0 12 23 14 14 12 11 11 11 11 11
3210.0 11 11 12 11 23 23 11 16 10 17
3250.0 9 23 10 9 11 32 19 19 24 18
3290.0 28 20 26 25 32 7 18 20 9 18
3330.0 29 28 27 18 30 18 18 17 21 37
3370.0 36 37 28 17 37 27 29 26 23 30
3410.0 32 19 27 26 25 38 25 36 45 35
3450.0 16 21 34 29 32 29 33 36 43 53
3490.0 45 45 33 20 20 19 12 30 26 19
3530.0 25 20 30 42 28 19 51 50 48 51
3570.0 33 28 43 35 65 37 17 5 19 41
3610.0 50 21 38 25 32 51 9 26 47 45
3650.0 48 1 26 38 50 66 24 28 20 39
3690.0 12 6 25 43 25 43 28 37 54 63
3730.0 54 62 43 43 51 35 16 24 27 28
3770.0 27 12 36 28 38 33 51 52 56 63
3810.0 62 77 69 71 63 55 54 36 30 30
3850.0 51 51 15 25 32 33 25 42 27 27
3890.0 37 36 27 25 16 35 34 29 29 30
3930.0 33 30 36 55 52 64 50 41 26 24
##END=
