##TITLE=1,2-Benzenediamine
##JCAMP-DX=4.24
##DATA TYPE=INFRARED SPECTRUM
##ORIGIN=Sadtler Research Labs Under US-EPA Contract
##OWNER=NIST Standard Reference Data Program
##CAS REGISTRY NO=95-54-5
##MOLFORM=C 6 H 8 N 2
##XUNITS=1/CM
##YUNITS=ABSORBANCE
##XFACTOR=1.0
##YFACTOR=0.000096606
##DELTAX=4.0
##FIRSTX=450.0
##LASTX=3966.0
##FIRSTY=0.059799
##MAXX=3966
##MINX=450
##MAXY=0.96606
##MINY=0
##NPOINTS=880
##XYDATA=(X++(Y..Y))
450.0 619 623 691 490 478 516 441 531 561 680
490.0 582 684 729 767 820 874 986 990 1174 1180
530.0 1427 1377 1566 1563 1544 1565 1434 1444 1287 1361
570.0 1258 1389 1382 1528 1566 1597 1792 1879 2043 2170
610.0 2467 2550 2852 3003 3192 3356 3575 3874 4019 4348
650.0 4428 4638 4586 4676 4604 4454 4350 4079 3930 3627
690.0 3426 3151 2908 2722 2689 2905 3390 4185 4895 5632
730.0 6562 9668 10000 8163 7048 6465 5460 4193 3237 2442
770.0 1982 1676 1537 1444 1360 1329 1263 1244 1188 1157
810.0 1090 1054 1006 963 942 914 927 923 986 1037
850.0 1095 1098 1084 1057 986 904 763 665 584 571
890.0 535 547 550 545 582 733 781 614 558 525
930.0 484 416 343 315 270 259 236 233 209 214
970.0 200 194 198 186 189 163 176 152 148 132
1010.0 132 138 173 248 331 406 431 483 482 503
1050.0 494 483 467 461 489 500 502 478 489 469
1090.0 479 482 489 480 470 465 431 429 413 423
1130.0 430 481 543 600 624 576 553 530 478 370
1170.0 295 245 232 231 230 246 255 291 324 393
1210.0 475 612 798 1039 1291 1520 1658 1750 1945 2210
1250.0 2591 3188 4220 5117 5925 6224 6422 5982 5284 4021
1290.0 2417 1415 848 557 381 247 204 137 137 109
1330.0 106 71 9 6 10 20 2 27 0 43
1370.0 70 85 113 134 150 118 116 54 101 63
1410.0 59 92 16 90 82 168 123 243 361 481
1450.0 608 682 786 877 1022 1054 1269 1530 2139 2827
1490.0 3457 4874 5791 7219 7142 6666 6878 5608 5213 2922
1530.0 2274 1363 919 711 572 660 650 763 923 1145
1570.0 1368 1664 2114 2643 3030 3467 3572 3802 3937 4382
1610.0 5039 5587 6350 6396 6956 5925 6093 4577 3538 2450
1650.0 1615 1267 701 751 502 481 299 367 274 171
1690.0 246 209 160 90 176 191 175 137 217 278
1730.0 255 257 300 333 316 314 331 316 312 309
1770.0 278 251 297 269 270 259 239 244 220 265
1810.0 238 247 253 243 224 212 237 245 249 253
1850.0 307 327 338 324 310 270 271 263 252 275
1890.0 282 311 318 319 298 278 239 197 161 160
1930.0 163 148 149 131 137 142 139 139 135 134
1970.0 136 144 136 146 143 131 138 149 160 159
2010.0 175 171 180 180 192 181 179 173 156 149
2050.0 136 137 127 129 122 129 129 128 130 129
2090.0 131 126 131 125 127 125 123 127 125 131
2130.0 126 135 131 136 131 137 134 133 135 129
2170.0 131 123 131 128 127 129 132 130 132 136
2210.0 128 134 130 138 134 142 143 143 151 151
2250.0 159 159 164 156 155 150 147 144 134 133
2290.0 130 133 132 139 132 137 138 132 131 125
2330.0 132 116 129 118 149 135 139 137 142 139
2370.0 135 139 137 144 142 138 136 136 136 137
2410.0 138 138 147 144 154 151 153 153 155 162
2450.0 162 171 169 177 173 185 184 185 181 169
2490.0 163 156 148 134 139 131 135 132 133 137
2530.0 132 142 143 150 144 149 148 150 149 148
2570.0 153 151 161 163 173 177 181 183 188 197
2610.0 195 198 198 204 204 208 216 218 218 214
2650.0 211 201 203 193 191 183 175 170 164 162
2690.0 155 158 153 155 147 151 149 151 148 144
2730.0 147 142 147 145 148 139 142 146 146 143
2770.0 144 147 143 143 134 136 134 131 136 133
2810.0 132 134 141 143 151 148 158 164 169 180
2850.0 186 197 195 202 203 202 195 196 193 197
2890.0 203 202 212 208 217 220 226 227 226 228
2930.0 225 228 217 216 211 208 202 198 198 195
2970.0 199 199 210 209 220 255 316 408 567 804
3010.0 1104 1428 1690 1956 2319 2571 2563 2444 2352 2271
3050.0 2136 2040 2007 2028 2098 2151 2168 2085 1931 1660
3090.0 1355 1093 887 721 585 493 423 366 312 281
3130.0 262 236 227 205 199 189 184 179 172 176
3170.0 179 182 182 189 191 197 203 209 209 215
3210.0 214 202 209 204 202 198 206 195 195 192
3250.0 183 184 178 177 171 176 177 171 169 169
3290.0 171 177 178 175 185 169 171 176 177 186
3330.0 193 204 214 248 301 402 539 655 745 826
3370.0 842 844 793 680 591 500 444 397 361 347
3410.0 337 340 346 364 407 492 608 786 992 1192
3450.0 1271 1271 1329 1318 1181 1022 859 738 639 562
3490.0 503 460 419 389 354 341 310 297 276 267
3530.0 258 246 243 233 217 211 216 209 205 173
3570.0 193 189 180 184 179 187 180 196 184 180
3610.0 170 178 170 181 177 145 178 171 183 168
3650.0 161 179 159 177 164 161 150 154 154 128
3690.0 152 135 151 125 136 123 127 130 134 125
3730.0 125 117 125 108 114 95 105 136 131 137
3770.0 125 126 148 136 152 147 137 136 128 150
3810.0 125 120 121 99 120 119 116 118 118 126
3850.0 115 126 131 134 134 136 123 138 123 177
3890.0 152 165 136 199 148 184 155 187 160 119
3930.0 137 143 149 138 153 108 156 127 147 122
##END=
