##TITLE=Phenol, 2-amino-
##JCAMP-DX=4.24
##DATA TYPE=INFRARED SPECTRUM
##ORIGIN=Sadtler Research Labs Under US-EPA Contract
##OWNER=NIST Standard Reference Data Program
##CAS REGISTRY NO=95-55-6
##MOLFORM=C 6 H 7 N O
##XUNITS=1/CM
##YUNITS=ABSORBANCE
##XFACTOR=1.0
##YFACTOR=0.000087091
##DELTAX=4.0
##FIRSTX=450.0
##LASTX=3966.0
##FIRSTY=0.034314
##MAXX=3966
##MINX=450
##MAXY=0.87091
##MINY=0
##NPOINTS=880
##XYDATA=(X++(Y..Y))
450.0 394 357 261 150 88 126 118 125 136 120
490.0 162 156 136 172 156 206 250 302 397 489
530.0 603 687 770 828 829 787 697 664 558 546
570.0 547 527 464 448 394 327 321 302 319 329
610.0 403 468 579 657 770 894 1062 1154 1227 1231
650.0 1271 1245 1177 1102 975 1025 999 991 1052 1097
690.0 1181 1220 1343 1444 1704 2062 2828 3703 4529 5152
730.0 6205 9609 9659 8585 7751 6900 6228 5022 3985 2939
770.0 2266 1741 1183 841 670 613 534 504 486 453
810.0 432 420 417 416 448 488 545 628 780 974
850.0 1180 1313 1321 1315 1267 1148 902 630 422 296
890.0 235 208 225 297 387 355 333 405 420 303
930.0 262 245 223 197 153 123 92 70 45 43
970.0 40 37 47 55 69 72 94 103 135 162
1010.0 223 321 446 591 669 741 750 732 659 587
1050.0 543 561 634 706 773 850 933 968 972 968
1090.0 999 1043 1135 1277 1510 1888 2492 3258 3935 4342
1130.0 4538 4678 4749 4654 4332 4300 4575 4909 5414 5578
1170.0 5736 5666 5308 4818 4287 3902 3542 3351 3273 3330
1210.0 3451 3654 3916 4223 4550 4782 4923 4907 4842 4664
1250.0 4695 4986 5485 6150 6981 7902 8345 8507 7951 6938
1290.0 5723 4383 3077 2178 1750 1630 1736 1893 1983 1987
1330.0 1993 1894 1787 1577 1286 1129 1035 1004 926 860
1370.0 790 734 706 680 655 613 583 528 491 431
1410.0 389 372 332 375 375 422 437 556 667 840
1450.0 1071 1274 1466 1598 1750 1854 2038 2438 3273 4393
1490.0 5621 6968 8043 9245 9847 10000 9126 7633 6524 5297
1530.0 3818 2332 1558 1143 893 903 915 978 1095 1280
1570.0 1503 1772 2123 2458 2819 3092 3310 3442 3557 3750
1610.0 4155 4726 5347 5721 5766 5601 5280 4469 3478 2478
1650.0 1698 1233 953 754 622 538 447 428 344 317
1690.0 294 288 238 244 231 245 243 221 260 274
1730.0 268 245 287 285 284 284 304 299 305 317
1770.0 288 278 267 261 246 247 221 223 217 224
1810.0 205 202 202 184 190 180 205 217 238 241
1850.0 262 270 280 284 273 264 265 268 278 292
1890.0 292 290 296 291 287 265 244 220 196 181
1930.0 163 137 122 103 97 95 89 85 84 84
1970.0 84 86 85 86 89 87 88 92 94 97
2010.0 97 108 112 120 125 130 132 129 120 112
2050.0 97 86 75 71 62 68 68 72 76 78
2090.0 78 80 80 76 73 66 59 53 44 44
2130.0 40 40 36 36 34 35 38 36 42 44
2170.0 43 43 46 48 48 51 48 46 45 44
2210.0 42 41 38 33 34 39 38 39 47 55
2250.0 58 64 70 72 74 73 72 71 69 64
2290.0 60 62 62 64 61 59 56 50 45 52
2330.0 56 58 64 86 87 84 77 84 93 119
2370.0 131 127 121 117 104 93 93 85 93 94
2410.0 93 98 98 98 99 97 97 106 111 122
2450.0 128 136 141 145 148 154 155 147 145 140
2490.0 127 117 106 88 75 69 56 54 54 53
2530.0 53 55 57 61 60 63 70 75 80 84
2570.0 80 82 81 80 78 79 83 88 94 98
2610.0 99 96 93 93 84 84 88 92 87 87
2650.0 92 87 84 78 70 63 55 49 48 45
2690.0 38 38 37 36 35 37 38 35 32 26
2730.0 27 26 25 23 21 28 22 20 18 21
2770.0 17 19 17 12 10 9 7 8 6 0
2810.0 2 1 1 1 4 1 9 15 9 14
2850.0 23 27 32 29 32 34 39 39 40 37
2890.0 42 42 42 49 53 55 63 63 66 64
2930.0 61 67 68 65 63 60 59 65 61 67
2970.0 70 70 70 77 85 105 135 187 263 376
3010.0 535 746 987 1236 1482 1770 2090 2254 2303 2322
3050.0 2350 2317 2255 2196 2153 2117 2031 1945 1831 1670
3090.0 1441 1178 924 730 581 475 374 303 253 204
3130.0 171 142 118 95 77 66 65 58 60 61
3170.0 72 78 85 96 101 110 115 119 121 116
3210.0 119 117 105 111 107 101 89 80 67 68
3250.0 53 48 48 40 38 37 46 46 32 46
3290.0 42 42 50 43 44 57 54 63 67 76
3330.0 86 113 133 146 172 196 216 255 296 323
3370.0 360 405 459 518 575 651 766 878 977 1042
3410.0 1110 1126 1088 1002 869 772 662 553 456 409
3450.0 386 390 391 421 482 576 690 826 970 1125
3490.0 1272 1365 1465 1572 1662 1696 1662 1582 1569 1480
3530.0 1350 1195 1052 937 845 775 712 647 602 538
3570.0 518 503 473 454 418 400 397 358 358 332
3610.0 310 253 263 255 268 290 377 566 871 1411
3650.0 2096 2766 2834 2480 2638 2737 1993 1205 617 313
3690.0 154 105 69 59 49 19 7 16 2 0
3730.0 0 0 0 0 0 0 0 0 0 0
3770.0 0 0 0 0 0 0 0 0 0 0
3810.0 0 0 0 0 0 0 0 0 0 0
3850.0 0 0 0 0 0 0 0 17 19 18
3890.0 20 41 26 14 6 28 45 35 21 0
3930.0 0 0 0 0 0 0 0 0 0 0
##END=
