##TITLE=Phenol, 2-chloro-
##JCAMP-DX=4.24
##DATA TYPE=INFRARED SPECTRUM
##ORIGIN=Sadtler Research Labs Under US-EPA Contract
##OWNER=NIST Standard Reference Data Program
##CAS REGISTRY NO=95-57-8
##MOLFORM=C 6 H 5 Cl O
##XUNITS=1/CM
##YUNITS=ABSORBANCE
##XFACTOR=1.0
##YFACTOR=0.000123297
##DELTAX=4.0
##FIRSTX=450.0
##LASTX=3966.0
##FIRSTY=0.000000
##MAXX=3966
##MINX=450
##MAXY=1.23297
##MINY=0
##NPOINTS=880
##XYDATA=(X++(Y..Y))
450.0 0 71 117 72 111 141 272 384 684 984
490.0 865 931 1061 861 508 365 290 277 173 217
530.0 205 208 377 190 287 549 517 556 576 529
570.0 402 225 202 158 180 171 94 63 125 94
610.0 86 80 115 107 119 146 124 197 176 163
650.0 145 212 232 438 830 1437 1730 1899 1928 1930
690.0 1285 720 590 597 692 617 555 596 785 1364
730.0 2150 3143 3618 5145 7861 5290 3731 3541 2621 1582
770.0 915 689 579 522 491 493 377 180 223 184
810.0 221 261 437 674 1036 1317 1073 1185 1312 931
850.0 607 365 239 188 155 152 142 133 124 109
890.0 92 94 88 96 101 119 127 160 181 200
930.0 381 307 241 238 196 156 136 109 99 112
970.0 141 126 110 123 124 141 164 191 189 235
1010.0 378 718 1451 1902 2070 2083 2150 1923 1346 1552
1050.0 2033 2135 2317 2063 1870 998 468 301 238 238
1090.0 245 282 305 372 435 523 743 1126 1234 1259
1130.0 1152 1201 1007 789 956 1085 956 1247 1429 1526
1170.0 1737 2142 2419 2846 4068 5628 8228 7566 6672 8649
1210.0 7046 4403 2677 1543 1036 918 1170 1700 2587 3837
1250.0 4880 4544 4435 4670 3274 2156 1839 2082 2889 3720
1290.0 3882 3544 3469 2662 1274 541 434 430 618 874
1330.0 1276 1686 1897 1800 1679 1661 1201 652 329 203
1370.0 190 258 368 416 404 402 362 258 165 149
1410.0 126 157 118 177 132 167 142 218 266 404
1450.0 630 930 1253 1497 2318 4114 7040 10000 9837 9808
1490.0 9971 7645 4274 2550 1762 1386 1183 840 446 278
1530.0 172 176 165 173 178 217 233 259 404 586
1570.0 985 1502 2002 2401 2988 3571 3672 3539 3098 2612
1610.0 1930 1317 816 565 382 295 192 139 100 95
1650.0 49 114 112 147 178 188 180 197 153 162
1690.0 127 122 115 112 99 97 96 74 98 95
1730.0 83 72 97 88 81 99 132 158 196 255
1770.0 260 246 235 224 174 131 104 106 118 140
1810.0 138 135 134 111 92 72 78 88 97 102
1850.0 126 144 142 136 131 115 117 127 161 201
1890.0 235 232 229 235 199 151 133 143 179 217
1930.0 238 229 205 167 119 84 78 74 84 82
1970.0 87 90 87 88 88 81 81 84 77 70
2010.0 64 60 59 67 79 81 82 86 87 85
2050.0 78 73 75 76 73 83 84 97 103 107
2090.0 101 103 95 90 91 95 101 107 112 107
2130.0 103 97 86 77 76 79 82 84 84 86
2170.0 84 81 76 73 71 66 67 62 62 63
2210.0 60 60 64 67 68 68 70 77 78 83
2250.0 86 90 88 87 91 94 101 96 97 101
2290.0 104 112 121 135 156 175 176 165 162 141
2330.0 130 106 96 85 91 98 118 113 96 82
2370.0 76 75 81 87 99 110 111 112 116 119
2410.0 112 110 109 116 126 124 129 129 124 114
2450.0 111 108 103 101 103 111 111 125 143 157
2490.0 169 167 166 161 143 128 122 122 137 149
2530.0 166 179 189 186 167 141 120 94 71 63
2570.0 62 60 68 67 63 65 64 68 67 73
2610.0 76 81 94 103 113 111 121 115 110 103
2650.0 95 96 102 101 111 115 117 112 107 100
2690.0 95 82 72 66 63 60 66 69 69 73
2730.0 76 77 74 75 76 77 76 79 78 79
2770.0 75 72 70 70 65 66 64 66 63 64
2810.0 65 63 63 67 61 68 67 73 73 75
2850.0 73 63 70 71 70 78 79 74 80 73
2890.0 69 71 74 82 78 83 90 82 90 88
2930.0 94 89 85 77 75 79 83 81 81 76
2970.0 74 72 76 75 73 65 73 75 78 94
3010.0 114 138 166 192 233 313 415 519 638 716
3050.0 769 792 794 735 669 694 830 1088 1327 1383
3090.0 1354 1325 1087 723 434 293 205 154 121 95
3130.0 99 86 82 80 90 78 85 91 99 107
3170.0 111 119 112 103 95 95 104 97 99 87
3210.0 90 94 95 87 76 76 81 78 75 74
3250.0 71 75 71 64 67 63 61 62 60 60
3290.0 65 67 71 85 85 94 109 118 135 133
3330.0 134 129 112 99 96 82 75 74 93 86
3370.0 98 83 89 83 90 85 89 82 82 84
3410.0 93 82 85 97 89 83 83 73 79 87
3450.0 95 80 85 72 87 73 81 77 94 79
3490.0 90 83 80 92 83 111 95 90 113 115
3530.0 124 118 138 161 196 254 347 579 1145 2649
3570.0 5142 6789 7238 7531 6500 4877 2634 1165 557 320
3610.0 238 183 164 144 154 182 192 285 385 507
3650.0 519 491 487 469 358 239 183 131 131 102
3690.0 131 108 109 113 112 114 121 106 113 119
3730.0 98 131 124 99 149 125 110 121 113 89
3770.0 104 104 85 116 96 93 79 104 103 100
3810.0 108 120 149 161 146 158 181 177 146 120
3850.0 116 166 126 112 134 136 146 132 151 180
3890.0 156 169 135 199 171 149 157 163 148 158
3930.0 157 145 155 151 147 149 130 162 170 122
##END=
