##TITLE=1,4-Dioxane, 2,3-dichloro-
##JCAMP-DX=4.24
##DATA TYPE=INFRARED SPECTRUM
##ORIGIN=Sadtler Research Labs Under US-EPA Contract
##OWNER=NIST Standard Reference Data Program
##CAS REGISTRY NO=95-59-0
##MOLFORM=C 4 H 6 Cl 2 O 2
##XUNITS=1/CM
##YUNITS=ABSORBANCE
##XFACTOR=1.0
##YFACTOR=0.000152719
##DELTAX=4.0
##FIRSTX=450.0
##LASTX=3966.0
##FIRSTY=0.023366
##MAXX=3966
##MINX=450
##MAXY=1.52719
##MINY=0
##NPOINTS=880
##XYDATA=(X++(Y..Y))
450.0 153 77 17 103 106 167 172 228 250 215
490.0 106 134 26 6 37 20 30 22 41 52
530.0 137 186 268 386 285 231 135 61 31 29
570.0 34 59 65 29 40 53 49 87 117 122
610.0 121 119 175 163 189 280 340 395 444 588
650.0 771 1085 1461 2034 2856 4161 5660 7024 8216 8618
690.0 7415 5545 3058 1737 1439 1245 990 696 457 311
730.0 276 232 262 304 471 716 1116 1557 1937 2185
770.0 2180 1826 1444 994 601 484 356 304 251 183
810.0 130 87 69 75 110 116 137 145 177 167
850.0 189 263 429 728 1181 1807 2559 3300 3456 3380
890.0 3347 3209 2466 1751 1279 867 502 337 228 193
930.0 173 175 188 209 208 206 194 194 191 176
970.0 173 153 137 122 148 163 161 179 184 192
1010.0 207 219 284 453 865 1424 1608 1717 1524 864
1050.0 394 222 204 212 229 246 265 275 281 283
1090.0 320 421 677 1101 1657 2269 2419 2073 1603 960
1130.0 818 819 884 1036 1457 2438 4224 6775 9271 10000
1170.0 9433 7499 5179 2659 1089 412 223 167 169 170
1210.0 184 204 240 257 269 272 247 248 261 287
1250.0 334 408 481 727 1086 1483 1689 1635 1468 1046
1290.0 638 332 187 155 131 131 106 122 114 184
1330.0 294 370 392 386 277 216 94 75 54 80
1370.0 85 135 211 242 296 241 163 132 41 39
1410.0 30 47 45 47 59 54 61 53 93 131
1450.0 257 406 475 578 510 427 285 150 74 35
1490.0 21 17 10 14 3 4 13 5 3 2
1530.0 11 9 9 2 12 17 15 12 9 24
1570.0 19 13 10 12 10 13 13 7 13 8
1610.0 13 1 10 6 13 14 19 21 33 36
1650.0 40 26 41 37 30 28 18 17 18 4
1690.0 12 14 3 6 14 20 21 20 20 28
1730.0 26 21 24 39 41 46 50 51 49 47
1770.0 45 43 52 56 65 71 72 78 72 63
1810.0 51 42 31 24 21 17 14 19 20 18
1850.0 24 27 26 29 29 31 32 35 32 31
1890.0 25 22 20 20 22 25 30 39 46 55
1930.0 61 62 57 50 43 39 36 39 41 57
1970.0 76 105 135 168 188 199 188 162 133 105
2010.0 86 70 59 50 44 44 44 44 36 33
2050.0 31 35 39 42 44 38 26 18 10 10
2090.0 13 17 25 31 37 38 39 29 29 24
2130.0 19 21 17 20 17 20 21 19 18 20
2170.0 20 18 19 19 23 32 34 36 40 45
2210.0 45 47 47 50 49 48 46 44 40 33
2250.0 36 32 34 38 48 52 56 56 52 47
2290.0 39 35 31 23 16 11 11 8 15 19
2330.0 18 30 29 20 36 22 3 15 45 60
2370.0 64 77 73 61 47 45 38 30 26 24
2410.0 29 27 32 35 34 29 31 28 34 36
2450.0 34 38 36 34 39 40 36 33 38 46
2490.0 54 58 58 51 43 37 32 25 21 25
2530.0 29 27 29 30 32 35 36 37 36 33
2570.0 31 29 33 34 32 31 33 29 28 28
2610.0 23 24 23 25 25 23 21 27 30 22
2650.0 18 18 11 1 5 12 24 37 41 47
2690.0 44 38 32 35 39 46 50 58 50 52
2730.0 47 45 43 40 47 55 67 83 89 85
2770.0 81 70 53 51 43 44 45 43 45 39
2810.0 45 39 50 45 47 47 53 63 70 77
2850.0 79 90 88 92 91 111 133 188 275 403
2890.0 552 627 641 577 485 359 272 209 186 196
2930.0 213 319 470 705 869 1002 947 746 574 317
2970.0 199 191 341 626 1076 1416 1681 1673 1413 905
3010.0 544 297 250 253 277 267 220 158 89 64
3050.0 38 45 36 38 29 35 26 30 28 24
3090.0 33 22 37 29 36 34 26 27 30 35
3130.0 29 29 23 27 19 24 24 23 29 24
3170.0 22 22 27 24 28 23 21 16 8 19
3210.0 17 13 28 21 21 26 27 20 26 22
3250.0 22 21 19 23 22 22 29 42 32 22
3290.0 37 25 25 26 19 7 14 29 26 30
3330.0 28 23 27 35 19 24 33 22 25 27
3370.0 28 33 26 24 26 29 31 24 23 30
3410.0 28 28 19 25 34 27 37 36 31 29
3450.0 25 14 27 22 20 22 18 30 23 19
3490.0 20 20 26 24 27 21 21 21 19 24
3530.0 34 33 26 22 26 22 17 20 18 25
3570.0 28 16 0 20 16 6 6 14 27 28
3610.0 27 15 5 10 9 13 17 3 12 15
3650.0 12 2 22 16 4 12 1 11 8 2
3690.0 6 10 12 13 16 10 10 15 7 10
3730.0 13 16 23 2 16 16 17 2 4 5
3770.0 20 12 11 33 14 20 17 19 16 9
3810.0 16 10 16 18 10 8 20 6 7 20
3850.0 4 1 0 18 8 9 15 18 43 14
3890.0 5 16 18 7 35 19 5 21 0 10
3930.0 11 20 14 19 15 12 16 27 18 12
##END=
