##TITLE=Benzenamine, 2-methyl-
##JCAMP-DX=4.24
##DATA TYPE=INFRARED SPECTRUM
##ORIGIN=Sadtler Research Labs Under US-EPA Contract
##OWNER=NIST Standard Reference Data Program
##CAS REGISTRY NO=95-53-4
##MOLFORM=C 7 H 9 N
##XUNITS=1/CM
##YUNITS=ABSORBANCE
##XFACTOR=1.0
##YFACTOR=0.000083008
##DELTAX=4.0
##FIRSTX=450.0
##LASTX=3966.0
##FIRSTY=0.048394
##MAXX=3966
##MINX=450
##MAXY=0.83008
##MINY=0
##NPOINTS=880
##XYDATA=(X++(Y..Y))
450.0 583 626 499 333 383 156 220 177 198 241
490.0 233 359 354 542 490 553 451 434 425 320
530.0 283 220 259 175 250 308 362 375 363 435
570.0 407 429 394 436 343 398 428 386 415 397
610.0 502 493 673 740 937 1068 1343 1612 1859 2193
650.0 2420 2706 2780 2861 2747 2630 2451 2210 2013 1803
690.0 1719 1668 1653 1620 1767 2286 2294 2238 2884 3783
730.0 4721 5400 6169 10000 9873 6862 5694 5006 3847 2581
770.0 1674 1062 821 711 586 562 499 455 496 553
810.0 481 494 473 492 509 549 581 573 667 540
850.0 445 383 281 195 125 105 94 80 49 38
890.0 4 9 5 29 40 68 96 84 200 312
930.0 130 102 108 74 49 36 57 89 136 195
970.0 277 416 520 552 564 495 487 362 185 94
1010.0 65 53 84 146 267 399 539 598 624 639
1050.0 683 702 719 777 825 857 849 818 730 670
1090.0 640 617 600 561 535 465 419 365 339 353
1130.0 433 587 740 883 937 966 903 790 617 438
1170.0 250 137 72 42 40 55 80 90 108 116
1210.0 132 125 122 131 156 224 316 489 749 1220
1250.0 1933 2928 3926 4464 4741 4706 4505 3716 2727 2072
1290.0 2026 2069 2162 2215 2168 1977 1327 925 751 525
1330.0 308 156 92 63 57 62 82 95 138 182
1370.0 242 291 333 335 336 344 274 187 123 115
1410.0 87 124 119 242 283 508 816 1186 1518 1842
1450.0 2276 2508 2806 3002 3241 3310 3414 3776 3929 4124
1490.0 4394 5485 6268 6786 6537 5608 5346 4375 2612 1150
1530.0 652 530 420 494 439 528 524 631 784 903
1570.0 1176 1433 1833 2148 2376 2586 2760 2950 3164 3726
1610.0 4729 6241 7698 8482 9625 8622 8635 6658 5510 3587
1650.0 2524 1878 1096 1023 743 732 528 554 433 393
1690.0 337 317 315 224 291 237 267 218 268 227
1730.0 233 230 222 218 226 265 256 294 267 274
1770.0 259 240 208 169 177 177 190 169 168 149
1810.0 131 97 74 69 54 91 93 125 124 144
1850.0 138 143 149 155 201 261 339 335 341 344
1890.0 337 266 215 204 228 274 282 281 257 240
1930.0 196 121 76 51 50 39 45 32 35 22
1970.0 27 21 21 27 32 37 36 48 42 43
2010.0 38 40 29 34 38 36 43 44 49 47
2050.0 49 43 40 35 34 34 29 38 31 35
2090.0 32 41 42 44 53 51 54 48 47 38
2130.0 29 25 24 19 14 13 9 10 4 9
2170.0 4 9 9 6 9 12 15 8 15 17
2210.0 22 24 27 29 26 30 23 26 22 19
2250.0 14 10 6 3 0 1 1 2 10 16
2290.0 21 24 31 37 44 48 49 54 54 58
2330.0 57 50 47 54 52 34 49 37 59 43
2370.0 49 42 40 31 22 13 9 9 6 12
2410.0 13 17 24 27 32 38 42 41 49 49
2450.0 56 56 68 74 74 68 58 48 39 27
2490.0 18 19 17 15 18 21 22 28 36 37
2530.0 42 41 40 35 30 27 21 24 22 32
2570.0 34 45 45 49 56 69 77 89 105 121
2610.0 136 134 134 120 102 72 55 43 39 35
2650.0 34 37 31 34 35 32 35 32 30 32
2690.0 32 30 32 32 37 38 42 49 62 87
2730.0 124 168 203 227 229 233 204 159 116 90
2770.0 81 82 82 83 87 88 94 100 112 125
2810.0 140 160 169 182 198 220 241 276 321 395
2850.0 520 725 1035 1375 1673 1891 2042 2119 2117 2056
2890.0 1944 1852 1801 1799 1822 1894 2051 2236 2383 2499
2930.0 2569 2600 2555 2492 2320 1964 1672 1485 1379 1375
2970.0 1476 1621 1681 1586 1537 1527 1311 1134 1098 1269
3010.0 1657 2216 2889 3525 3920 4014 4180 4084 3568 3080
3050.0 2787 2647 2646 2813 2990 3122 3102 2950 2707 2414
3090.0 2075 1733 1404 1100 876 701 569 472 406 354
3130.0 292 228 175 141 111 98 89 80 83 74
3170.0 76 71 78 77 82 83 96 103 108 122
3210.0 124 130 124 122 110 104 97 79 74 72
3250.0 59 45 44 34 38 30 24 10 11 12
3290.0 13 17 13 11 22 16 6 11 13 17
3330.0 15 19 14 19 23 23 24 22 37 36
3370.0 43 47 65 104 153 241 387 555 693 827
3410.0 901 902 848 692 559 407 280 196 161 146
3450.0 135 131 150 185 250 367 513 719 902 1043
3490.0 1129 1193 1167 1012 830 684 529 371 260 193
3530.0 142 110 88 76 68 55 44 45 25 45
3570.0 41 27 22 18 35 31 51 31 40 34
3610.0 44 35 41 53 29 42 35 11 28 17
3650.0 49 39 15 47 8 51 10 65 23 27
3690.0 42 34 22 23 26 37 41 41 32 40
3730.0 38 40 59 25 95 21 75 50 42 40
3770.0 45 47 22 43 17 16 12 30 3 54
3810.0 0 19 14 43 23 26 28 61 40 53
3850.0 68 85 85 104 95 124 114 103 102 122
3890.0 81 115 76 121 102 92 65 98 80 79
3930.0 71 45 61 52 52 48 51 59 65 51
##END=
