##TITLE=Phenol, 2-bromo-
##JCAMP-DX=4.24
##DATA TYPE=INFRARED SPECTRUM
##ORIGIN=Sadtler Research Labs Under US-EPA Contract
##OWNER=NIST Standard Reference Data Program
##CAS REGISTRY NO=95-56-7
##MOLFORM=C 6 H 5 Br O
##XUNITS=1/CM
##YUNITS=ABSORBANCE
##XFACTOR=1.0
##YFACTOR=0.000067703
##DELTAX=4.0
##FIRSTX=450.0
##LASTX=3966.0
##FIRSTY=0.025321
##MAXX=3966
##MINX=450
##MAXY=0.67703
##MINY=0
##NPOINTS=880
##XYDATA=(X++(Y..Y))
450.0 374 281 447 865 1411 1245 1110 1199 690 239
490.0 159 84 79 18 48 13 29 40 73 92
530.0 85 130 165 360 465 513 519 416 183 142
570.0 103 54 69 53 67 20 53 25 29 27
610.0 62 33 36 63 70 77 107 170 349 907
650.0 1542 1625 1994 1525 1033 224 215 141 234 228
690.0 274 296 287 451 474 533 475 518 520 877
730.0 1539 2772 3854 4923 8266 5991 4052 3720 2263 1373
770.0 915 774 714 567 490 264 169 110 113 111
810.0 167 319 542 941 1165 1106 1233 1226 835 657
850.0 404 261 213 169 169 143 164 132 117 72
890.0 63 63 41 45 35 51 61 100 140 176
930.0 336 316 290 270 239 169 135 89 82 69
970.0 91 91 102 110 112 122 105 123 143 297
1010.0 646 1799 3277 3547 3608 3971 2601 1742 1588 1613
1050.0 1164 519 199 142 120 133 117 146 146 172
1090.0 198 258 360 437 578 744 834 740 727 529
1130.0 365 340 414 575 866 1153 1027 1283 1437 1480
1170.0 1674 1799 2183 2941 4044 6156 9366 7484 8447 9342
1210.0 5613 3395 1907 1029 746 733 1000 1563 2605 3556
1250.0 3910 3708 3797 2903 1620 1272 1313 1874 2823 3660
1290.0 3683 3621 3241 1909 895 603 466 435 622 939
1330.0 1382 1892 2177 1860 1921 1571 797 426 208 175
1370.0 230 325 368 378 386 291 202 145 130 97
1410.0 91 82 58 57 71 99 132 213 342 476
1450.0 731 1157 1566 2305 4052 7106 9868 9883 10000 9291
1490.0 5732 3454 2394 1746 1377 1085 641 309 161 86
1530.0 53 63 86 110 136 189 281 395 642 915
1570.0 1188 1523 1994 2202 2383 2804 3183 3251 2740 2473
1610.0 1979 1144 596 285 130 74 42 24 15 21
1650.0 15 11 43 66 124 167 186 181 160 110
1690.0 89 79 71 54 47 44 32 26 27 39
1730.0 32 35 48 71 75 75 87 93 124 170
1770.0 205 194 196 163 104 58 47 55 71 91
1810.0 94 85 74 45 19 19 19 24 26 39
1850.0 54 68 78 68 66 51 38 41 62 106
1890.0 164 191 178 178 139 73 56 51 91 148
1930.0 194 185 174 125 56 21 15 12 12 11
1970.0 13 17 19 21 22 21 17 15 12 7
2010.0 9 11 19 21 31 32 35 27 19 20
2050.0 19 22 28 35 42 47 44 42 45 37
2090.0 35 25 23 26 36 41 46 52 53 49
2130.0 40 33 25 21 16 14 9 12 10 8
2170.0 7 2 6 4 7 1 5 6 5 5
2210.0 2 6 7 15 15 25 25 22 27 33
2250.0 26 20 22 22 24 23 25 27 28 31
2290.0 40 47 62 78 83 89 77 57 32 14
2330.0 0 0 0 0 0 25 0 0 0 0
2370.0 0 2 10 26 40 47 48 55 55 47
2410.0 45 49 51 53 56 60 58 62 62 60
2450.0 58 55 49 49 49 48 58 72 82 99
2490.0 102 104 105 86 71 69 69 69 87 103
2530.0 118 130 131 117 97 74 43 24 14 12
2570.0 13 13 12 14 16 13 13 17 27 34
2610.0 41 48 56 68 75 73 61 48 32 25
2650.0 21 29 34 39 46 55 56 53 45 34
2690.0 21 17 15 17 11 15 15 18 17 19
2730.0 21 27 25 29 29 34 33 33 32 33
2770.0 31 27 26 22 24 26 20 18 13 16
2810.0 10 6 7 4 10 12 14 17 23 22
2850.0 22 23 21 21 18 18 15 15 13 12
2890.0 8 10 9 16 15 26 29 21 21 17
2930.0 19 12 15 13 11 5 5 7 6 0
2970.0 2 8 8 10 8 3 8 15 24 33
3010.0 49 75 107 137 191 265 357 449 528 581
3050.0 591 533 469 420 429 552 819 1245 1576 1641
3090.0 1610 1346 807 415 244 153 93 47 35 17
3130.0 18 17 23 24 29 36 37 38 32 28
3170.0 29 28 23 24 24 34 34 26 22 19
3210.0 15 12 11 16 17 11 14 16 15 17
3250.0 13 15 16 20 20 10 11 11 10 9
3290.0 9 10 19 17 7 10 15 17 19 24
3330.0 16 25 57 99 113 113 108 82 53 37
3370.0 24 20 15 13 13 12 4 10 12 12
3410.0 13 13 9 6 8 17 13 10 12 5
3450.0 11 18 14 14 9 15 15 15 15 14
3490.0 15 28 32 42 41 44 53 51 67 65
3530.0 120 174 305 673 1974 4940 7527 8525 8563 7102
3570.0 4166 2095 1110 597 320 198 143 96 44 34
3610.0 14 28 24 24 42 42 75 128 190 251
3650.0 215 229 221 160 106 50 25 14 21 10
3690.0 3 10 9 13 17 4 12 17 25 3
3730.0 6 0 3 2 1 15 5 33 55 68
3770.0 57 58 47 28 22 10 11 0 0 0
3810.0 13 0 0 0 8 1 0 0 2 10
3850.0 4 0 8 9 6 0 0 11 6 11
3890.0 24 20 21 6 19 45 48 26 32 18
3930.0 0 10 4 19 12 11 9 22 14 38
##END=
