##TITLE=Benzenamine, 2,4-dimethyl-
##JCAMP-DX=4.24
##DATA TYPE=INFRARED SPECTRUM
##ORIGIN=Sadtler Research Labs Under US-EPA Contract
##OWNER=NIST Standard Reference Data Program
##CAS REGISTRY NO=95-68-1
##MOLFORM=C 8 H 11 N
##XUNITS=1/CM
##YUNITS=ABSORBANCE
##XFACTOR=1.0
##YFACTOR=0.000097626
##DELTAX=4.0
##FIRSTX=450.0
##LASTX=3966.0
##FIRSTY=0.018158
##MAXX=3966
##MINX=450
##MAXY=0.97626
##MINY=0
##NPOINTS=880
##XYDATA=(X++(Y..Y))
450.0 186 336 297 159 277 262 295 283 222 291
490.0 204 275 223 335 325 405 465 490 592 690
530.0 797 828 960 992 1170 1223 913 801 751 752
570.0 670 679 706 765 763 908 879 920 985 985
610.0 1023 1014 1076 1089 1149 1200 1294 1403 1506 1669
650.0 1788 1887 1859 1751 1617 1311 1124 944 815 736
690.0 646 623 574 542 492 505 516 505 507 470
730.0 460 423 384 351 348 347 338 334 329 303
770.0 271 240 344 488 780 1213 1740 2288 2975 3420
810.0 3030 2538 2072 1577 1145 789 586 445 386 341
850.0 351 380 455 524 599 816 833 525 490 379
890.0 249 158 98 51 17 25 14 36 44 63
930.0 77 53 41 29 38 23 24 35 49 74
970.0 104 147 184 226 267 328 389 456 538 585
1010.0 570 499 411 294 209 164 183 203 263 298
1050.0 330 351 345 348 352 363 379 414 438 449
1090.0 452 429 406 358 317 269 236 191 181 172
1130.0 192 257 385 627 921 1077 976 993 926 616
1170.0 335 178 108 79 71 66 68 69 78 93
1210.0 108 136 182 277 446 708 937 1055 1100 1119
1250.0 1071 1110 1457 2164 3068 3891 4580 4785 4525 3699
1290.0 2646 1739 1184 849 650 545 454 349 256 178
1330.0 128 110 32 61 121 129 145 134 134 166
1370.0 216 216 303 331 338 378 311 261 342 420
1410.0 485 619 545 695 696 724 664 697 793 811
1450.0 903 939 885 991 1151 1270 1311 1441 1620 1750
1490.0 1940 2683 3730 6344 8112 9605 10000 8850 7440 3809
1530.0 2000 1089 716 496 444 528 406 323 389 482
1570.0 485 548 698 798 1005 1124 1352 1563 1904 2204
1610.0 2469 2794 3229 3799 4421 4660 4827 4232 3846 2605
1650.0 1682 1080 652 553 366 342 142 272 103 82
1690.0 123 155 28 26 122 172 157 77 256 315
1730.0 308 229 317 307 229 170 187 169 137 158
1770.0 88 49 109 74 105 83 98 101 86 138
1810.0 117 88 99 79 51 52 83 144 131 170
1850.0 256 312 301 302 246 155 166 135 122 96
1890.0 84 86 102 108 104 104 88 91 63 90
1930.0 94 88 86 56 66 75 76 62 68 49
1970.0 58 61 62 61 64 36 36 54 51 52
2010.0 52 45 42 53 66 66 80 76 79 81
2050.0 86 82 78 69 54 63 61 62 56 59
2090.0 53 62 62 58 55 49 44 38 41 37
2130.0 38 36 36 37 32 36 32 35 30 30
2170.0 24 23 19 17 18 14 16 13 18 18
2210.0 24 23 21 23 26 27 27 26 28 26
2250.0 25 26 28 28 30 34 40 40 40 39
2290.0 37 32 31 35 35 31 30 31 21 24
2330.0 23 27 25 31 39 37 26 31 51 59
2370.0 56 55 57 57 55 61 68 72 68 70
2410.0 68 67 63 59 59 62 63 58 61 57
2450.0 58 53 54 55 54 55 55 55 53 56
2490.0 57 58 58 62 65 67 68 70 70 69
2530.0 71 74 80 82 82 82 81 77 75 72
2570.0 65 65 69 71 77 89 94 97 99 94
2610.0 89 85 83 77 72 70 64 64 63 66
2650.0 67 70 74 77 79 79 78 80 83 84
2690.0 86 86 89 88 92 95 98 107 116 145
2730.0 197 271 341 379 393 374 294 209 161 139
2770.0 135 137 145 149 161 171 179 191 200 214
2810.0 228 250 265 292 324 363 409 478 571 705
2850.0 900 1171 1533 1980 2474 2893 3186 3279 3201 2993
2890.0 2765 2638 2628 2720 2856 3018 3233 3612 4120 4629
2930.0 4959 5022 4824 4298 3582 2827 2298 1979 1772 1690
2970.0 1750 1895 1976 1988 2030 2100 2162 2411 2849 3493
3010.0 4108 4323 4366 4384 4010 3335 2800 2471 2333 2208
3050.0 2041 1893 1762 1548 1244 965 756 628 544 490
3090.0 455 428 406 384 358 333 316 296 286 276
3130.0 266 252 232 212 185 160 137 119 106 95
3170.0 89 85 85 85 85 88 92 98 110 118
3210.0 124 133 133 133 131 132 130 118 116 109
3250.0 94 81 74 69 67 70 61 56 58 61
3290.0 61 65 57 57 59 51 50 52 55 52
3330.0 49 53 58 52 54 51 56 55 61 63
3370.0 67 77 94 119 163 238 356 484 585 638
3410.0 628 553 435 312 219 170 151 130 135 135
3450.0 139 153 185 227 291 403 535 678 757 805
3490.0 832 757 627 497 376 265 199 151 125 114
3530.0 99 82 74 70 67 66 57 55 45 55
3570.0 57 40 38 40 39 41 44 25 39 24
3610.0 41 32 43 44 23 44 39 43 53 54
3650.0 90 82 77 77 35 46 27 54 23 19
3690.0 28 45 14 19 22 29 41 42 32 48
3730.0 42 57 50 54 49 52 58 22 14 23
3770.0 15 19 12 21 8 12 4 0 0 0
3810.0 0 0 0 14 0 0 0 0 0 0
3850.0 0 11 19 0 0 0 10 8 25 29
3890.0 32 17 18 34 37 18 14 14 15 5
3930.0 0 0 5 0 8 8 1 10 0 0
##END=
