##TITLE=Benzenamine, 3,4-dimethyl-
##JCAMP-DX=4.24
##DATA TYPE=INFRARED SPECTRUM
##ORIGIN=Sadtler Research Labs Under US-EPA Contract
##OWNER=NIST Standard Reference Data Program
##CAS REGISTRY NO=95-64-7
##MOLFORM=C 8 H 11 N
##XUNITS=1/CM
##YUNITS=ABSORBANCE
##XFACTOR=1.0
##YFACTOR=0.000083493
##DELTAX=4.0
##FIRSTX=450.0
##LASTX=3966.0
##FIRSTY=0.034149
##MAXX=3966
##MINX=450
##MAXY=0.83493
##MINY=0
##NPOINTS=880
##XYDATA=(X++(Y..Y))
450.0 409 634 589 241 390 521 446 468 422 504
490.0 331 396 274 296 286 315 359 336 479 515
530.0 635 635 835 838 982 1004 1093 1156 1157 1192
570.0 1008 909 760 789 629 600 576 589 587 609
610.0 702 676 835 923 1156 1342 1733 2144 2606 3164
650.0 3478 3666 3645 3600 3489 3151 2996 2818 2670 2394
690.0 2034 1802 1603 1397 1216 1161 1057 974 867 802
730.0 731 655 584 522 493 418 396 357 352 369
770.0 422 526 739 1080 1486 1934 2370 3060 3820 3276
810.0 2481 2132 1672 1264 941 877 897 1031 1226 1574
850.0 1829 1527 1290 1099 844 610 423 299 221 179
890.0 138 109 80 59 45 41 44 43 62 80
930.0 120 135 157 159 161 142 131 132 144 182
970.0 218 280 345 445 571 743 914 1063 1129 1127
1010.0 1061 887 697 534 417 304 250 209 199 215
1050.0 259 342 442 586 713 807 831 817 734 600
1090.0 451 331 269 250 299 376 461 509 544 541
1130.0 499 407 301 239 218 257 319 364 313 307
1170.0 340 246 141 83 74 110 202 360 569 746
1210.0 844 896 848 689 455 303 241 237 295 430
1250.0 706 1194 1936 2574 2893 2942 2916 2585 2001 1655
1290.0 1961 2615 3120 3245 3093 2848 2149 1186 504 245
1330.0 138 118 79 87 102 129 160 191 226 260
1370.0 337 353 344 385 402 344 284 240 220 225
1410.0 233 306 303 467 545 716 863 1067 1282 1441
1450.0 1665 1825 1977 1957 1965 1917 1903 1881 1995 2200
1490.0 2640 3662 4872 7029 7316 7477 6971 5992 4226 2061
1530.0 1287 1021 901 894 869 1000 976 1001 1141 1310
1570.0 1581 1845 2250 2543 2746 2846 2881 2766 2869 3215
1610.0 3913 5021 6669 8179 10000 9248 9446 7329 6232 3513
1650.0 2085 1447 811 735 502 507 269 381 260 270
1690.0 257 274 238 154 208 180 185 96 182 181
1730.0 175 153 173 162 117 125 94 95 70 85
1770.0 46 25 52 26 33 9 12 0 4 25
1810.0 24 26 39 56 52 82 116 173 194 230
1850.0 245 250 237 203 147 83 85 60 53 39
1890.0 32 26 30 37 32 40 40 54 43 65
1930.0 76 76 82 76 82 79 79 65 64 48
1970.0 51 48 46 46 44 36 30 39 32 35
2010.0 31 32 31 35 43 43 47 44 49 48
2050.0 59 63 72 76 78 84 80 76 67 64
2090.0 53 55 50 47 50 48 50 44 50 45
2130.0 42 42 42 39 39 45 43 46 46 53
2170.0 49 55 56 56 56 54 54 47 51 47
2210.0 46 45 45 45 40 45 46 50 47 54
2250.0 51 50 51 50 52 53 65 64 67 65
2290.0 68 68 70 65 68 71 67 69 63 61
2330.0 54 56 50 63 70 66 71 70 68 59
2370.0 79 66 69 71 68 63 60 61 59 62
2410.0 64 65 62 64 66 62 63 59 64 62
2450.0 65 67 71 72 76 74 72 69 68 68
2490.0 64 60 59 58 59 61 60 54 54 56
2530.0 58 60 66 65 71 79 84 93 102 110
2570.0 113 115 112 111 102 93 94 91 86 82
2610.0 79 71 67 61 60 61 61 62 63 66
2650.0 68 74 72 77 83 82 87 93 102 105
2690.0 117 121 132 143 153 158 164 175 186 209
2730.0 245 291 324 342 337 321 284 238 210 199
2770.0 204 196 200 195 192 191 199 216 237 255
2810.0 277 300 324 357 393 438 485 559 641 752
2850.0 900 1100 1374 1734 2162 2547 2832 2981 2998 2879
2890.0 2688 2508 2407 2422 2533 2744 3024 3442 3979 4548
2930.0 4982 5198 5184 4955 4676 4164 3641 3288 3140 3104
2970.0 3099 2978 2790 2671 2503 2325 2285 2532 3060 3764
3010.0 4327 4532 4557 4472 4013 3360 2893 2641 2524 2418
3050.0 2329 2250 2088 1863 1614 1396 1203 1046 915 808
3090.0 722 639 584 530 492 452 428 415 398 379
3130.0 355 332 304 271 238 213 184 159 148 141
3170.0 127 123 109 110 109 106 109 122 134 141
3210.0 144 145 154 162 162 171 178 170 162 154
3250.0 140 124 116 99 99 105 95 85 84 77
3290.0 78 77 78 74 76 70 68 64 62 68
3330.0 62 70 78 67 70 72 75 85 95 112
3370.0 130 156 184 242 323 439 575 673 772 828
3410.0 801 697 581 472 353 255 221 202 197 197
3450.0 206 224 256 306 378 468 564 646 676 710
3490.0 751 703 574 498 448 331 254 204 174 149
3530.0 133 119 115 115 92 108 84 88 86 78
3570.0 80 73 75 69 76 56 61 56 58 53
3610.0 51 51 48 54 52 55 59 54 53 47
3650.0 47 49 50 45 56 45 54 46 48 52
3690.0 46 45 44 42 40 49 56 46 48 52
3730.0 49 47 54 45 46 43 54 39 53 48
3770.0 44 39 37 41 44 37 32 26 28 31
3810.0 33 26 27 25 41 32 35 34 37 49
3850.0 52 50 58 53 58 57 46 48 49 44
3890.0 31 62 42 50 54 49 59 65 59 50
3930.0 34 57 50 43 45 43 56 67 52 52
##END=
