##TITLE=Benzene, 1,2,4-trimethyl-
##JCAMP-DX=4.24
##DATA TYPE=INFRARED SPECTRUM
##ORIGIN=Sadtler Research Labs Under US-EPA Contract
##OWNER=NIST Standard Reference Data Program
##CAS REGISTRY NO=95-63-6
##MOLFORM=C 9 H 12
##XUNITS=1/CM
##YUNITS=ABSORBANCE
##XFACTOR=1.0
##YFACTOR=0.000049271
##DELTAX=4.0
##FIRSTX=450.0
##LASTX=3966.0
##FIRSTY=0.004730
##MAXX=3966
##MINX=450
##MAXY=0.49271
##MINY=0
##NPOINTS=880
##XYDATA=(X++(Y..Y))
450.0 96 169 117 84 79 90 95 92 183 109
490.0 76 134 67 141 148 147 189 285 470 558
530.0 654 818 1108 584 501 407 301 178 198 116
570.0 82 250 292 300 381 54 127 103 116 130
610.0 124 89 105 112 111 104 99 84 91 79
650.0 39 49 57 59 20 94 74 81 121 159
690.0 149 157 227 283 220 237 274 210 187 222
730.0 323 172 213 193 196 218 189 160 184 165
770.0 218 265 381 721 1248 1992 2683 3204 4338 6019
810.0 2835 2477 1951 1104 602 316 328 205 208 227
850.0 280 325 401 471 534 687 758 460 386 324
890.0 259 214 183 175 179 199 206 211 205 180
930.0 185 175 162 164 153 163 164 182 211 249
970.0 267 311 359 468 612 798 985 1059 1083 1041
1010.0 950 812 689 665 646 568 505 475 481 462
1050.0 429 409 378 352 318 281 245 212 193 160
1090.0 175 150 158 189 210 283 345 414 441 442
1130.0 465 453 407 392 442 526 519 438 488 417
1170.0 319 244 214 192 201 197 196 243 310 364
1210.0 406 416 434 389 317 277 257 276 258 254
1250.0 246 244 213 202 192 189 213 209 216 224
1290.0 218 214 217 219 215 237 227 222 260 279
1330.0 323 343 351 367 365 372 373 385 406 469
1370.0 555 662 757 893 943 905 787 722 638 619
1410.0 660 724 740 858 919 1051 1192 1427 1635 1902
1450.0 2244 2526 2595 2518 2525 2365 2125 1899 1757 1698
1490.0 1830 2348 3311 4272 4675 4692 4223 3366 2053 1224
1530.0 932 862 781 760 746 736 750 731 753 702
1570.0 697 662 649 597 613 619 663 755 852 950
1610.0 1070 1215 1158 983 813 649 385 244 172 150
1650.0 121 121 103 109 147 146 143 190 144 146
1690.0 117 118 140 152 164 224 267 284 309 338
1730.0 369 365 381 375 350 295 243 150 122 113
1770.0 87 79 58 72 77 70 87 83 107 127
1810.0 126 124 130 124 107 91 92 110 102 112
1850.0 113 128 155 186 225 282 316 326 310 296
1890.0 243 180 140 118 97 93 92 93 66 74
1930.0 74 69 64 53 72 54 63 52 54 49
1970.0 40 52 41 40 40 45 42 39 30 30
2010.0 31 27 18 27 19 27 30 19 35 25
2050.0 29 27 16 22 14 25 17 26 26 46
2090.0 44 46 45 44 51 46 34 43 43 52
2130.0 34 54 53 32 33 33 25 33 21 10
2170.0 22 22 21 12 11 11 12 7 8 19
2210.0 14 9 13 19 14 18 6 18 27 27
2250.0 26 28 35 31 33 16 22 37 35 46
2290.0 42 50 48 47 39 42 50 23 23 26
2330.0 22 17 11 0 26 1 7 24 1 1
2370.0 1 11 23 32 38 50 62 62 73 73
2410.0 84 74 70 82 73 73 73 74 83 72
2450.0 75 74 73 73 76 85 83 82 91 86
2490.0 92 86 86 85 76 76 76 65 56 62
2530.0 68 67 67 68 55 50 54 48 47 46
2570.0 47 39 38 48 32 50 48 53 58 31
2610.0 58 48 58 68 68 58 70 55 52 32
2650.0 38 50 41 50 79 69 70 70 58 73
2690.0 84 80 97 106 117 130 127 152 178 241
2730.0 313 417 474 504 512 458 332 259 242 233
2770.0 233 222 245 222 214 224 246 272 295 332
2810.0 380 417 458 500 556 631 713 816 941 1112
2850.0 1379 1706 2177 2803 3558 4294 4841 5153 5232 5112
2890.0 4875 4616 4461 4376 4386 4541 4948 5684 6812 8210
2930.0 9416 9984 10000 9410 8358 7257 6231 5491 5126 4984
2970.0 5038 5039 4816 4717 4623 4370 4309 4598 5136 5683
3010.0 6027 6277 6228 5760 5177 4559 4041 3792 3771 3804
3050.0 3705 3590 3338 2835 2344 1918 1635 1437 1258 1107
3090.0 990 848 744 657 572 520 500 479 467 474
3130.0 447 423 363 325 249 205 176 160 141 131
3170.0 139 110 97 89 83 71 64 83 63 77
3210.0 83 69 61 41 70 69 63 77 79 79
3250.0 63 73 80 53 70 64 71 63 62 62
3290.0 55 79 73 68 67 56 69 84 64 72
3330.0 43 50 62 36 58 26 65 52 63 65
3370.0 49 34 43 42 63 54 42 50 43 71
3410.0 39 43 77 46 66 74 63 52 42 53
3450.0 39 27 37 47 49 35 36 32 59 51
3490.0 84 55 50 41 28 29 50 44 31 40
3530.0 37 54 53 33 26 48 44 45 47 41
3570.0 86 9 41 41 64 56 21 55 52 41
3610.0 43 51 38 93 33 40 51 24 70 48
3650.0 74 63 82 25 64 61 47 81 77 70
3690.0 110 76 64 67 82 54 88 71 75 82
3730.0 98 91 121 91 136 58 111 101 103 81
3770.0 98 107 84 94 93 81 86 74 88 102
3810.0 90 73 86 100 74 98 111 91 85 103
3850.0 117 125 118 93 93 115 92 119 105 118
3890.0 146 162 141 142 117 104 103 95 83 102
3930.0 132 102 83 89 104 98 108 128 127 127
##END=
