##TITLE=Benzenamine, 2,5-dimethyl-
##JCAMP-DX=4.24
##DATA TYPE=INFRARED SPECTRUM
##ORIGIN=Sadtler Research Labs Under US-EPA Contract
##OWNER=NIST Standard Reference Data Program
##CAS REGISTRY NO=95-78-3
##MOLFORM=C 8 H 11 N
##XUNITS=1/CM
##YUNITS=ABSORBANCE
##XFACTOR=1.0
##YFACTOR=0.000074121
##DELTAX=4.0
##FIRSTX=450.0
##LASTX=3966.0
##FIRSTY=0.092281
##MAXX=3966
##MINX=450
##MAXY=0.74121
##MINY=0
##NPOINTS=880
##XYDATA=(X++(Y..Y))
450.0 1245 1605 1420 1156 1000 875 818 845 724 750
490.0 638 701 618 672 680 720 754 761 839 821
530.0 919 908 962 877 1001 976 971 915 883 870
570.0 839 849 941 1022 862 866 791 759 713 731
610.0 770 775 870 913 1065 1160 1410 1609 1926 2199
650.0 2439 2576 2663 2603 2478 2368 2143 2056 1885 1828
690.0 1748 1705 1568 1493 1392 1244 1107 1001 962 868
730.0 864 763 758 706 680 618 558 549 505 574
770.0 631 1038 1490 2218 2605 3684 5323 4117 2663 2558
810.0 1724 1130 614 501 412 466 576 733 926 1134
850.0 1558 1351 1053 867 686 463 322 227 172 147
890.0 135 139 139 145 160 189 215 245 291 331
930.0 378 338 260 229 163 104 79 81 94 129
970.0 168 242 368 583 895 1210 1397 1423 1311 1014
1010.0 643 382 260 212 193 206 236 233 282 274
1050.0 301 314 350 451 594 735 807 821 818 744
1090.0 630 550 525 480 447 393 342 291 259 239
1130.0 238 273 331 444 536 620 667 678 606 483
1170.0 372 227 107 39 11 13 22 56 131 287
1210.0 470 574 608 666 576 389 257 226 196 194
1250.0 204 294 467 770 1176 1643 2092 2466 2900 3202
1290.0 3405 3448 3255 2893 2389 1810 1133 554 267 151
1330.0 114 98 93 92 84 73 68 57 74 100
1370.0 158 244 344 367 405 388 316 274 377 594
1410.0 969 1489 2009 2454 2742 2885 2770 2528 2214 1964
1450.0 1889 1944 1945 1855 1915 2059 1941 1749 1660 1601
1490.0 1590 1687 1912 2370 3161 4480 5555 5754 5431 4980
1530.0 3619 1972 1197 976 920 985 1060 1199 1425 1705
1570.0 2078 2497 2817 2929 2947 2831 2483 2198 2229 2580
1610.0 3235 4287 6103 8458 9980 10000 9504 8319 6007 3654
1650.0 2217 1465 999 720 553 434 330 304 252 274
1690.0 267 278 266 273 267 274 275 256 261 236
1730.0 210 156 147 117 106 88 96 76 74 77
1770.0 67 71 78 78 71 65 61 53 45 50
1810.0 51 55 64 74 80 91 101 115 137 178
1850.0 231 289 302 295 288 249 187 129 92 64
1890.0 52 47 43 40 44 42 39 47 46 41
1930.0 38 41 44 34 41 42 43 43 50 48
1970.0 49 48 44 41 43 37 34 40 39 35
2010.0 37 37 36 41 36 32 37 32 33 32
2050.0 36 31 37 46 59 45 31 25 13 9
2090.0 16 33 49 57 61 59 56 53 51 50
2130.0 56 60 59 60 60 60 64 64 54 48
2170.0 48 48 51 50 56 63 53 57 45 48
2210.0 50 55 58 61 65 65 68 66 64 64
2250.0 54 58 56 59 66 64 67 68 69 68
2290.0 61 56 46 48 34 21 10 11 9 17
2330.0 27 42 70 65 102 64 9 17 51 142
2370.0 175 196 187 160 133 110 98 85 88 83
2410.0 82 89 91 93 91 104 106 113 115 123
2450.0 123 127 126 121 112 107 111 108 109 112
2490.0 114 111 114 109 118 115 111 102 98 101
2530.0 98 103 115 117 124 120 119 126 124 129
2570.0 134 135 144 147 149 158 173 179 186 192
2610.0 186 171 161 146 129 126 96 115 121 112
2650.0 118 106 80 75 63 80 91 95 110 118
2690.0 121 131 130 145 156 167 177 185 205 242
2730.0 301 374 429 457 444 394 292 213 189 179
2770.0 165 169 183 177 193 214 239 250 262 293
2810.0 318 357 360 376 392 432 484 557 624 771
2850.0 957 1231 1715 2336 2987 3476 3754 3792 3583 3224
2890.0 2967 2847 2871 2969 3065 3197 3405 3829 4460 5146
2930.0 5627 5840 5628 5057 4112 3265 2648 2293 2111 2008
2970.0 2057 2258 2340 2288 2394 2457 2498 2736 3265 3919
3010.0 4394 4572 4614 4550 4159 3593 3025 2607 2360 2218
3050.0 2175 2179 2171 2092 1968 1762 1387 1088 880 746
3090.0 657 585 555 490 432 400 332 315 298 295
3130.0 291 288 279 259 266 263 247 206 192 179
3170.0 172 167 118 140 147 144 158 168 182 191
3210.0 206 193 210 209 199 197 196 165 133 129
3250.0 133 133 105 112 115 92 93 105 89 103
3290.0 70 121 108 116 134 138 121 113 107 85
3330.0 89 89 105 101 70 101 93 105 51 26
3370.0 100 84 102 118 256 228 303 482 660 741
3410.0 801 821 734 543 410 299 219 168 128 125
3450.0 148 127 172 201 233 318 443 613 832 982
3490.0 1066 1105 1003 858 671 514 371 274 205 168
3530.0 124 130 97 92 126 71 67 102 88 81
3570.0 81 96 40 15 51 111 60 24 47 84
3610.0 52 41 33 28 63 19 95 81 66 48
3650.0 74 99 66 43 14 16 78 99 60 112
3690.0 90 101 30 53 51 22 38 56 37 5
3730.0 59 47 49 59 114 80 98 28 63 48
3770.0 90 79 31 36 79 28 9 9 40 18
3810.0 12 9 58 9 12 25 14 15 22 9
3850.0 7 90 93 82 25 58 90 169 61 76
3890.0 106 79 62 44 32 12 58 67 30 9
3930.0 41 46 46 87 0 77 64 157 159 45
##END=
