##TITLE=Benzenamine, 5-chloro-2-methyl-
##JCAMP-DX=4.24
##DATA TYPE=INFRARED SPECTRUM
##ORIGIN=Sadtler Research Labs Under US-EPA Contract
##OWNER=NIST Standard Reference Data Program
##CAS REGISTRY NO=95-79-4
##MOLFORM=C 7 H 8 Cl N
##XUNITS=1/CM
##YUNITS=ABSORBANCE
##XFACTOR=1.0
##YFACTOR=0.000091895
##DELTAX=4.0
##FIRSTX=450.0
##LASTX=3966.0
##FIRSTY=0.098511
##MAXX=3966
##MINX=450
##MAXY=0.91895
##MINY=0
##NPOINTS=880
##XYDATA=(X++(Y..Y))
450.0 1072 1297 1147 1102 1096 1014 899 833 762 799
490.0 795 876 816 946 886 943 922 950 997 887
530.0 1013 1010 1138 1019 910 789 575 619 654 773
570.0 953 1174 1002 1135 1031 1011 1017 967 994 911
610.0 733 717 826 1053 1200 1319 1559 1678 1710 2073
650.0 2367 2555 2439 2380 2299 1826 1812 1930 2077 2205
690.0 2280 2349 2482 2180 1934 1718 1498 1357 1178 1265
730.0 1226 1071 1005 790 767 669 759 763 737 714
770.0 847 993 1369 1890 2410 3137 4122 2595 2199 1610
810.0 1089 791 609 592 671 972 1415 1716 2132 2658
850.0 2366 1807 1561 1268 928 761 718 726 880 1322
890.0 1987 3086 4434 4943 4687 3748 2258 935 519 301
930.0 211 194 156 106 162 233 195 223 219 282
970.0 300 391 687 1191 1967 2335 2398 2174 1346 644
1010.0 426 316 282 317 331 323 240 254 219 222
1050.0 400 696 1076 1298 1327 1234 902 536 452 554
1090.0 849 1290 1518 1679 1543 1134 782 612 527 466
1130.0 479 494 517 524 481 397 358 254 193 130
1170.0 69 92 70 166 369 732 1090 1206 1239 1092
1210.0 574 286 255 198 230 293 364 476 629 931
1250.0 1297 1812 2253 2358 2270 2242 1791 1388 1259 1294
1290.0 1453 1529 1365 992 616 297 102 34 28 18
1330.0 10 0 4 25 17 62 89 79 122 148
1370.0 253 350 477 491 468 448 399 541 911 1490
1410.0 2060 2327 2342 2583 2183 1712 1464 1257 1127 1071
1450.0 1115 1256 1298 1378 1474 1660 1928 2329 3158 4724
1490.0 6964 9145 10000 9552 7984 5020 2915 1772 1096 624
1530.0 440 398 461 500 497 551 644 886 1147 1607
1570.0 2222 2867 3407 3621 3693 3535 3367 3730 4524 5267
1610.0 6075 6997 8057 8915 9304 8963 7873 6044 4276 2934
1650.0 2009 1478 1070 833 650 568 525 435 446 428
1690.0 381 388 396 405 320 286 294 304 257 263
1730.0 262 287 221 194 223 203 188 196 193 158
1770.0 111 119 109 96 93 121 110 103 108 128
1810.0 123 83 106 105 129 137 160 187 195 215
1850.0 260 287 283 301 255 196 95 77 82 78
1890.0 99 98 119 83 63 74 87 88 101 103
1930.0 100 91 78 118 94 101 115 119 106 105
1970.0 125 108 87 85 94 96 102 109 101 85
2010.0 53 86 88 96 108 109 97 78 84 105
2050.0 117 113 133 112 93 79 100 116 96 130
2090.0 120 107 90 102 118 115 109 120 128 109
2130.0 126 117 132 109 117 141 145 156 157 146
2170.0 128 115 113 141 130 131 129 103 97 93
2210.0 122 134 139 127 109 109 102 114 131 144
2250.0 133 143 122 128 131 126 139 128 134 129
2290.0 147 152 148 148 149 168 177 220 217 222
2330.0 165 170 203 183 210 229 258 164 122 82
2370.0 134 134 164 159 150 137 123 146 141 147
2410.0 137 129 121 109 122 134 129 141 140 136
2450.0 146 145 153 153 141 154 154 161 165 164
2490.0 159 144 141 153 165 177 199 172 158 147
2530.0 167 175 167 202 193 184 162 174 195 197
2570.0 197 212 199 167 187 177 194 164 167 170
2610.0 144 134 144 151 129 124 134 155 135 152
2650.0 163 144 131 128 169 168 170 198 195 163
2690.0 163 186 214 218 212 231 179 165 174 201
2730.0 228 220 274 294 287 280 274 221 193 172
2770.0 182 174 165 197 188 200 184 195 222 195
2810.0 218 224 220 217 243 285 311 304 316 346
2850.0 366 493 698 1014 1351 1604 1712 1666 1506 1368
2890.0 1303 1264 1283 1337 1431 1435 1442 1455 1490 1621
2930.0 1808 1992 2047 2011 1803 1450 1139 974 891 878
2970.0 949 1035 1218 1214 1163 1145 1010 829 678 638
3010.0 637 667 779 1020 1266 1452 1501 1461 1391 1134
3050.0 930 759 645 572 506 499 502 541 601 647
3090.0 615 605 574 540 468 395 373 282 273 237
3130.0 234 216 190 168 156 153 167 191 177 181
3170.0 124 139 137 156 199 187 205 191 182 181
3210.0 201 227 255 224 224 218 180 207 187 214
3250.0 192 174 181 160 165 161 139 127 126 122
3290.0 173 158 144 135 94 116 107 154 168 159
3330.0 136 101 94 116 132 159 177 138 147 108
3370.0 135 177 178 221 209 252 301 426 602 842
3410.0 1055 1229 1297 1227 1031 783 629 400 290 256
3450.0 221 235 213 239 222 209 255 391 524 717
3490.0 951 1116 1222 1203 1210 1058 874 674 513 377
3530.0 248 200 232 213 181 187 169 154 132 156
3570.0 182 124 131 129 161 145 146 153 156 133
3610.0 140 184 173 156 132 156 108 112 164 189
3650.0 199 149 139 119 119 155 214 176 163 154
3690.0 132 133 126 184 185 179 159 164 149 141
3730.0 158 181 169 164 199 181 161 143 150 145
3770.0 112 166 182 188 159 132 114 103 108 158
3810.0 189 143 148 127 134 119 171 233 208 176
3850.0 158 161 138 170 220 259 211 196 200 176
3890.0 169 155 210 178 138 158 171 150 121 138
3930.0 154 160 193 244 224 197 100 107 107 108
##END=
