##TITLE=Benzenamine, 3-chloro-4-methyl-
##JCAMP-DX=4.24
##DATA TYPE=INFRARED SPECTRUM
##ORIGIN=Sadtler Research Labs Under US-EPA Contract
##OWNER=NIST Standard Reference Data Program
##CAS REGISTRY NO=95-74-9
##MOLFORM=C 7 H 8 Cl N
##XUNITS=1/CM
##YUNITS=ABSORBANCE
##XFACTOR=1.0
##YFACTOR=0.000059576
##DELTAX=4.0
##FIRSTX=450.0
##LASTX=3966.0
##FIRSTY=0.013524
##MAXX=3966
##MINX=450
##MAXY=0.59576
##MINY=0
##NPOINTS=880
##XYDATA=(X++(Y..Y))
450.0 227 244 268 359 474 544 586 514 460 337
490.0 170 124 121 66 50 2 1 22 68 118
530.0 152 173 191 219 210 231 297 353 480 527
570.0 620 664 648 409 293 158 81 70 74 99
610.0 132 168 239 355 498 716 1080 1528 1914 2341
650.0 2981 3610 3899 3967 3728 3033 2563 2043 1801 2013
690.0 2203 1998 2096 1986 1494 1045 810 656 550 500
730.0 475 470 508 529 527 508 498 443 384 328
770.0 295 310 371 544 880 1311 1713 2270 2944 2185
810.0 1690 1324 914 640 569 654 888 1183 1488 1934
850.0 1886 1432 1204 986 822 798 802 827 877 922
890.0 1139 1659 2221 2332 2189 1820 1019 346 147 123
930.0 113 115 107 108 118 136 153 174 211 234
970.0 294 346 397 478 597 712 724 687 624 465
1010.0 327 267 256 272 362 632 1335 2675 3635 3830
1050.0 3704 3109 1401 613 421 388 426 525 610 656
1090.0 628 537 412 275 173 125 100 84 70 63
1130.0 64 74 99 154 159 173 176 134 93 69
1170.0 52 42 35 17 14 32 92 232 353 383
1210.0 392 356 191 72 47 67 134 257 467 801
1250.0 1321 1857 1959 1944 1952 1552 1380 1649 2075 2510
1290.0 2881 2671 2347 1831 931 390 191 122 111 93
1330.0 95 87 75 67 56 47 57 72 102 135
1370.0 168 206 240 262 260 266 268 261 342 540
1410.0 785 928 965 945 830 681 675 731 805 932
1450.0 1038 1067 1046 1030 964 873 861 973 1300 2018
1490.0 3441 5679 7769 8721 8582 6916 4477 2559 1437 879
1530.0 639 488 407 381 409 486 642 877 1223 1559
1570.0 1933 2171 2184 2045 1726 1460 1369 1464 1714 2212
1610.0 2983 4214 6335 8535 9948 10000 8901 6224 4024 2496
1650.0 1432 940 684 556 457 423 428 427 451 418
1690.0 384 356 291 220 193 191 221 229 228 239
1730.0 238 231 164 130 108 86 64 63 48 40
1770.0 47 25 10 6 11 12 4 9 12 9
1810.0 10 2 10 11 12 13 24 35 67 89
1850.0 118 160 171 163 157 115 70 46 28 25
1890.0 28 22 32 42 51 60 69 88 96 94
1930.0 87 88 79 78 74 72 67 59 58 43
1970.0 42 42 33 26 26 19 21 15 16 20
2010.0 14 13 14 14 6 13 15 23 23 32
2050.0 51 49 59 60 60 60 45 35 36 37
2090.0 27 28 28 25 21 22 13 15 15 14
2130.0 15 16 25 24 34 35 34 34 44 45
2170.0 36 27 20 29 28 29 31 21 23 13
2210.0 12 8 3 5 8 2 1 9 10 1
2250.0 11 10 10 11 20 19 29 29 36 40
2290.0 48 49 43 43 44 35 46 43 37 45
2330.0 36 33 33 18 24 23 33 37 3 0
2370.0 0 0 0 12 20 27 29 37 37 37
2410.0 31 21 20 16 9 14 16 7 7 7
2450.0 9 8 9 10 9 9 19 13 14 10
2490.0 15 18 19 19 29 28 29 39 29 37
2530.0 41 49 60 70 68 71 64 57 58 58
2570.0 50 50 59 49 50 50 46 42 36 28
2610.0 36 26 26 27 27 20 18 19 29 19
2650.0 19 29 29 29 36 37 39 37 48 48
2690.0 47 57 47 58 48 48 43 41 42 31
2730.0 42 42 59 86 111 127 120 122 100 70
2770.0 53 52 52 43 52 52 51 54 43 55
2810.0 44 53 62 67 76 93 111 129 146 181
2850.0 226 289 364 461 563 627 655 650 610 548
2890.0 514 487 489 518 558 605 668 750 843 995
2930.0 1199 1396 1470 1431 1355 1175 979 895 949 883
2970.0 842 860 874 869 846 812 730 635 565 541
3010.0 561 619 727 910 1167 1372 1429 1420 1403 1263
3050.0 1168 1150 1125 1037 912 776 669 579 507 427
3090.0 331 270 215 180 171 163 155 162 145 127
3130.0 109 92 85 67 55 49 49 48 39 39
3170.0 31 40 30 33 35 43 35 44 55 81
3210.0 96 97 97 115 115 128 151 154 137 115
3250.0 104 75 74 58 59 49 50 41 50 48
3290.0 32 32 33 22 21 41 26 31 25 32
3330.0 25 33 33 39 53 42 24 63 80 57
3370.0 67 59 90 126 177 238 327 459 636 754
3410.0 822 898 929 764 656 572 385 248 198 136
3450.0 102 93 103 116 151 194 263 333 425 561
3490.0 590 575 607 587 546 479 440 365 247 172
3530.0 135 89 67 58 51 33 16 17 37 26
3570.0 20 25 25 30 27 24 17 25 7 8
3610.0 18 7 5 9 7 28 7 7 7 17
3650.0 17 9 8 7 7 17 8 0 3 6
3690.0 7 6 15 24 23 33 49 49 33 43
3730.0 51 53 45 31 26 8 5 6 6 5
3770.0 6 4 4 4 4 4 8 15 6 4
3810.0 4 10 4 3 12 11 10 18 5 27
3850.0 41 54 52 61 53 52 26 16 17 9
3890.0 19 20 25 21 26 14 24 25 8 7
3930.0 16 22 14 26 44 44 30 21 22 14
##END=
