##TITLE=1,4-Benzenediol, 2-methyl-
##JCAMP-DX=4.24
##DATA TYPE=INFRARED SPECTRUM
##ORIGIN=Sadtler Research Labs Under US-EPA Contract
##OWNER=NIST Standard Reference Data Program
##CAS REGISTRY NO=95-71-6
##MOLFORM=C 7 H 8 O 2
##XUNITS=1/CM
##YUNITS=ABSORBANCE
##XFACTOR=1.0
##YFACTOR=0.000101117
##DELTAX=4.0
##FIRSTX=450.0
##LASTX=3966.0
##FIRSTY=0.106072
##MAXX=3966
##MINX=450
##MAXY=1.01117
##MINY=0
##NPOINTS=880
##XYDATA=(X++(Y..Y))
450.0 1049 802 626 308 286 451 352 262 292 344
490.0 437 470 355 461 430 307 235 151 197 98
530.0 68 56 89 106 101 256 294 402 476 651
570.0 703 541 407 375 281 180 171 143 92 47
610.0 48 62 48 38 46 63 77 71 73 66
650.0 45 8 43 38 41 26 49 11 15 11
690.0 41 45 51 92 96 146 311 572 789 911
730.0 852 788 621 352 145 220 449 967 1557 1861
770.0 2045 2082 2052 1632 1327 1253 1288 1426 1421 1227
810.0 1100 951 724 602 515 554 567 697 860 884
850.0 791 734 730 763 733 565 406 324 259 205
890.0 214 206 212 321 340 220 164 177 163 159
930.0 182 234 274 343 399 392 361 330 304 260
970.0 270 286 361 466 603 734 821 870 840 752
1010.0 600 456 339 266 235 208 191 191 185 185
1050.0 185 207 232 254 293 349 441 562 720 943
1090.0 1150 1269 1260 1217 1105 882 700 658 726 896
1130.0 1205 1650 2113 2456 2774 3206 4076 5495 7031 8458
1170.0 9306 10000 9899 8842 7622 6604 5801 5080 4263 3475
1210.0 2982 2788 2839 3017 3177 3215 3243 3213 2833 2328
1250.0 1918 1664 1352 1160 1182 1322 1574 1911 2305 2782
1290.0 3194 3419 3374 3134 2876 2426 1961 1628 1399 1156
1330.0 891 672 512 417 357 328 271 248 225 213
1370.0 214 230 267 286 294 317 322 297 313 342
1410.0 418 544 709 1035 1268 1587 1788 1904 1931 1759
1450.0 1602 1444 1365 1304 1305 1335 1436 1650 1973 2483
1490.0 3354 4458 5894 6884 7383 7168 6338 5270 3507 2271
1530.0 1374 915 656 546 464 410 400 348 335 303
1570.0 273 307 304 337 385 450 515 560 606 625
1610.0 643 624 593 543 478 444 368 318 284 279
1650.0 306 432 660 942 1271 1464 1513 1523 1290 925
1690.0 551 335 211 183 148 140 147 129 145 135
1730.0 120 131 113 108 82 80 85 78 74 73
1770.0 73 62 56 48 49 48 37 44 30 45
1810.0 44 49 66 55 77 58 67 50 45 41
1850.0 33 41 42 40 46 39 45 34 28 24
1890.0 21 18 22 20 20 6 7 4 6 5
1930.0 10 15 12 18 20 24 26 21 28 16
1970.0 21 18 18 22 24 24 32 39 42 45
2010.0 47 45 39 36 33 34 36 38 42 48
2050.0 50 47 41 34 24 18 14 14 9 12
2090.0 10 11 15 14 19 20 19 21 17 22
2130.0 21 19 24 21 26 23 25 31 26 31
2170.0 37 35 36 38 39 38 39 36 35 37
2210.0 36 35 37 36 38 36 39 42 39 40
2250.0 40 36 36 36 42 43 48 53 49 52
2290.0 50 47 47 47 52 56 61 65 72 81
2330.0 79 88 81 109 88 109 78 108 95 93
2370.0 94 97 98 100 94 82 76 71 65 66
2410.0 65 63 69 71 76 77 81 84 80 82
2450.0 77 79 80 80 87 89 90 93 89 83
2490.0 72 63 60 51 48 49 49 50 46 47
2530.0 46 46 40 34 35 34 33 33 34 33
2570.0 34 31 34 30 27 27 28 27 28 26
2610.0 28 21 25 25 20 18 16 16 9 12
2650.0 9 5 8 7 9 10 4 7 6 9
2690.0 10 7 8 10 13 16 15 22 22 24
2730.0 32 41 52 59 66 69 67 61 52 43
2770.0 38 39 41 36 42 37 36 39 41 42
2810.0 40 44 48 56 63 68 78 85 103 127
2850.0 159 202 263 331 385 428 459 466 456 439
2890.0 424 409 405 412 442 495 564 653 760 865
2930.0 952 986 972 924 844 740 637 556 529 520
2970.0 509 524 541 536 525 504 480 457 448 481
3010.0 576 711 856 981 1086 1131 1094 992 861 734
3050.0 639 577 518 461 413 360 320 290 253 215
3090.0 179 153 123 110 98 88 87 86 88 85
3130.0 82 83 80 72 66 67 66 62 54 52
3170.0 48 51 56 48 49 50 45 45 49 48
3210.0 45 42 44 44 43 48 45 40 38 40
3250.0 37 43 45 36 46 44 44 48 55 58
3290.0 59 60 59 56 65 64 61 62 69 66
3330.0 80 75 76 70 67 70 59 59 54 55
3370.0 50 63 71 67 76 84 91 91 81 81
3410.0 78 79 79 78 80 74 70 67 68 59
3450.0 50 52 50 53 53 52 51 43 37 36
3490.0 36 38 29 36 37 52 48 50 39 39
3530.0 37 36 25 36 24 23 25 32 20 16
3570.0 11 53 18 38 33 28 20 39 35 53
3610.0 78 96 160 200 294 439 723 1106 1905 2886
3650.0 4214 5167 4899 4586 4117 2929 1438 650 287 159
3690.0 76 47 4 39 26 29 35 30 20 33
3730.0 11 26 48 10 70 0 78 16 46 27
3770.0 31 43 39 64 47 52 87 49 64 55
3810.0 89 65 62 62 52 59 65 60 54 57
3850.0 49 51 75 40 26 51 42 21 31 30
3890.0 23 64 1 38 38 51 32 29 70 53
3930.0 62 49 76 53 59 50 38 56 64 51
##END=
