##TITLE=Benzenamine, 3,4-dichloro-
##JCAMP-DX=4.24
##DATA TYPE=INFRARED SPECTRUM
##ORIGIN=Sadtler Research Labs Under US-EPA Contract
##OWNER=NIST Standard Reference Data Program
##CAS REGISTRY NO=95-76-1
##MOLFORM=C 6 H 5 Cl 2 N
##XUNITS=1/CM
##YUNITS=ABSORBANCE
##XFACTOR=1.0
##YFACTOR=0.000083340
##DELTAX=4.0
##FIRSTX=450.0
##LASTX=3966.0
##FIRSTY=0.076006
##MAXX=3966
##MINX=450
##MAXY=0.8334
##MINY=0
##NPOINTS=880
##XYDATA=(X++(Y..Y))
450.0 912 853 465 386 570 469 534 602 428 416
490.0 252 433 288 381 239 312 465 238 520 424
530.0 334 405 390 280 461 457 436 379 480 661
570.0 788 843 882 678 634 486 392 379 392 363
610.0 440 664 829 1088 1573 2084 2882 3495 3907 3840
650.0 3428 2524 1809 1443 1414 1582 1545 1566 1558 1653
690.0 1691 1771 1906 1815 1519 1267 1009 759 640 552
730.0 535 417 444 533 615 359 463 451 420 445
770.0 384 446 528 684 989 1349 1624 1960 2353 2347
810.0 1712 1398 1075 774 698 733 963 1218 1409 1910
850.0 1819 1565 1253 997 833 673 650 547 612 715
890.0 995 1405 1691 1627 1543 1186 650 340 243 199
930.0 174 180 134 158 164 175 178 173 121 136
970.0 90 102 73 67 80 88 129 155 180 274
1010.0 389 558 747 1053 1366 1354 1291 1175 826 488
1050.0 331 255 268 285 322 329 326 366 377 424
1090.0 427 473 513 513 554 595 730 1063 1642 2554
1130.0 3361 3714 3742 3271 2167 1390 962 541 292 219
1170.0 137 87 80 31 23 12 14 15 0 11
1210.0 16 31 77 152 377 611 790 884 875 724
1250.0 529 477 559 707 1002 1331 1666 2024 2453 2856
1290.0 2918 2714 2321 1622 893 407 223 157 115 116
1330.0 82 64 93 99 112 110 132 167 192 246
1370.0 246 260 272 236 237 230 280 387 553 790
1410.0 1021 1162 1248 1304 1230 983 869 701 469 488
1450.0 551 755 1401 2394 4072 6926 9151 10000 9084 7173
1490.0 4179 1733 927 762 715 727 616 550 526 567
1530.0 675 773 813 816 741 673 664 787 966 1064
1570.0 1143 1191 1249 1324 1660 2425 3411 3832 4153 3813
1610.0 3515 3864 4779 6033 6354 6210 5147 3215 2342 1340
1650.0 972 803 500 497 379 329 393 310 380 379
1690.0 329 313 278 288 255 256 268 249 259 207
1730.0 182 184 116 113 85 53 63 46 45 44
1770.0 54 69 58 71 70 66 74 58 61 59
1810.0 45 59 51 53 58 61 68 66 86 119
1850.0 135 166 189 212 207 189 170 133 121 105
1890.0 99 98 90 93 94 98 107 114 128 128
1930.0 123 126 113 107 101 84 84 72 75 83
1970.0 78 79 69 69 70 71 73 64 70 68
2010.0 68 74 73 72 80 76 85 81 85 83
2050.0 86 98 93 94 92 84 80 75 72 64
2090.0 60 64 62 63 64 62 70 70 67 70
2130.0 73 82 80 89 91 90 85 84 91 92
2170.0 88 87 89 91 88 86 81 77 69 71
2210.0 64 64 67 62 58 63 70 68 67 71
2250.0 71 75 81 84 85 93 100 97 99 97
2290.0 85 87 85 87 88 81 87 78 85 104
2330.0 95 95 69 73 101 91 108 100 109 84
2370.0 94 91 82 78 72 67 73 68 66 72
2410.0 73 79 82 75 77 74 70 73 77 71
2450.0 65 74 65 69 68 61 69 75 71 79
2490.0 77 88 87 92 97 96 109 116 108 113
2530.0 114 114 105 98 101 101 104 108 113 118
2570.0 110 111 110 114 108 101 96 89 89 86
2610.0 82 81 76 85 79 78 77 78 81 83
2650.0 84 86 81 90 93 90 91 96 98 109
2690.0 111 111 112 107 107 112 105 111 102 106
2730.0 100 92 92 90 101 97 97 98 90 88
2770.0 84 83 87 82 76 81 81 81 81 84
2810.0 81 85 90 100 117 124 136 142 139 130
2850.0 129 111 104 103 111 101 99 98 89 90
2890.0 93 94 95 80 94 95 103 102 100 86
2930.0 86 90 87 89 88 88 85 88 89 102
2970.0 108 112 115 122 137 130 139 138 130 147
3010.0 150 156 163 183 208 269 372 468 565 609
3050.0 604 587 552 547 569 566 503 429 346 277
3090.0 250 254 233 214 189 159 119 116 115 112
3130.0 113 103 109 105 108 111 102 104 104 106
3170.0 102 105 103 98 107 114 117 123 142 152
3210.0 169 190 186 194 201 221 214 198 183 175
3250.0 158 146 130 121 120 116 99 108 104 97
3290.0 98 94 108 102 103 110 106 108 103 105
3330.0 119 111 119 116 129 140 145 154 157 167
3370.0 185 191 215 235 267 320 375 476 604 787
3410.0 931 1024 1065 1092 1061 923 811 630 400 228
3450.0 196 178 168 176 183 228 278 317 396 461
3490.0 526 578 600 605 569 540 565 511 460 430
3530.0 299 180 130 108 97 100 82 76 70 87
3570.0 87 70 81 74 81 87 88 70 65 77
3610.0 73 68 83 75 68 72 66 60 74 91
3650.0 109 72 89 86 72 62 84 94 78 73
3690.0 95 76 93 87 81 78 102 99 114 127
3730.0 99 134 119 143 108 111 105 89 109 105
3770.0 100 111 94 112 96 109 121 82 80 98
3810.0 85 111 86 95 82 85 116 125 142 173
3850.0 166 152 159 176 158 186 142 147 107 153
3890.0 86 138 77 56 89 112 104 89 61 113
3930.0 105 90 90 99 157 121 108 153 130 72
##END=
