##TITLE=Benzene, 2,4-dichloro-1-methyl-
##JCAMP-DX=4.24
##DATA TYPE=INFRARED SPECTRUM
##ORIGIN=Sadtler Research Labs Under US-EPA Contract
##OWNER=NIST Standard Reference Data Program
##CAS REGISTRY NO=95-73-8
##MOLFORM=C 7 H 6 Cl 2
##XUNITS=1/CM
##YUNITS=ABSORBANCE
##XFACTOR=1.0
##YFACTOR=0.000055008
##DELTAX=4.0
##FIRSTX=450.0
##LASTX=3966.0
##FIRSTY=0.000165
##MAXX=3966
##MINX=450
##MAXY=0.55008
##MINY=0
##NPOINTS=880
##XYDATA=(X++(Y..Y))
450.0 3 26 66 114 144 107 99 126 95 101
490.0 70 43 31 70 27 61 32 51 42 141
530.0 229 271 421 571 765 888 808 433 285 230
570.0 156 163 150 88 54 101 49 73 86 80
610.0 76 84 70 66 75 133 273 409 835 1129
650.0 1063 922 471 59 9 56 104 150 263 349
690.0 605 727 1391 2505 3085 3025 2711 1334 476 277
730.0 187 179 236 267 233 180 78 77 81 73
770.0 91 90 110 178 315 696 1367 2269 3076 4367
810.0 4439 2844 2503 2314 3097 5516 7256 7323 6217 3396
850.0 1174 871 1178 1560 1941 3006 1796 1397 944 449
890.0 156 73 71 68 70 74 85 78 91 86
930.0 102 94 85 94 95 92 106 125 133 170
970.0 237 305 407 534 731 1036 1206 1184 1021 671
1010.0 394 280 244 243 285 383 525 819 1418 2442
1050.0 3548 3774 3861 3078 1607 840 545 523 640 880
1090.0 1316 1902 2423 2919 3599 3860 3592 3255 2764 1847
1130.0 1233 1020 632 420 306 259 224 169 171 200
1170.0 253 250 230 183 130 117 148 163 179 180
1210.0 169 143 116 125 121 142 176 225 271 314
1250.0 418 548 621 649 686 524 401 352 232 127
1290.0 88 84 92 96 98 91 91 93 99 91
1330.0 111 128 146 173 201 270 357 461 622 889
1370.0 1187 1498 1864 2052 1967 1666 1282 923 662 580
1410.0 653 899 1150 1251 1206 1101 1007 1142 1341 1614
1450.0 1745 1983 2521 3548 5374 7748 9840 10000 8975 6961
1490.0 4908 3807 2786 1930 1259 750 580 515 445 374
1530.0 342 393 443 576 629 811 1091 1455 1921 2203
1570.0 2470 2570 2446 2375 2608 3112 3447 3225 2612 1742
1610.0 938 573 450 327 245 177 155 156 121 140
1650.0 132 171 80 87 99 117 107 105 91 117
1690.0 77 91 138 153 126 128 122 173 179 270
1730.0 365 474 436 479 383 289 212 166 132 121
1770.0 112 98 56 53 60 48 72 49 60 56
1810.0 58 50 57 45 51 49 42 48 53 78
1850.0 68 83 74 83 115 173 215 284 286 274
1890.0 239 152 87 57 39 49 48 48 40 30
1930.0 36 29 25 26 24 28 28 19 18 20
1970.0 28 38 36 46 38 38 33 35 19 16
2010.0 26 20 18 19 19 18 25 27 18 25
2050.0 20 3 13 0 10 9 10 18 18 27
2090.0 18 26 18 18 18 18 18 19 16 18
2130.0 25 17 17 17 15 15 19 23 16 17
2170.0 10 18 17 17 26 18 17 17 25 18
2210.0 21 26 25 29 33 24 27 25 16 25
2250.0 27 28 21 27 16 16 28 30 32 36
2290.0 46 55 47 57 47 50 48 58 57 62
2330.0 70 65 60 70 67 49 41 45 44 62
2370.0 56 70 78 72 64 54 53 50 42 43
2410.0 33 42 48 52 42 37 29 37 39 33
2450.0 31 42 32 41 33 40 33 44 36 36
2490.0 35 31 39 31 39 49 41 40 58 57
2530.0 65 55 39 40 23 20 24 19 20 21
2570.0 21 20 32 42 51 53 60 48 43 42
2610.0 39 40 40 42 41 51 49 41 55 59
2650.0 64 60 60 70 59 52 51 44 44 35
2690.0 43 54 42 54 49 48 51 53 64 62
2730.0 62 71 62 82 92 113 119 113 108 79
2770.0 55 56 46 38 48 56 53 67 68 77
2810.0 83 99 107 119 147 137 148 156 176 204
2850.0 222 263 304 394 494 567 610 615 560 524
2890.0 458 438 450 468 486 506 507 556 633 806
2930.0 1073 1411 1674 1717 1581 1326 1039 905 904 1021
2970.0 1021 981 991 1022 1078 1084 1008 924 748 582
3010.0 500 490 522 614 714 771 779 727 604 539
3050.0 488 525 599 675 754 779 746 695 621 526
3090.0 438 348 235 196 175 129 111 113 120 77
3130.0 92 74 75 71 53 51 68 59 57 66
3170.0 50 67 51 63 41 49 44 44 53 17
3210.0 31 31 32 50 60 61 50 43 46 59
3250.0 24 35 56 32 51 43 51 44 35 50
3290.0 52 53 29 22 35 58 77 54 25 61
3330.0 44 53 23 17 48 51 43 36 55 46
3370.0 56 25 54 45 44 30 42 23 38 37
3410.0 19 50 32 35 38 63 46 46 35 28
3450.0 65 28 44 62 32 61 24 25 54 53
3490.0 46 30 45 33 47 71 86 32 17 30
3530.0 52 42 40 54 57 32 58 38 35 36
3570.0 45 71 59 50 49 73 69 39 20 35
3610.0 70 41 40 55 31 72 49 54 59 25
3650.0 63 73 81 70 60 61 43 49 44 55
3690.0 51 56 61 62 68 72 75 70 55 69
3730.0 46 73 86 56 137 76 70 69 92 56
3770.0 75 92 47 82 60 63 73 78 83 73
3810.0 95 75 59 75 61 82 76 74 76 78
3850.0 69 67 82 85 67 61 62 71 70 75
3890.0 83 96 111 90 79 111 98 114 122 132
3930.0 126 110 111 106 85 67 74 77 79 96
##END=
