##TITLE=Benzene, 1,2-dichloro-4-methyl-
##JCAMP-DX=4.24
##DATA TYPE=INFRARED SPECTRUM
##ORIGIN=Sadtler Research Labs Under US-EPA Contract
##OWNER=NIST Standard Reference Data Program
##CAS REGISTRY NO=95-75-0
##MOLFORM=C 7 H 6 Cl 2
##XUNITS=1/CM
##YUNITS=ABSORBANCE
##XFACTOR=1.0
##YFACTOR=0.000076285
##DELTAX=4.0
##FIRSTX=450.0
##LASTX=3966.0
##FIRSTY=0.032955
##MAXX=3966
##MINX=450
##MAXY=0.76285
##MINY=0
##NPOINTS=880
##XYDATA=(X++(Y..Y))
450.0 432 491 437 370 336 254 121 83 77 74
490.0 27 37 64 35 30 40 48 145 106 159
530.0 268 416 602 624 989 682 475 374 161 135
570.0 98 78 101 115 105 131 105 77 76 73
610.0 95 134 146 188 362 793 1426 1668 1661 1413
650.0 674 86 0 27 60 246 405 816 1370 1443
690.0 1284 1242 482 186 108 62 65 94 93 82
730.0 91 106 92 82 92 77 46 29 39 72
770.0 78 66 100 181 365 789 1511 2292 3164 4435
810.0 5184 2620 2138 1286 578 420 254 219 261 363
850.0 523 858 1456 2110 2695 3390 3128 2388 1832 1062
890.0 481 218 117 80 62 57 64 68 68 76
930.0 103 105 124 163 204 151 135 124 119 145
970.0 179 211 251 311 370 450 510 530 499 436
1010.0 366 321 477 937 1910 3333 3708 3631 3679 2110
1050.0 1090 665 461 347 270 225 204 190 171 165
1090.0 191 189 207 234 255 331 468 703 1277 2781
1130.0 4732 5236 5313 5154 2990 2097 1725 1100 468 197
1170.0 157 142 141 126 117 119 151 260 459 758
1210.0 881 832 849 548 295 238 268 314 359 438
1250.0 518 649 753 791 772 653 553 330 185 113
1290.0 88 67 67 72 67 75 79 98 90 93
1330.0 94 122 168 188 210 237 245 250 275 359
1370.0 523 760 1001 1295 1625 1664 1672 1571 1344 1175
1410.0 1118 1097 1103 1002 887 723 643 568 541 588
1450.0 727 1026 1716 3113 6000 9166 10000 9132 7292 3463
1490.0 1913 1632 1493 1336 1134 957 823 734 673 583
1530.0 540 525 579 624 639 654 680 720 697 706
1570.0 702 651 595 564 622 848 1025 1024 912 716
1610.0 448 302 251 208 179 118 123 106 87 79
1650.0 97 74 49 56 72 94 127 102 135 113
1690.0 78 69 108 91 91 68 92 137 129 169
1730.0 223 282 281 295 302 252 183 142 103 70
1770.0 87 91 68 72 67 66 63 63 78 87
1810.0 122 144 136 140 112 89 54 38 49 66
1850.0 57 62 58 53 58 81 100 146 209 262
1890.0 263 254 210 128 85 66 60 53 46 39
1930.0 31 33 24 30 29 16 9 12 4 14
1970.0 12 4 10 15 13 18 19 19 22 22
2010.0 22 22 31 30 34 34 19 22 13 8
2050.0 8 12 8 10 11 2 15 15 15 9
2090.0 10 7 16 11 17 20 15 21 22 20
2130.0 13 14 13 13 8 10 9 13 10 15
2170.0 8 1 1 7 14 8 8 1 7 5
2210.0 8 8 4 14 6 15 20 21 27 21
2250.0 27 31 35 38 34 31 32 31 37 24
2290.0 46 48 48 57 37 43 34 42 42 35
2330.0 39 44 61 67 66 52 48 60 58 64
2370.0 54 69 72 77 76 81 71 65 52 39
2410.0 39 34 35 34 35 28 28 25 28 21
2450.0 28 35 28 35 35 35 40 36 36 31
2490.0 35 31 42 42 42 37 50 49 64 64
2530.0 63 64 57 45 40 32 20 24 25 31
2570.0 26 20 19 33 38 53 54 58 49 54
2610.0 46 39 33 39 46 39 42 35 37 41
2650.0 35 46 33 21 21 16 16 16 16 14
2690.0 23 23 23 23 24 22 21 39 42 42
2730.0 56 56 82 115 132 135 134 101 72 54
2770.0 45 50 44 51 51 52 53 53 73 74
2810.0 68 76 80 83 96 104 116 135 157 183
2850.0 230 287 375 473 597 715 808 881 901 878
2890.0 858 818 779 747 718 733 776 867 1035 1323
2930.0 1716 2080 2269 2182 1901 1470 1102 870 741 681
2970.0 613 543 500 492 523 577 618 691 758 823
3010.0 841 841 805 775 789 872 970 1039 1042 1042
3050.0 1028 1078 1118 1132 1118 975 786 623 487 421
3090.0 414 399 343 283 202 143 117 94 78 62
3130.0 49 63 65 53 54 62 56 55 48 49
3170.0 42 41 46 41 34 26 22 30 17 24
3210.0 29 36 36 37 36 34 39 28 38 26
3250.0 32 19 37 43 30 38 37 25 25 26
3290.0 25 25 31 36 32 35 30 47 45 32
3330.0 26 21 36 22 38 24 22 23 33 25
3370.0 29 28 34 34 21 30 28 20 35 50
3410.0 41 34 28 24 41 33 40 28 30 33
3450.0 27 51 32 9 29 30 33 23 39 23
3490.0 30 23 53 26 30 11 23 49 27 31
3530.0 17 25 31 30 31 16 22 36 37 22
3570.0 26 23 31 38 23 39 14 38 17 21
3610.0 18 27 22 26 25 37 17 26 38 40
3650.0 41 27 28 26 32 11 30 31 32 40
3690.0 40 40 34 27 35 48 30 51 47 53
3730.0 52 43 44 32 30 28 58 52 71 49
3770.0 60 57 62 44 45 47 25 32 52 39
3810.0 26 45 54 42 57 66 58 41 43 25
3850.0 32 36 51 42 36 55 51 64 60 53
3890.0 63 53 49 43 48 36 59 57 64 52
3930.0 61 68 66 57 47 34 38 54 69 70
##END=
