##TITLE=1,3-Benzenediamine, 4-methyl-
##JCAMP-DX=4.24
##DATA TYPE=INFRARED SPECTRUM
##ORIGIN=Sadtler Research Labs Under US-EPA Contract
##OWNER=NIST Standard Reference Data Program
##CAS REGISTRY NO=95-80-7
##MOLFORM=C 7 H 10 N 2
##XUNITS=1/CM
##YUNITS=ABSORBANCE
##XFACTOR=1.0
##YFACTOR=0.000073618
##DELTAX=4.0
##FIRSTX=450.0
##LASTX=3966.0
##FIRSTY=0.065004
##MAXX=3966
##MINX=450
##MAXY=0.73618
##MINY=0
##NPOINTS=880
##XYDATA=(X++(Y..Y))
450.0 883 1147 891 619 586 536 440 435 417 398
490.0 320 294 184 164 40 40 8 21 82 19
530.0 92 69 110 103 194 220 292 317 337 369
570.0 349 388 324 370 356 396 407 425 499 541
610.0 585 561 622 629 725 857 1099 1408 1792 2187
650.0 2545 2804 2997 2978 2890 2675 2419 2239 2003 1791
690.0 1555 1467 1238 1116 928 873 779 707 659 617
730.0 578 484 469 375 356 324 307 332 375 513
770.0 686 919 1122 1522 1816 1561 1215 1052 861 759
810.0 770 880 1081 1335 1676 1763 1513 1282 1064 804
850.0 600 432 309 236 189 160 119 109 77 56
890.0 53 43 34 35 39 40 64 81 109 112
930.0 94 118 126 162 201 239 230 235 226 203
970.0 177 184 233 322 513 704 785 756 718 572
1010.0 342 190 174 181 210 234 261 278 311 375
1050.0 459 569 703 835 971 1086 1151 1149 1116 1033
1090.0 934 812 712 629 562 506 448 404 366 368
1130.0 438 592 773 908 940 886 756 567 394 344
1170.0 494 739 942 1071 1132 1104 920 752 756 941
1210.0 1307 1671 1903 2015 1962 1655 1109 699 472 292
1250.0 182 123 100 106 152 236 383 588 767 872
1290.0 969 1102 1213 1347 1560 1798 1922 1843 1683 1471
1330.0 1083 654 349 165 74 29 28 38 46 56
1370.0 74 91 130 151 148 172 156 128 127 135
1410.0 143 180 224 344 488 683 885 1085 1245 1319
1450.0 1357 1370 1333 1394 1388 1266 1187 1194 1043 903
1490.0 915 1091 1482 2200 3240 4410 5398 5783 5668 4882
1530.0 3792 2520 1542 959 665 569 545 611 736 907
1570.0 1109 1360 1645 1906 2144 2424 2816 3181 3589 4162
1610.0 5016 5995 6971 7772 8634 9453 10000 9592 8728 7220
1650.0 5533 3675 2169 1352 893 683 497 437 333 288
1690.0 246 231 195 165 177 174 167 128 155 144
1730.0 140 134 160 166 161 169 177 181 169 174
1770.0 154 144 149 134 126 114 108 97 93 101
1810.0 99 95 115 126 151 169 203 217 202 196
1850.0 178 147 117 101 86 71 84 81 80 78
1890.0 73 67 70 62 57 56 53 60 47 62
1930.0 60 59 55 56 63 67 72 72 72 59
1970.0 59 53 54 37 36 27 22 24 22 18
2010.0 16 17 16 20 26 27 30 29 35 42
2050.0 48 52 59 57 61 59 57 52 50 43
2090.0 39 38 35 32 29 29 29 29 24 28
2130.0 26 22 20 19 24 20 21 20 25 32
2170.0 32 39 36 34 34 31 24 21 18 12
2210.0 13 5 4 5 5 7 6 11 12 10
2250.0 17 19 21 24 26 25 24 25 19 12
2290.0 14 8 8 8 8 0 5 0 2 11
2330.0 10 3 9 5 10 20 17 30 35 15
2370.0 22 26 21 31 27 23 28 15 20 12
2410.0 12 5 7 3 4 6 4 6 4 1
2450.0 5 9 14 19 25 26 30 31 35 37
2490.0 45 44 46 44 46 37 29 30 27 31
2530.0 24 23 23 22 17 17 13 11 16 10
2570.0 13 15 15 16 18 18 22 26 25 28
2610.0 25 33 36 37 38 35 33 32 29 23
2650.0 20 20 20 16 20 27 24 25 29 38
2690.0 37 38 41 52 48 53 56 61 70 81
2730.0 102 127 161 173 185 177 156 121 79 71
2770.0 63 65 58 60 63 71 78 80 95 102
2810.0 114 126 134 146 155 173 185 202 228 268
2850.0 344 498 776 1065 1282 1420 1462 1400 1228 1082
2890.0 1004 971 959 986 1061 1179 1317 1407 1468 1503
2930.0 1492 1438 1366 1206 1040 892 765 703 705 765
2970.0 826 854 815 766 729 630 582 635 829 1163
3010.0 1570 1896 2085 2166 2121 1858 1513 1234 1056 962
3050.0 913 870 807 758 689 598 494 414 339 298
3090.0 270 246 229 210 185 170 158 146 129 124
3130.0 116 110 107 111 94 86 82 75 81 77
3170.0 76 61 70 68 68 75 80 82 105 111
3210.0 125 134 137 137 152 150 139 137 121 104
3250.0 89 82 69 64 58 54 48 45 41 44
3290.0 39 40 45 49 53 50 45 56 67 72
3330.0 70 71 77 82 88 92 99 100 109 119
3370.0 130 135 159 183 239 312 433 581 727 819
3410.0 834 796 696 536 391 280 227 196 183 167
3450.0 164 184 196 247 276 348 449 579 721 845
3490.0 926 913 870 735 560 415 295 217 166 119
3530.0 106 95 81 58 61 54 49 43 35 41
3570.0 41 48 32 31 38 27 32 4 20 13
3610.0 18 6 10 15 19 21 1 18 9 15
3650.0 11 7 8 0 7 7 8 9 26 12
3690.0 20 6 6 6 22 17 14 17 11 31
3730.0 28 21 15 22 29 19 19 10 33 27
3770.0 16 18 12 15 10 1 8 22 3 0
3810.0 6 8 10 3 0 0 0 7 19 15
3850.0 22 31 62 36 50 46 44 49 62 56
3890.0 53 24 31 24 21 26 21 14 41 13
3930.0 22 21 15 29 33 13 21 31 42 27
##END=
