##TITLE=1,3-Benzenediol, 4-chloro-
##JCAMP-DX=4.24
##DATA TYPE=INFRARED SPECTRUM
##ORIGIN=Sadtler Research Labs Under US-EPA Contract
##OWNER=NIST Standard Reference Data Program
##CAS REGISTRY NO=95-88-5
##MOLFORM=C 6 H 5 Cl O 2
##XUNITS=1/CM
##YUNITS=ABSORBANCE
##XFACTOR=1.0
##YFACTOR=0.000079352
##DELTAX=4.0
##FIRSTX=450.0
##LASTX=3966.0
##FIRSTY=0.064354
##MAXX=3966
##MINX=450
##MAXY=0.79352
##MINY=0
##NPOINTS=880
##XYDATA=(X++(Y..Y))
450.0 811 486 12 60 250 43 550 367 64 226
490.0 358 472 735 852 665 854 708 603 578 333
530.0 621 718 757 85 567 193 153 341 329 257
570.0 315 303 357 367 480 329 356 464 346 494
610.0 485 560 741 784 1036 1521 2052 2282 2240 1970
650.0 1369 827 491 370 373 315 375 407 349 356
690.0 397 291 232 330 274 258 324 292 297 350
730.0 381 393 398 397 501 463 397 480 481 572
770.0 716 871 1225 1333 1314 1348 1409 1463 1264 1101
810.0 976 838 773 896 898 1285 1448 1301 1191 1215
850.0 1186 1203 1123 838 728 622 434 349 295 277
890.0 238 257 296 250 270 282 286 309 312 319
930.0 279 290 312 346 472 675 1066 1887 2597 2659
970.0 2604 2439 1586 790 492 360 319 291 308 337
1010.0 353 391 460 448 464 476 462 494 600 823
1050.0 986 1049 1118 1026 785 649 588 536 561 591
1090.0 599 603 580 598 697 817 1101 1660 2317 3135
1130.0 4222 5590 6537 6661 6510 5861 4676 3883 3630 4074
1170.0 5631 8178 10000 9749 9230 7872 4585 2967 2752 2931
1210.0 3108 3056 2711 2299 1954 1589 1375 1250 1194 1179
1250.0 1232 1441 1798 1910 1859 1895 1708 1459 1448 1545
1290.0 1693 1970 2373 2811 3178 3392 3410 3300 3170 3089
1330.0 3229 3593 3822 3655 3250 2502 1527 937 632 475
1370.0 386 357 364 354 340 350 331 314 281 279
1410.0 303 287 382 372 448 530 644 819 1062 1386
1450.0 1889 2453 3034 3381 3476 3576 3476 3596 4405 5955
1490.0 7581 7935 7590 6573 4412 2164 1146 764 630 599
1530.0 612 671 783 833 875 830 835 891 835 878
1570.0 1001 1251 1594 1960 2345 2851 3398 3778 4481 5151
1610.0 5652 5591 4505 3469 2542 1776 1431 1250 1136 978
1650.0 840 697 528 442 400 339 351 271 295 249
1690.0 230 204 277 301 301 279 300 331 274 216
1730.0 214 235 160 131 132 125 93 88 97 95
1770.0 136 151 133 143 144 149 163 173 192 193
1810.0 215 224 218 225 206 187 161 129 144 161
1850.0 137 115 123 117 123 128 101 97 90 93
1890.0 91 72 68 51 45 50 52 63 73 47
1930.0 55 45 29 26 32 17 14 7 15 20
1970.0 20 13 9 3 0 17 23 14 10 22
2010.0 25 23 22 10 24 20 21 33 32 27
2050.0 19 30 20 27 23 12 26 24 13 32
2090.0 39 36 50 39 42 43 38 46 32 31
2130.0 37 49 54 47 57 60 63 47 54 49
2170.0 39 49 70 68 65 55 47 46 36 33
2210.0 36 39 36 43 57 74 68 70 72 70
2250.0 78 60 70 64 67 82 86 98 100 103
2290.0 102 103 107 101 104 120 104 99 100 77
2330.0 90 115 129 145 186 162 129 115 139 154
2370.0 156 150 154 144 143 122 112 112 130 135
2410.0 140 160 152 170 168 172 176 175 185 192
2450.0 188 185 186 187 192 188 194 195 203 206
2490.0 209 202 188 176 171 161 149 150 141 145
2530.0 136 137 115 109 106 114 117 118 132 138
2570.0 150 150 154 158 150 156 153 159 173 183
2610.0 178 176 177 180 179 177 181 165 171 166
2650.0 169 163 158 152 152 144 151 147 157 148
2690.0 157 157 158 163 170 173 167 165 164 169
2730.0 177 194 188 187 184 176 178 185 202 185
2770.0 187 190 189 193 183 193 200 198 193 193
2810.0 203 197 196 194 195 184 184 185 179 187
2850.0 178 184 186 183 183 176 165 168 183 168
2890.0 173 173 182 183 181 177 182 191 198 193
2930.0 211 221 210 204 209 209 213 213 215 216
2970.0 206 188 187 186 182 179 175 184 187 176
3010.0 182 200 218 233 265 307 363 431 481 479
3050.0 461 411 366 319 314 309 307 306 304 299
3090.0 304 282 285 268 252 232 227 218 209 201
3130.0 206 177 172 190 187 185 190 187 189 189
3170.0 198 182 194 187 194 195 198 183 171 169
3210.0 164 156 161 162 165 174 193 186 180 185
3250.0 189 181 183 186 167 155 158 150 147 114
3290.0 127 111 114 130 129 142 145 167 189 207
3330.0 207 216 226 218 209 231 211 213 208 200
3370.0 207 211 225 296 332 315 257 224 162 108
3410.0 99 110 158 174 187 189 180 180 180 161
3450.0 194 210 216 254 245 218 165 130 91 32
3490.0 59 97 130 152 149 178 176 178 183 181
3530.0 212 213 209 233 247 275 349 494 1088 2602
3570.0 4223 4845 5224 4875 3310 1680 768 425 298 234
3610.0 213 248 265 276 325 367 592 948 1617 2604
3650.0 3601 3831 3801 3370 2313 1082 538 361 207 210
3690.0 137 173 162 168 178 166 166 187 168 182
3730.0 203 248 399 584 704 677 592 506 323 178
3770.0 152 188 231 290 324 322 350 314 348 396
3810.0 462 559 734 845 796 679 580 509 307 236
3850.0 301 374 425 478 527 517 522 573 568 617
3890.0 627 597 573 607 636 609 555 589 560 435
3930.0 368 407 406 534 692 757 808 775 629 642
##END=
