##TITLE=Benzenamine, 2,5-dichloro-
##JCAMP-DX=4.24
##DATA TYPE=INFRARED SPECTRUM
##ORIGIN=Sadtler Research Labs Under US-EPA Contract
##OWNER=NIST Standard Reference Data Program
##CAS REGISTRY NO=95-82-9
##MOLFORM=C 6 H 5 Cl 2 N
##XUNITS=1/CM
##YUNITS=ABSORBANCE
##XFACTOR=1.0
##YFACTOR=0.000075607
##DELTAX=4.0
##FIRSTX=450.0
##LASTX=3966.0
##FIRSTY=0.044306
##MAXX=3966
##MINX=450
##MAXY=0.75607
##MINY=0
##NPOINTS=880
##XYDATA=(X++(Y..Y))
450.0 586 1425 1002 934 628 444 431 300 392 204
490.0 339 293 114 1 237 150 124 112 301 316
530.0 291 377 435 528 463 400 511 471 572 840
570.0 1358 2074 2352 2452 2122 1255 959 758 642 516
610.0 389 535 466 586 609 544 668 733 840 943
650.0 986 1000 1010 1058 1195 1350 1285 1264 1359 1487
690.0 1599 1723 1663 1657 1614 1608 1674 1690 1718 1687
730.0 1483 1439 1385 1319 1246 1157 967 913 886 932
770.0 999 1253 1664 2071 2526 3082 3202 2386 2072 1577
810.0 1115 917 733 704 841 1014 1483 1725 2001 2643
850.0 2066 1748 1423 1105 793 648 575 524 652 667
890.0 821 1158 1768 2760 3458 3429 3086 1864 649 347
930.0 325 256 186 152 218 172 160 152 143 150
970.0 136 100 121 121 121 138 105 140 100 147
1010.0 194 248 349 493 708 893 1158 1493 1742 1915
1050.0 1921 1709 1395 1199 1202 1465 2140 3318 5604 8815
1090.0 9985 9890 7931 4030 1718 973 685 531 537 582
1130.0 667 728 754 687 619 609 532 481 440 388
1170.0 354 332 291 281 238 220 204 177 207 202
1210.0 241 267 358 428 503 561 603 661 769 988
1250.0 1291 1557 1619 1601 1505 1221 916 842 848 786
1290.0 872 971 938 847 569 295 154 108 121 75
1330.0 74 70 119 132 116 163 190 235 275 284
1370.0 304 323 272 275 279 352 488 743 1148 1653
1410.0 2216 2541 2807 2996 2816 2186 1794 1244 708 557
1450.0 488 569 767 1043 1624 2906 5159 8191 9710 10000
1490.0 8363 5321 2830 1647 1405 1325 1167 1063 792 534
1530.0 457 388 426 456 500 547 663 933 1301 1671
1570.0 2307 2789 2983 3229 3301 3611 3823 4046 4824 5714
1610.0 7102 8553 8894 9425 8026 6981 5377 3832 3103 2111
1650.0 1651 1249 838 739 586 529 560 461 551 511
1690.0 461 436 453 446 404 378 384 371 291 219
1730.0 221 245 191 181 200 190 154 128 124 95
1770.0 117 124 86 111 116 122 151 133 157 120
1810.0 104 99 72 80 80 108 108 128 180 235
1850.0 239 223 211 195 158 122 75 43 38 38
1890.0 38 42 33 28 36 45 43 46 53 44
1930.0 42 49 46 58 61 46 52 53 55 63
1970.0 55 51 49 51 50 62 66 56 50 50
2010.0 41 41 44 38 33 27 26 26 33 36
2050.0 29 30 30 29 38 29 33 27 18 22
2090.0 22 19 21 20 23 25 27 32 30 32
2130.0 29 30 30 28 32 31 37 38 40 42
2170.0 47 54 58 66 63 66 64 58 53 40
2210.0 33 23 18 13 17 17 18 23 20 17
2250.0 17 22 23 26 27 34 39 53 61 74
2290.0 82 89 104 112 119 125 108 108 105 95
2330.0 75 63 75 50 113 77 103 70 88 69
2370.0 63 60 72 83 72 44 35 30 23 11
2410.0 7 15 8 9 9 8 6 8 7 9
2450.0 11 11 8 8 8 9 8 7 7 7
2490.0 7 13 9 15 22 34 33 40 46 49
2530.0 52 53 55 66 76 86 90 87 76 67
2570.0 48 37 26 20 17 9 10 12 10 17
2610.0 12 11 4 2 3 12 17 22 27 31
2650.0 44 51 56 55 48 37 33 32 37 41
2690.0 34 43 60 71 77 85 83 77 62 52
2730.0 46 34 35 34 30 35 44 42 44 43
2770.0 38 31 36 28 28 20 19 20 24 20
2810.0 25 34 41 44 48 49 50 58 49 57
2850.0 55 54 63 69 67 70 67 62 52 51
2890.0 57 55 50 48 51 48 47 44 44 49
2930.0 46 46 47 47 51 50 42 45 46 43
2970.0 32 36 44 45 42 49 53 57 65 66
3010.0 68 67 78 84 94 121 140 156 172 172
3050.0 182 182 183 179 183 181 187 189 203 239
3090.0 248 231 213 174 132 101 73 61 51 46
3130.0 43 52 57 61 56 60 67 65 77 82
3170.0 86 100 121 127 132 137 135 132 121 117
3210.0 119 108 104 108 96 94 84 73 64 58
3250.0 54 50 45 50 40 47 32 36 45 39
3290.0 48 55 48 52 45 39 28 55 48 42
3330.0 56 56 44 58 60 56 72 62 64 88
3370.0 96 116 132 153 207 275 404 609 896 1296
3410.0 1674 1921 1977 1867 1619 1310 1034 771 520 335
3450.0 253 223 192 180 180 199 220 270 342 471
3490.0 619 844 1100 1318 1475 1457 1383 1226 1080 1002
3530.0 892 732 590 405 257 187 155 116 117 78
3570.0 93 75 63 63 69 68 57 46 52 38
3610.0 38 46 55 49 21 61 29 47 67 32
3650.0 25 28 25 34 50 33 62 0 46 39
3690.0 45 29 20 32 14 18 34 18 36 4
3730.0 19 36 15 57 6 51 20 72 48 40
3770.0 60 46 70 56 60 88 71 80 60 72
3810.0 42 51 75 74 103 87 76 119 71 110
3850.0 91 120 123 162 124 65 112 75 83 74
3890.0 113 74 77 36 19 68 47 88 47 58
3930.0 48 65 109 95 116 78 71 115 131 114
##END=
