##TITLE=Phenol, 2,4,5-trichloro-
##JCAMP-DX=4.24
##DATA TYPE=INFRARED SPECTRUM
##ORIGIN=Sadtler Research Labs Under US-EPA Contract
##OWNER=NIST Standard Reference Data Program
##CAS REGISTRY NO=95-95-4
##MOLFORM=C 6 H 3 Cl 3 O
##XUNITS=1/CM
##YUNITS=ABSORBANCE
##XFACTOR=1.0
##YFACTOR=0.000085059
##DELTAX=4.0
##FIRSTX=450.0
##LASTX=3966.0
##FIRSTY=0.000851
##MAXX=3966
##MINX=450
##MAXY=0.85059
##MINY=0
##NPOINTS=880
##XYDATA=(X++(Y..Y))
450.0 10 10 35 65 167 220 200 203 234 174
490.0 114 88 72 94 148 209 291 394 514 597
530.0 579 571 411 315 262 345 502 714 991 1005
570.0 940 668 311 305 219 310 203 284 347 258
610.0 288 237 220 199 235 346 285 355 315 280
650.0 290 263 365 504 902 2047 2515 2698 2311 1239
690.0 539 344 378 481 682 725 751 960 1424 2370
730.0 3205 3092 2533 1326 603 434 456 516 609 639
770.0 531 348 293 164 186 192 241 236 226 206
810.0 113 81 72 82 76 193 236 254 240 243
850.0 358 465 740 939 1357 1903 2286 2185 1624 1086
890.0 717 439 364 299 263 233 289 309 369 454
930.0 581 653 688 629 414 280 251 238 227 216
970.0 214 259 295 240 255 250 219 184 190 197
1010.0 161 125 93 109 57 87 108 173 243 345
1050.0 472 628 870 1333 2187 3226 3770 3644 2698 1537
1090.0 863 468 334 350 544 913 1411 1788 1965 1886
1130.0 1650 1413 1063 728 460 305 276 320 459 711
1170.0 1018 1603 2638 4185 5349 5128 4864 3180 1957 1564
1210.0 1409 1345 1410 1409 1409 1335 1332 1161 1136 1112
1250.0 1081 1103 1201 1345 1576 1808 2108 2501 3262 4424
1290.0 5395 5349 4597 2952 1529 971 753 635 459 337
1330.0 252 211 195 167 186 215 288 370 442 500
1370.0 532 483 448 434 568 823 1127 1237 1091 769
1410.0 381 225 191 175 205 297 467 856 1639 3110
1450.0 5429 8116 10000 9929 8152 5718 4040 3405 3479 3450
1490.0 2973 2129 1321 1083 1014 898 705 487 355 330
1530.0 351 394 442 496 664 869 1113 1363 1568 1549
1570.0 1353 1020 623 519 575 751 994 1163 1143 926
1610.0 588 317 159 119 101 87 87 69 83 71
1650.0 55 32 61 63 73 79 86 91 91 62
1690.0 81 88 69 65 105 149 179 231 286 297
1730.0 252 196 142 110 109 96 102 108 89 71
1770.0 68 50 67 62 71 74 68 78 76 70
1810.0 70 71 63 62 52 50 46 48 59 49
1850.0 50 63 56 56 56 43 50 50 48 46
1890.0 46 44 36 39 41 49 47 42 37 55
1930.0 42 41 41 40 47 44 48 46 51 51
1970.0 52 56 63 63 74 65 67 68 62 55
2010.0 51 38 38 43 38 37 37 37 29 32
2050.0 36 35 36 32 30 27 36 40 35 27
2090.0 26 28 29 34 30 25 34 37 31 45
2130.0 38 44 37 44 37 38 30 30 35 39
2170.0 39 37 41 47 54 54 46 39 41 41
2210.0 32 41 36 31 34 28 32 27 32 32
2250.0 27 34 39 30 38 34 35 38 46 54
2290.0 54 54 60 72 69 73 59 58 53 47
2330.0 46 56 56 57 39 39 22 46 37 40
2370.0 45 47 75 76 56 51 44 43 38 30
2410.0 31 36 36 44 39 39 35 31 28 29
2450.0 24 34 29 34 41 42 40 34 40 40
2490.0 40 44 38 43 56 51 50 50 55 63
2530.0 67 62 67 60 58 45 54 49 37 42
2570.0 36 29 40 42 28 31 19 10 21 15
2610.0 16 10 27 10 21 20 22 28 34 25
2650.0 32 37 29 36 38 34 35 41 35 39
2690.0 45 31 35 30 26 17 27 27 30 36
2730.0 29 53 49 59 58 55 63 45 63 51
2770.0 45 37 37 42 29 29 28 32 35 43
2810.0 37 47 49 47 46 36 37 50 49 56
2850.0 40 39 60 63 51 63 56 56 42 39
2890.0 34 32 39 28 35 26 45 24 28 37
2930.0 40 34 28 50 46 40 35 27 35 41
2970.0 44 26 37 32 44 41 35 36 48 53
3010.0 49 49 63 73 51 67 54 55 71 62
3050.0 64 55 48 71 59 55 63 58 80 73
3090.0 70 75 87 90 78 72 61 66 58 56
3130.0 66 63 45 58 53 53 67 65 56 51
3170.0 64 62 89 87 83 62 58 59 48 72
3210.0 70 70 64 75 70 79 65 58 74 46
3250.0 77 53 61 58 65 58 76 72 79 104
3290.0 92 106 87 73 79 62 64 50 55 66
3330.0 43 66 47 48 63 72 60 63 69 65
3370.0 80 71 85 74 69 56 70 58 40 55
3410.0 58 49 56 54 38 57 74 68 71 55
3450.0 53 51 39 47 46 44 48 67 63 56
3490.0 40 52 32 32 75 59 56 53 41 52
3530.0 38 76 71 100 142 167 195 280 431 938
3570.0 2559 4949 6179 6200 4161 1921 784 361 209 147
3610.0 135 87 95 86 82 77 108 146 215 288
3650.0 292 285 270 151 87 49 29 26 48 25
3690.0 11 37 39 21 20 27 29 26 25 17
3730.0 43 42 25 25 19 19 22 22 17 34
3770.0 21 51 40 26 28 53 56 29 30 50
3810.0 41 54 23 49 48 45 32 23 44 49
3850.0 62 95 94 83 71 77 78 84 81 74
3890.0 83 89 78 66 95 94 108 109 102 114
3930.0 104 109 121 121 115 132 0 10 10 10
##END=
