##TITLE=Benzene, 1,2,4,5-tetramethyl-
##JCAMP-DX=4.24
##DATA TYPE=INFRARED SPECTRUM
##ORIGIN=Sadtler Research Labs Under US-EPA Contract
##OWNER=NIST Standard Reference Data Program
##CAS REGISTRY NO=95-93-2
##MOLFORM=C 10 H 14
##XUNITS=1/CM
##YUNITS=ABSORBANCE
##XFACTOR=1.0
##YFACTOR=0.000072025
##DELTAX=4.0
##FIRSTX=450.0
##LASTX=3966.0
##FIRSTY=0.032267
##MAXX=3966
##MINX=450
##MAXY=0.72025
##MINY=0
##NPOINTS=880
##XYDATA=(X++(Y..Y))
450.0 448 455 224 152 105 78 74 37 102 63
490.0 135 92 77 95 87 98 50 130 101 124
530.0 114 98 111 96 113 76 101 78 90 67
570.0 58 41 92 6 66 76 94 101 66 64
610.0 37 52 8 19 11 28 17 1 55 30
650.0 79 104 181 184 156 159 124 95 50 69
690.0 10 45 37 28 25 18 45 19 43 25
730.0 44 41 49 34 25 33 32 40 53 86
770.0 79 59 83 90 103 114 128 144 151 153
810.0 169 130 130 124 138 148 158 212 256 431
850.0 664 989 1260 1568 2225 1843 1278 1036 712 424
890.0 268 175 162 139 154 145 158 151 148 150
930.0 132 146 114 133 121 119 128 140 172 179
970.0 219 256 315 405 558 768 1039 1235 1333 1324
1010.0 1203 986 789 709 677 602 490 418 359 293
1050.0 248 205 204 173 175 172 170 146 135 127
1090.0 113 120 103 113 105 112 108 109 119 118
1130.0 130 127 147 137 146 136 144 146 151 171
1170.0 168 178 191 240 305 428 593 661 669 684
1210.0 593 422 319 230 191 148 144 137 129 141
1250.0 141 166 158 184 186 207 213 233 226 205
1290.0 205 191 200 190 211 202 219 239 249 269
1330.0 279 328 328 360 367 391 397 433 477 483
1370.0 491 518 574 583 638 676 706 692 631 616
1410.0 561 593 571 651 666 827 1000 1207 1626 1890
1450.0 2427 2696 3142 3009 2860 2680 2314 1861 1607 1413
1490.0 1584 2044 2718 3465 3673 3501 3339 2368 1663 1017
1530.0 905 763 683 657 595 609 576 592 557 550
1570.0 528 488 462 388 392 328 322 284 282 251
1610.0 244 250 208 211 165 176 129 129 109 119
1650.0 76 98 92 74 86 77 71 79 72 87
1690.0 96 123 143 211 258 354 408 436 460 439
1730.0 409 353 347 277 236 168 136 101 76 67
1770.0 54 51 44 62 48 64 48 57 49 54
1810.0 44 42 40 29 37 25 41 21 36 16
1850.0 29 27 25 32 37 39 46 70 76 97
1890.0 104 113 106 101 95 73 64 49 50 42
1930.0 31 30 27 22 12 21 13 16 9 12
1970.0 4 11 12 7 10 9 15 4 10 7
2010.0 8 19 15 14 17 27 30 38 39 40
2050.0 32 27 27 23 24 24 21 20 20 16
2090.0 13 14 15 13 11 19 16 19 15 21
2130.0 20 16 14 17 16 11 13 12 22 20
2170.0 23 19 21 21 15 20 20 14 11 12
2210.0 13 14 12 11 15 17 17 21 18 22
2250.0 17 12 9 9 12 18 13 19 21 26
2290.0 23 18 17 20 19 13 9 3 4 1
2330.0 7 2 0 13 22 13 1 3 16 1
2370.0 11 24 27 27 25 20 28 24 36 39
2410.0 41 45 44 49 55 62 59 61 60 63
2450.0 64 65 71 69 72 69 69 61 63 54
2490.0 47 41 39 38 34 36 27 28 23 29
2530.0 28 27 25 24 25 20 23 21 26 25
2570.0 32 34 37 39 41 39 34 31 26 31
2610.0 26 36 35 32 36 43 51 59 72 74
2650.0 84 80 76 70 70 65 65 64 63 67
2690.0 75 84 88 103 121 142 162 184 219 272
2730.0 318 357 381 386 371 354 356 367 375 379
2770.0 362 338 304 284 283 290 299 311 336 365
2810.0 401 443 493 562 631 720 818 951 1091 1264
2850.0 1477 1742 2129 2706 3503 4376 5024 5387 5458 5253
2890.0 4865 4523 4279 4137 4058 4113 4448 5269 6689 8311
2930.0 9520 10000 9891 9027 7851 6901 6070 5475 5236 5194
2970.0 5237 5100 4832 4599 4203 3864 3953 4510 5360 5748
3010.0 5703 5639 4847 3606 2614 2007 1707 1564 1511 1490
3050.0 1477 1431 1381 1318 1225 1123 1018 902 801 713
3090.0 631 563 521 487 455 448 445 447 456 448
3130.0 427 388 341 287 222 185 153 126 101 91
3170.0 77 68 69 62 59 50 47 52 47 45
3210.0 46 40 32 33 36 36 35 35 31 31
3250.0 29 39 33 37 43 42 41 44 51 49
3290.0 55 35 43 39 43 35 33 31 30 35
3330.0 27 24 29 30 24 36 32 37 37 29
3370.0 29 20 27 33 34 30 36 36 32 36
3410.0 36 29 31 32 33 41 34 28 15 27
3450.0 35 32 19 24 19 23 16 16 26 22
3490.0 35 27 28 26 38 20 25 24 27 20
3530.0 25 32 31 22 36 23 23 34 1 8
3570.0 29 21 14 4 27 28 32 30 13 22
3610.0 16 15 14 30 24 37 39 30 31 25
3650.0 46 59 25 55 10 34 19 45 28 30
3690.0 35 26 37 13 38 8 33 25 34 30
3730.0 28 32 68 30 64 25 39 32 1 29
3770.0 25 19 1 20 7 38 17 17 5 22
3810.0 1 36 24 26 23 13 44 38 31 36
3850.0 44 11 54 65 40 67 31 46 45 65
3890.0 47 77 41 57 36 59 40 67 63 66
3930.0 53 78 73 47 53 38 63 46 43 30
##END=
