##TITLE=Benzene, 1,2,4,5-tetrachloro-
##JCAMP-DX=4.24
##DATA TYPE=INFRARED SPECTRUM
##ORIGIN=Sadtler Research Labs Under US-EPA Contract
##OWNER=NIST Standard Reference Data Program
##CAS REGISTRY NO=95-94-3
##MOLFORM=C 6 H 2 Cl 4
##XUNITS=1/CM
##YUNITS=ABSORBANCE
##XFACTOR=1.0
##YFACTOR=0.000109537
##DELTAX=4.0
##FIRSTX=450.0
##LASTX=3966.0
##FIRSTY=0.000000
##MAXX=3966
##MINX=450
##MAXY=1.09537
##MINY=0
##NPOINTS=880
##XYDATA=(X++(Y..Y))
450.0 0 476 777 509 585 556 564 598 531 494
490.0 715 708 928 1092 1249 1330 1212 878 806 693
530.0 592 674 751 674 663 717 571 536 616 601
570.0 629 629 653 661 639 663 714 696 637 675
610.0 729 724 653 660 670 819 1286 2498 4409 5638
650.0 4974 2917 1182 724 793 751 786 685 653 664
690.0 704 739 687 648 667 659 631 635 666 699
730.0 704 686 766 856 872 844 777 695 690 678
770.0 668 667 700 746 711 717 716 706 679 743
810.0 764 794 895 918 874 803 666 658 659 623
850.0 643 639 679 694 869 1283 1699 2501 2658 2013
890.0 1373 1070 773 706 696 629 633 625 636 643
930.0 650 671 700 719 749 735 724 684 676 665
970.0 654 658 645 648 640 645 662 651 669 666
1010.0 681 676 683 677 712 736 726 750 811 981
1050.0 1474 2511 4197 5622 5727 5127 3113 1593 1080 893
1090.0 895 888 909 1011 1273 2433 4242 5233 4993 3215
1130.0 1602 1036 838 749 750 728 759 756 760 773
1170.0 739 733 728 714 721 716 717 716 733 780
1210.0 888 1097 1265 1297 1168 984 905 940 954 933
1250.0 866 818 811 805 806 820 824 850 899 964
1290.0 998 1031 1054 1139 1318 1611 2046 2540 2724 2603
1330.0 2175 1555 1186 971 851 810 837 895 959 970
1370.0 955 957 888 850 791 780 792 804 797 761
1410.0 825 823 1017 1205 1731 2906 5242 7974 10000 9519
1450.0 5236 2545 1475 1435 2048 2731 3261 3112 2339 1507
1490.0 1063 955 910 907 954 917 936 784 781 738
1530.0 701 707 618 697 684 680 683 652 649 678
1570.0 685 718 692 757 725 757 685 732 617 606
1610.0 626 510 606 504 619 534 609 580 599 595
1650.0 571 586 525 629 549 581 582 584 592 616
1690.0 575 579 600 547 621 577 631 645 646 726
1730.0 729 896 763 821 756 705 639 617 588 586
1770.0 591 574 585 597 596 618 604 639 676 631
1810.0 632 612 585 575 574 557 574 547 579 566
1850.0 562 543 545 555 554 575 546 549 554 547
1890.0 557 548 553 543 554 544 559 534 569 547
1930.0 539 551 536 560 545 543 532 546 535 551
1970.0 543 534 535 534 534 554 546 539 532 533
2010.0 529 537 543 533 534 533 529 534 534 531
2050.0 532 530 531 535 540 534 535 535 534 534
2090.0 537 534 532 530 526 533 534 535 542 547
2130.0 541 534 531 523 526 526 530 531 528 529
2170.0 530 530 534 529 533 537 535 538 530 529
2210.0 523 521 519 520 516 516 523 523 519 518
2250.0 519 518 522 519 521 519 522 525 527 531
2290.0 528 534 531 526 525 524 515 497 491 491
2330.0 491 491 491 491 491 512 491 491 491 491
2370.0 498 497 518 530 530 528 520 521 524 517
2410.0 516 510 514 514 514 513 513 517 514 517
2450.0 521 516 517 516 518 523 523 520 524 522
2490.0 526 521 527 522 526 526 525 525 525 526
2530.0 527 525 524 524 522 526 523 524 522 521
2570.0 525 526 524 525 529 528 524 523 530 527
2610.0 529 527 532 532 532 534 530 534 533 535
2650.0 532 533 538 539 544 555 555 549 547 537
2690.0 540 534 532 533 534 539 537 539 536 536
2730.0 538 536 542 545 544 552 558 562 566 565
2770.0 566 572 571 575 567 556 545 541 534 536
2810.0 540 537 535 536 535 532 530 530 530 526
2850.0 529 526 536 537 533 529 534 534 534 536
2890.0 534 534 531 539 531 535 532 531 534 526
2930.0 527 531 534 533 535 534 535 535 537 537
2970.0 547 539 544 547 541 551 546 549 556 547
3010.0 552 546 557 553 548 547 555 543 551 545
3050.0 550 546 549 550 543 546 543 548 558 579
3090.0 602 621 617 613 583 548 536 534 534 525
3130.0 534 530 534 528 526 532 531 537 529 526
3170.0 533 537 530 532 534 532 531 530 540 529
3210.0 531 531 534 536 534 531 534 535 536 534
3250.0 539 535 534 540 533 537 535 538 542 535
3290.0 545 542 545 543 544 541 535 538 553 550
3330.0 547 554 554 556 552 556 544 558 556 547
3370.0 558 562 564 565 566 564 566 559 569 555
3410.0 548 552 542 550 536 542 538 548 551 541
3450.0 541 542 551 556 541 550 549 549 554 566
3490.0 553 552 548 572 567 558 562 554 558 580
3530.0 582 561 562 562 573 578 560 572 550 580
3570.0 578 567 586 564 594 560 594 558 573 543
3610.0 563 583 554 587 544 563 564 573 568 589
3650.0 531 608 527 608 551 578 526 538 575 554
3690.0 588 529 603 548 570 565 587 577 586 585
3730.0 581 534 549 587 502 599 533 621 558 592
3770.0 572 588 599 606 606 608 569 599 540 604
3810.0 535 617 536 568 566 598 570 573 579 586
3850.0 590 544 594 601 586 573 588 641 623 554
3890.0 611 570 646 582 631 605 625 604 619 631
3930.0 616 644 609 605 627 639 615 599 560 621
##END=
