##TITLE=Ethanedioic acid, diethyl ester
##JCAMP-DX=4.24
##DATA TYPE=INFRARED SPECTRUM
##ORIGIN=Sadtler Research Labs Under US-EPA Contract
##OWNER=NIST Standard Reference Data Program
##CAS REGISTRY NO=95-92-1
##MOLFORM=C 6 H 10 O 4
##XUNITS=1/CM
##YUNITS=ABSORBANCE
##XFACTOR=1.0
##YFACTOR=0.000105035
##DELTAX=4.0
##FIRSTX=450.0
##LASTX=3966.0
##FIRSTY=0.019221
##MAXX=3966
##MINX=450
##MAXY=1.05035
##MINY=0
##NPOINTS=880
##XYDATA=(X++(Y..Y))
450.0 183 112 0 131 214 99 153 168 276 56
490.0 200 265 127 178 105 90 118 67 83 32
530.0 125 117 69 151 176 64 166 142 110 84
570.0 143 152 146 139 104 137 181 96 98 184
610.0 134 123 135 117 140 88 108 133 153 160
650.0 117 99 157 141 155 135 134 121 99 161
690.0 116 164 137 161 141 121 192 176 175 159
730.0 91 253 71 147 238 451 385 495 438 411
770.0 409 367 300 340 274 238 250 257 286 255
810.0 239 243 245 261 169 233 209 162 198 163
850.0 200 247 357 443 512 566 619 559 452 288
890.0 261 201 206 218 186 192 261 205 220 168
930.0 156 105 127 141 101 99 108 128 115 110
970.0 132 153 191 178 227 240 317 455 665 979
1010.0 1320 1517 1599 1466 1218 948 741 632 543 470
1050.0 447 390 358 338 324 337 365 393 441 494
1090.0 644 817 1036 1226 1338 1568 1609 1711 1798 1979
1130.0 2348 3064 4108 5477 7017 8533 9375 10000 9801 9410
1170.0 8984 8656 8461 8068 7396 6404 4923 3469 2420 1782
1210.0 1397 1163 996 823 723 631 544 491 461 445
1250.0 422 444 447 462 529 599 729 863 1051 1292
1290.0 1569 1902 2253 2530 2765 2787 2652 2405 2033 1688
1330.0 1338 1021 765 583 432 361 322 337 396 484
1370.0 541 584 613 612 668 673 654 597 512 444
1410.0 368 341 286 271 252 251 282 313 346 377
1450.0 408 436 448 456 472 510 519 476 416 331
1490.0 276 240 186 154 139 127 93 99 97 93
1530.0 66 72 88 91 76 61 71 81 90 56
1570.0 58 71 65 64 61 58 67 55 72 77
1610.0 77 85 84 97 96 108 102 108 114 102
1650.0 120 121 116 81 102 101 113 118 118 149
1690.0 141 149 185 225 242 267 335 417 499 624
1730.0 800 1065 1472 2014 2850 3897 5102 6043 6339 6332
1770.0 5870 4993 4432 4154 4019 3908 3622 3135 2392 1644
1810.0 1115 764 574 461 380 328 270 228 196 163
1850.0 146 131 123 97 95 91 87 80 80 77
1890.0 82 78 76 71 63 58 53 47 46 42
1930.0 42 36 32 32 29 25 26 25 23 24
1970.0 26 21 17 18 19 17 20 18 24 23
2010.0 27 28 28 36 34 32 36 38 41 36
2050.0 34 34 34 35 28 29 29 26 25 24
2090.0 25 24 21 18 20 21 15 14 16 14
2130.0 16 17 16 18 19 20 18 16 20 16
2170.0 24 25 24 22 22 18 12 11 13 6
2210.0 4 6 2 4 1 7 10 6 6 8
2250.0 9 9 9 12 12 9 11 7 9 10
2290.0 14 11 11 11 14 13 9 12 15 15
2330.0 12 3 13 6 15 0 1 2 11 0
2370.0 7 0 1 6 4 4 5 8 12 15
2410.0 13 14 20 20 19 19 19 20 25 26
2450.0 31 34 36 40 44 44 43 44 42 40
2490.0 37 33 29 30 25 24 21 19 16 18
2530.0 20 17 14 17 18 15 13 15 13 15
2570.0 15 18 14 14 14 11 10 11 15 12
2610.0 14 15 13 13 14 15 16 12 13 14
2650.0 14 14 16 17 20 17 17 18 19 19
2690.0 16 17 16 12 13 15 15 15 15 18
2730.0 20 23 27 28 24 29 26 31 31 29
2770.0 34 39 42 47 47 51 45 42 45 43
2810.0 45 48 51 57 67 72 75 74 76 74
2850.0 81 88 96 112 127 145 178 214 265 313
2890.0 343 349 341 352 381 426 470 482 476 467
2930.0 461 498 575 699 819 857 830 749 676 663
2970.0 737 840 993 1320 1759 1997 2020 1830 1465 1177
3010.0 1012 844 682 527 393 287 213 164 135 114
3050.0 100 81 69 64 62 66 63 54 53 46
3090.0 47 44 45 38 34 42 37 33 35 28
3130.0 30 36 35 40 31 33 27 32 33 28
3170.0 27 33 30 25 24 23 27 29 23 26
3210.0 25 22 17 21 14 16 21 23 16 14
3250.0 16 13 12 13 11 13 14 15 16 12
3290.0 9 11 3 9 17 20 13 17 10 6
3330.0 10 12 15 14 10 12 21 16 26 18
3370.0 12 22 20 15 6 11 19 20 18 9
3410.0 17 10 17 15 14 15 14 11 21 16
3450.0 9 15 17 15 13 18 19 23 23 34
3490.0 45 49 53 60 69 87 97 90 83 81
3530.0 61 45 42 36 21 15 20 26 24 32
3570.0 34 28 21 6 21 8 20 4 11 3
3610.0 12 10 7 23 7 18 8 3 8 26
3650.0 13 33 2 25 15 32 24 18 6 11
3690.0 20 21 3 5 10 14 13 1 17 10
3730.0 10 15 20 23 21 35 16 15 9 11
3770.0 26 19 16 7 1 22 21 27 22 35
3810.0 15 44 29 41 3 17 33 27 19 14
3850.0 19 57 48 26 28 37 14 33 25 29
3890.0 26 28 29 31 30 36 41 28 41 16
3930.0 35 27 15 24 12 21 31 18 18 15
##END=
