##TITLE=Oxirane, phenyl-
##JCAMP-DX=4.24
##DATA TYPE=INFRARED SPECTRUM
##ORIGIN=Sadtler Research Labs Under US-EPA Contract
##OWNER=NIST Standard Reference Data Program
##CAS REGISTRY NO=96-09-3
##MOLFORM=C 8 H 8 O
##XUNITS=1/CM
##YUNITS=ABSORBANCE
##XFACTOR=1.0
##YFACTOR=0.000080359
##DELTAX=4.0
##FIRSTX=450.0
##LASTX=3966.0
##FIRSTY=0.004982
##MAXX=3966
##MINX=450
##MAXY=0.80359
##MINY=0
##NPOINTS=880
##XYDATA=(X++(Y..Y))
450.0 62 65 57 31 30 15 39 129 85 157
490.0 291 429 326 553 720 1007 1079 1281 1504 1651
530.0 1914 1750 1381 1159 893 758 738 820 984 1486
570.0 1430 1542 1554 1288 954 661 470 319 125 135
610.0 147 115 134 138 116 122 115 91 159 172
650.0 244 311 393 627 953 1351 1996 2985 4056 5285
690.0 6393 8051 8197 6625 5541 4399 3241 2421 1888 1785
730.0 2248 3048 4313 5716 6820 8163 10000 7068 5611 4525
770.0 3252 2191 1420 938 848 818 883 962 990 1109
810.0 1253 1491 1813 2042 2408 2670 2622 2588 2545 2230
850.0 2027 2033 2294 2838 3445 4193 4917 5334 5547 5270
890.0 4932 4421 3776 3097 2492 1884 1383 1064 841 724
930.0 633 537 492 438 376 352 310 328 382 442
970.0 696 1209 2099 2777 2764 2606 2447 1560 806 619
1010.0 646 724 878 1037 1105 1026 878 732 501 393
1050.0 426 515 659 805 851 874 872 737 636 468
1090.0 357 299 252 265 277 313 403 493 557 593
1130.0 650 717 694 668 677 678 686 665 585 568
1170.0 606 595 615 657 698 774 869 886 909 887
1210.0 776 633 517 473 474 508 603 727 838 984
1250.0 1066 1124 1070 952 814 675 536 474 458 429
1290.0 458 478 548 691 728 745 770 789 754 676
1330.0 634 641 532 414 377 347 372 426 487 652
1370.0 899 1294 1996 2931 3572 3710 3451 2976 1929 1040
1410.0 643 473 371 349 340 393 498 659 904 1201
1450.0 1365 1359 1378 1405 1352 1375 1570 1814 1893 2087
1490.0 2356 2281 2057 1861 1605 1146 704 451 352 294
1530.0 272 270 239 221 221 199 203 173 173 216
1570.0 241 289 350 386 476 551 648 820 970 1074
1610.0 1044 911 733 529 293 229 202 188 225 242
1650.0 259 345 365 402 400 367 332 280 220 219
1690.0 217 228 252 254 303 377 451 518 553 609
1730.0 707 794 835 899 925 922 839 680 554 463
1770.0 400 354 316 296 321 372 476 568 566 574
1810.0 525 405 308 243 213 197 148 137 139 129
1850.0 162 200 236 314 368 404 435 469 522 517
1890.0 432 385 328 226 173 142 133 165 162 222
1930.0 291 354 445 489 503 575 596 545 467 380
1970.0 314 230 161 145 142 126 149 149 155 157
2010.0 145 135 135 117 111 109 99 99 99 89
2050.0 94 76 91 114 106 113 114 102 107 86
2090.0 82 87 63 75 85 74 88 87 84 103
2130.0 98 98 116 94 98 101 88 91 91 83
2170.0 92 90 91 106 100 118 131 136 148 173
2210.0 179 199 200 194 196 191 193 226 232 239
2250.0 247 209 196 159 134 134 119 117 130 122
2290.0 138 147 132 160 163 180 203 198 209 195
2330.0 160 142 142 111 88 111 131 127 23 1
2370.0 1 1 1 1 10 30 42 46 59 39
2410.0 46 52 34 45 49 35 46 46 39 57
2450.0 47 58 58 52 46 50 36 52 40 33
2490.0 39 37 32 53 35 46 45 26 33 28
2530.0 12 25 15 11 23 11 11 30 9 28
2570.0 29 30 55 50 55 73 70 88 95 78
2610.0 93 75 55 69 61 51 69 52 62 73
2650.0 53 30 35 25 59 49 56 87 80 82
2690.0 77 57 71 74 75 98 101 104 134 108
2730.0 120 113 98 104 98 76 99 87 91 115
2770.0 103 107 102 83 102 120 122 145 160 170
2810.0 197 172 162 157 117 125 120 109 120 125
2850.0 136 162 159 192 213 217 263 278 293 331
2890.0 359 386 486 584 751 1004 1264 1545 1787 1771
2930.0 1725 1590 1450 1363 1245 1175 1134 1108 1163 1298
2970.0 1489 1870 2322 2906 3690 4430 5188 5749 5739 5407
3010.0 4830 3988 3379 3214 3515 4257 5140 6169 7966 9961
3050.0 10000 9497 8977 8076 6358 5778 5700 5526 5157 4468
3090.0 3508 2888 2504 2184 1884 1535 1230 996 765 584
3130.0 431 279 186 143 94 104 100 78 117 110
3170.0 111 118 99 112 114 72 88 86 70 87
3210.0 59 50 70 24 53 48 43 56 63 50
3250.0 77 52 46 55 29 39 39 20 30 29
3290.0 25 25 13 13 35 0 29 31 12 30
3330.0 23 25 43 17 11 33 15 13 34 6
3370.0 34 40 6 52 56 47 87 48 59 77
3410.0 51 100 105 80 97 92 77 121 79 109
3450.0 121 100 119 122 91 112 119 115 112 98
3490.0 105 139 109 135 112 92 122 128 136 142
3530.0 103 126 131 130 139 150 147 173 164 149
3570.0 172 156 161 172 176 180 193 164 201 220
3610.0 207 251 229 226 253 207 242 241 226 270
3650.0 267 252 299 296 284 295 263 291 294 254
3690.0 286 274 293 299 285 303 300 292 292 318
3730.0 289 305 309 299 329 323 306 341 308 313
3770.0 313 285 286 308 295 330 330 325 363 334
3810.0 340 390 374 400 400 388 396 372 333 339
3850.0 313 302 293 265 278 290 280 314 295 291
3890.0 306 285 306 309 268 266 272 267 295 285
3930.0 279 295 306 307 309 289 285 290 295 308
##END=
