##TITLE=Propane, 1,2,3-trichloro-
##JCAMP-DX=4.24
##DATA TYPE=INFRARED SPECTRUM
##ORIGIN=Sadtler Research Labs Under US-EPA Contract
##OWNER=NIST Standard Reference Data Program
##CAS REGISTRY NO=96-18-4
##MOLFORM=C 3 H 5 Cl 3
##XUNITS=1/CM
##YUNITS=ABSORBANCE
##XFACTOR=1.0
##YFACTOR=0.000073199
##DELTAX=4.0
##FIRSTX=450.0
##LASTX=3966.0
##FIRSTY=0.053216
##MAXX=3966
##MINX=450
##MAXY=0.73199
##MINY=0
##NPOINTS=880
##XYDATA=(X++(Y..Y))
450.0 727 961 1363 1657 751 451 381 484 1045 1884
490.0 1434 1733 2080 2011 2207 2461 1801 2336 1910 2628
530.0 2377 2030 1590 1221 1186 1210 1159 998 1082 997
570.0 1050 1134 1175 1103 971 1044 1076 1109 1061 1115
610.0 1143 1139 1235 1249 1334 1433 1676 1832 2131 2318
650.0 2758 3325 4405 6015 7349 8863 9159 9271 7534 5931
690.0 4389 3033 2393 2424 2820 3677 4988 6734 8630 9639
730.0 10000 9985 9118 7739 7139 7639 8539 8893 8934 8115
770.0 6907 5349 3585 2518 2329 2160 2033 1839 1528 1327
810.0 1224 1176 1188 1194 1228 1216 1191 1240 1237 1285
850.0 1344 1500 1742 2022 2355 2531 2894 2744 2509 1974
890.0 1511 1462 1833 2550 3269 3605 3628 3798 3291 2777
930.0 2625 2513 2320 1925 1575 1359 1340 1254 1285 1280
970.0 1299 1378 1442 1655 2049 2409 2613 2650 2365 1930
1010.0 1471 1283 1255 1261 1248 1216 1166 1097 1050 1022
1050.0 1018 1025 1032 1030 1054 1089 1142 1202 1259 1314
1090.0 1310 1288 1212 1126 1017 919 865 854 854 870
1130.0 869 924 981 1059 1143 1117 1106 1088 1107 1222
1170.0 1423 1595 1647 1694 1681 1507 1448 1436 1569 1797
1210.0 2470 3821 4607 5154 5105 4534 3561 2746 2758 2690
1250.0 2723 2639 2213 2104 2336 2700 3104 3651 4146 4764
1290.0 4961 4922 4507 3487 2577 1809 1310 1114 1130 1298
1330.0 1634 2120 2599 2778 2713 2435 1915 1369 1026 875
1370.0 818 796 792 780 780 778 779 767 777 789
1410.0 831 961 1290 2009 3104 4216 5512 6259 5674 6113
1450.0 4864 3575 2671 1760 1096 862 755 744 714 715
1490.0 705 693 683 686 687 678 673 640 642 624
1530.0 612 611 595 604 595 594 581 583 557 577
1570.0 564 569 550 564 559 546 541 535 534 523
1610.0 533 530 520 528 516 537 522 529 525 532
1650.0 512 518 505 512 503 500 486 496 479 474
1690.0 481 475 475 475 473 475 468 474 472 470
1730.0 458 457 454 464 451 462 457 453 444 449
1770.0 447 433 439 432 440 418 426 424 432 422
1810.0 429 427 431 435 420 422 403 406 396 406
1850.0 403 399 403 400 398 389 384 380 382 374
1890.0 378 379 377 377 371 370 364 371 368 366
1930.0 364 363 362 359 355 347 350 347 358 346
1970.0 348 345 337 334 327 329 329 323 327 339
2010.0 335 345 339 339 330 318 310 310 315 308
2050.0 309 298 301 297 294 289 295 295 296 292
2090.0 295 300 297 301 296 298 287 293 281 282
2130.0 288 280 282 271 267 260 263 264 266 264
2170.0 256 254 256 259 252 263 255 270 272 275
2210.0 270 265 258 247 238 226 219 209 211 209
2250.0 209 208 208 208 210 211 210 214 220 233
2290.0 229 243 247 251 258 260 263 247 245 232
2330.0 242 224 223 238 250 217 213 190 206 211
2370.0 195 192 182 182 181 179 178 173 170 163
2410.0 165 157 163 161 170 166 168 164 154 148
2450.0 136 129 120 125 124 126 121 129 122 123
2490.0 130 131 123 114 111 110 115 116 114 115
2530.0 115 104 95 85 77 70 66 59 55 64
2570.0 53 53 55 50 45 35 38 35 39 31
2610.0 29 32 38 38 37 32 35 29 18 6
2650.0 0 7 17 39 49 54 60 66 52 42
2690.0 34 33 35 57 63 69 80 91 104 117
2730.0 117 113 102 75 47 47 34 22 35 29
2770.0 34 44 39 34 55 35 26 19 10 18
2810.0 15 28 36 46 38 64 76 103 162 233
2850.0 336 398 391 343 341 327 344 340 335 289
2890.0 223 153 127 138 109 116 111 138 133 173
2930.0 186 222 271 387 678 1014 1652 2346 3064 3324
2970.0 3715 3956 3173 2792 2470 1902 1332 948 677 582
3010.0 590 659 652 598 501 376 257 225 148 145
3050.0 90 103 76 81 79 70 78 64 75 56
3090.0 64 52 36 37 49 36 38 40 33 38
3130.0 24 25 39 43 39 51 35 42 34 29
3170.0 36 56 43 48 62 30 42 44 44 42
3210.0 25 36 18 26 24 39 19 41 36 32
3250.0 31 33 21 35 53 59 62 47 33 55
3290.0 58 39 44 57 35 39 45 30 8 32
3330.0 13 25 33 64 39 34 39 56 63 64
3370.0 47 53 61 53 60 35 43 38 37 19
3410.0 44 37 43 51 33 32 29 45 54 73
3450.0 42 52 51 36 72 52 54 47 56 60
3490.0 63 48 42 42 71 64 49 41 32 58
3530.0 75 61 69 58 50 36 65 71 50 40
3570.0 58 97 64 76 104 73 94 107 82 70
3610.0 94 81 123 86 108 110 122 79 78 90
3650.0 91 110 114 78 64 103 104 74 92 121
3690.0 124 90 87 104 129 152 140 141 159 145
3730.0 149 119 132 89 124 115 139 151 117 112
3770.0 130 140 102 135 124 134 123 136 100 117
3810.0 77 110 130 120 139 117 87 108 95 100
3850.0 109 88 150 109 99 109 174 152 170 130
3890.0 164 111 110 99 134 155 153 141 140 142
3930.0 183 100 81 148 163 174 184 142 186 81
##END=
