##TITLE=1-Propanol, 2,3-dibromo-
##JCAMP-DX=4.24
##DATA TYPE=INFRARED SPECTRUM
##ORIGIN=Sadtler Research Labs Under US-EPA Contract
##OWNER=NIST Standard Reference Data Program
##CAS REGISTRY NO=96-13-9
##MOLFORM=C 3 H 6 Br 2 O
##XUNITS=1/CM
##YUNITS=ABSORBANCE
##XFACTOR=1.0
##YFACTOR=0.000075522
##DELTAX=4.0
##FIRSTX=450.0
##LASTX=3966.0
##FIRSTY=0.044558
##MAXX=3966
##MINX=450
##MAXY=0.75522
##MINY=0
##NPOINTS=880
##XYDATA=(X++(Y..Y))
450.0 590 582 678 748 872 990 1090 1139 1162 1191
490.0 1141 974 952 753 743 737 759 850 1067 1461
530.0 1870 2478 3260 4202 4809 4749 4089 3330 2674 3027
570.0 3975 4590 4862 4799 4427 4426 4275 4398 4387 4084
610.0 3571 2817 1916 1383 1177 1063 981 934 1036 1224
650.0 1368 1509 1509 1372 1284 1275 1289 1188 993 697
690.0 489 303 213 195 197 223 258 279 306 292
730.0 196 138 96 86 56 54 38 38 21 39
770.0 33 36 57 51 23 58 42 55 79 80
810.0 139 222 303 395 530 554 617 658 659 613
850.0 554 566 639 741 854 931 1065 1268 1463 1546
890.0 1551 1379 1226 1129 1047 957 790 679 630 706
930.0 907 1274 1824 2530 3290 4137 4859 5090 4840 4157
970.0 3144 2210 1554 1204 1076 1059 1161 1315 1510 1766
1010.0 2000 2272 2561 2962 3528 4332 5218 6094 7058 7813
1050.0 8134 8458 8942 9528 10000 9843 9630 8727 8356 8320
1090.0 8272 8105 7241 6309 5188 4007 3057 2473 2258 2362
1130.0 2812 3490 4071 4205 3855 3218 2782 2728 2851 3065
1170.0 3132 3041 2755 2352 2210 2305 2656 3321 4384 5815
1210.0 7049 8069 7937 6991 5922 4482 3921 3754 3786 3951
1250.0 4069 4008 3637 3061 2455 1877 1545 1412 1375 1438
1290.0 1507 1584 1671 1751 1793 1790 1814 1849 1872 1892
1330.0 1860 1778 1675 1596 1730 1927 2197 2449 2673 2854
1370.0 3175 3615 4122 4538 4725 4444 3809 3047 2215 1582
1410.0 1229 1133 1281 1480 1879 2224 2410 2522 2434 2306
1450.0 2247 2309 2395 2310 2291 1935 1294 848 592 429
1490.0 317 259 258 218 291 125 156 162 116 86
1530.0 114 146 160 75 69 135 141 160 0 86
1570.0 92 89 66 73 81 95 90 103 100 100
1610.0 104 106 90 95 64 88 113 46 90 111
1650.0 42 90 42 91 65 97 89 64 103 70
1690.0 88 117 101 93 125 126 138 126 108 153
1730.0 167 188 140 139 145 164 167 187 179 170
1770.0 176 144 138 128 123 110 99 86 93 74
1810.0 75 66 74 60 74 60 56 62 51 51
1850.0 46 53 45 52 65 62 49 52 65 64
1890.0 68 68 65 64 63 69 62 68 62 62
1930.0 62 63 61 72 63 62 61 72 68 66
1970.0 60 60 68 59 62 75 78 78 93 91
2010.0 100 91 90 83 90 77 80 82 83 90
2050.0 97 95 107 113 115 102 107 107 107 122
2090.0 121 122 133 135 139 145 152 159 163 159
2130.0 157 151 137 131 122 111 96 91 85 69
2170.0 63 63 63 57 63 63 63 62 67 67
2210.0 72 74 81 80 79 79 73 73 73 79
2250.0 78 86 91 98 95 95 97 91 89 80
2290.0 79 77 88 87 84 83 82 72 73 54
2330.0 60 42 30 55 58 32 74 60 59 31
2370.0 22 36 48 60 80 89 104 102 111 103
2410.0 103 109 101 100 95 99 95 95 100 101
2450.0 112 107 113 113 107 99 94 89 83 78
2490.0 71 67 58 59 57 52 50 50 58 63
2530.0 49 49 54 49 57 48 56 55 68 68
2570.0 75 80 66 62 48 50 47 43 41 34
2610.0 27 26 25 26 33 27 47 48 61 63
2650.0 66 69 65 74 73 80 101 115 129 129
2690.0 122 121 130 130 134 140 155 156 175 183
2730.0 204 204 219 233 246 247 233 236 214 213
2770.0 212 206 201 181 168 161 161 168 183 193
2810.0 218 242 265 298 312 339 372 420 441 482
2850.0 504 555 652 837 1146 1574 2121 2658 3001 3102
2890.0 2926 2471 2029 1652 1395 1286 1349 1543 1907 2234
2930.0 2688 3212 3739 3755 3620 3416 3291 3274 3349 3210
2970.0 2850 2431 2089 1842 1781 1655 1422 1096 748 441
3010.0 283 215 172 169 158 157 139 137 113 105
3050.0 90 84 84 73 65 65 68 62 50 39
3090.0 30 35 28 26 27 27 22 27 21 29
3130.0 31 31 32 25 30 42 44 37 38 44
3170.0 24 33 23 17 26 22 23 25 27 37
3210.0 45 41 34 34 40 35 41 30 41 47
3250.0 55 77 85 96 133 123 130 128 131 106
3290.0 117 102 106 83 97 105 93 118 98 99
3330.0 92 66 58 65 33 68 70 55 74 60
3370.0 44 55 81 62 70 81 84 69 68 79
3410.0 70 76 84 91 96 100 90 89 76 77
3450.0 94 88 95 91 89 86 96 98 123 93
3490.0 139 131 162 180 147 159 156 146 155 127
3530.0 117 141 166 160 175 165 201 181 196 192
3570.0 184 237 252 264 302 337 457 640 1011 1670
3610.0 2901 4379 5290 5266 4311 3120 2089 1627 1392 1348
3650.0 1444 1570 1735 1814 1781 1712 1457 1262 1007 811
3690.0 666 542 504 447 386 361 319 314 315 287
3730.0 287 281 251 241 243 208 213 188 174 134
3770.0 140 120 122 96 95 99 100 83 85 64
3810.0 58 73 46 84 76 84 55 73 73 81
3850.0 71 93 96 114 69 84 85 133 139 160
3890.0 158 153 131 120 104 109 84 57 73 99
3930.0 116 115 148 171 175 169 196 193 200 211
##END=
