##TITLE=1-Butanamine, 2-methyl-
##JCAMP-DX=4.24
##DATA TYPE=INFRARED SPECTRUM
##ORIGIN=Sadtler Research Labs Under US-EPA Contract
##OWNER=NIST Standard Reference Data Program
##CAS REGISTRY NO=96-15-1
##MOLFORM=C 5 H 13 N
##XUNITS=1/CM
##YUNITS=ABSORBANCE
##XFACTOR=1.0
##YFACTOR=0.000139941
##DELTAX=4.0
##FIRSTX=450.0
##LASTX=3966.0
##FIRSTY=0.043102
##MAXX=3966
##MINX=450
##MAXY=1.39941
##MINY=0
##NPOINTS=880
##XYDATA=(X++(Y..Y))
450.0 308 107 50 28 130 199 123 164 87 110
490.0 187 136 134 80 78 62 71 95 70 28
530.0 21 46 72 45 99 67 100 103 130 125
570.0 183 202 130 153 227 145 183 135 92 94
610.0 106 153 137 153 124 110 160 174 131 186
650.0 187 279 244 202 264 362 318 286 435 410
690.0 447 452 544 591 694 793 886 1088 1361 1618
730.0 1750 2100 2278 2469 2613 2640 2521 2573 2626 2702
770.0 2757 2716 2707 2610 2460 2183 1927 1607 1455 1249
810.0 1168 990 868 761 682 623 515 506 404 353
850.0 319 281 315 286 283 257 270 303 282 287
890.0 312 345 403 426 435 434 445 431 391 386
930.0 337 315 269 270 264 264 292 305 314 336
970.0 322 340 336 331 333 346 349 375 409 446
1010.0 480 484 489 448 415 404 400 364 400 495
1050.0 579 715 851 937 1003 971 898 777 590 412
1090.0 276 197 147 104 137 69 93 142 141 136
1130.0 153 157 151 149 141 126 129 140 111 124
1170.0 95 89 86 72 95 70 84 79 53 48
1210.0 48 38 43 47 51 52 67 77 80 99
1250.0 122 128 147 147 161 168 163 175 171 183
1290.0 201 209 232 230 238 241 237 249 218 218
1330.0 221 218 273 290 305 343 391 491 592 739
1370.0 852 1041 1199 1259 1399 1295 1160 1003 729 553
1410.0 357 267 236 221 213 241 317 473 592 779
1450.0 1026 1306 1508 1715 1684 1731 1550 1324 1087 867
1490.0 716 534 416 341 292 324 199 206 179 152
1530.0 130 138 140 150 170 152 150 178 202 163
1570.0 181 194 210 224 251 275 364 377 509 614
1610.0 728 913 946 1066 1003 996 871 743 627 451
1650.0 408 317 308 247 341 374 432 382 327 218
1690.0 148 119 119 188 128 148 159 217 250 255
1730.0 333 299 306 221 153 135 84 78 68 52
1770.0 77 54 45 54 55 53 52 65 49 63
1810.0 39 49 52 45 61 59 35 47 26 67
1850.0 28 26 23 8 34 13 26 3 10 11
1890.0 11 15 9 9 4 14 0 21 7 15
1930.0 1 5 10 8 21 0 13 8 6 11
1970.0 8 10 4 6 5 3 19 4 10 6
2010.0 2 9 5 9 5 8 6 3 10 10
2050.0 7 9 8 9 12 12 12 14 7 12
2090.0 10 13 10 12 11 9 13 12 11 14
2130.0 14 12 13 11 9 12 9 8 10 8
2170.0 6 8 7 7 6 8 10 9 10 8
2210.0 10 9 7 11 9 8 10 8 10 11
2250.0 15 11 12 13 13 15 16 13 16 19
2290.0 19 19 24 27 31 37 33 39 39 41
2330.0 47 45 43 43 53 46 63 55 62 51
2370.0 49 50 47 42 40 34 33 33 31 34
2410.0 33 36 37 35 34 35 32 32 30 34
2450.0 33 34 33 32 31 32 29 30 29 30
2490.0 31 33 31 32 35 37 36 38 41 41
2530.0 44 46 48 52 55 55 60 62 68 70
2570.0 77 82 90 93 92 99 103 106 106 112
2610.0 117 122 127 129 133 137 137 144 146 150
2650.0 154 157 163 169 171 178 184 190 195 199
2690.0 203 209 219 226 236 248 270 287 313 339
2730.0 370 394 419 439 450 451 450 440 430 421
2770.0 411 410 410 412 427 446 472 505 558 623
2810.0 703 806 923 1058 1217 1396 1590 1796 2021 2283
2850.0 2579 2928 3314 3763 4260 4788 5301 5712 5964 6024
2890.0 5863 5732 5583 5559 5634 5846 6190 6555 6947 7181
2930.0 7272 7277 7142 7010 6898 6952 7327 8088 9114 9990
2970.0 10000 9421 8319 6979 5303 3643 2372 1556 1072 783
3010.0 621 532 466 425 393 368 357 343 327 326
3050.0 319 315 307 298 286 276 261 250 243 233
3090.0 224 216 209 204 198 193 190 185 179 180
3130.0 176 175 175 181 183 182 184 186 192 189
3170.0 184 185 179 178 167 157 150 141 130 125
3210.0 120 115 103 102 97 93 86 82 77 78
3250.0 73 77 76 74 74 70 72 69 73 71
3290.0 66 76 71 77 75 71 79 76 79 92
3330.0 91 110 121 127 137 140 140 133 121 111
3370.0 98 84 78 71 72 71 73 77 74 74
3410.0 81 84 92 91 94 85 86 79 68 73
3450.0 68 77 72 72 85 89 104 109 119 113
3490.0 108 87 85 69 93 56 76 50 61 74
3530.0 56 57 52 47 74 47 72 25 62 47
3570.0 101 47 45 43 45 90 50 47 35 46
3610.0 48 52 53 55 42 85 63 80 79 102
3650.0 113 94 91 58 65 30 73 40 51 22
3690.0 18 59 13 59 41 42 51 32 55 37
3730.0 62 62 67 66 60 66 44 42 16 30
3770.0 47 38 30 42 32 22 32 42 29 49
3810.0 47 37 38 63 39 42 58 54 57 71
3850.0 53 101 76 78 55 78 70 84 100 104
3890.0 107 95 84 121 134 112 58 128 84 109
3930.0 104 107 102 101 135 99 107 111 123 139
##END=
