##TITLE=Propane, 1,2-dibromo-3-chloro-
##JCAMP-DX=4.24
##DATA TYPE=INFRARED SPECTRUM
##ORIGIN=Sadtler Research Labs Under US-EPA Contract
##OWNER=NIST Standard Reference Data Program
##CAS REGISTRY NO=96-12-8
##MOLFORM=C 3 H 5 Br 2 Cl
##XUNITS=1/CM
##YUNITS=ABSORBANCE
##XFACTOR=1.0
##YFACTOR=0.000089328
##DELTAX=4.0
##FIRSTX=450.0
##LASTX=3966.0
##FIRSTY=0.135957
##MAXX=3966
##MINX=450
##MAXY=0.89328
##MINY=0
##NPOINTS=880
##XYDATA=(X++(Y..Y))
450.0 1522 1458 1543 1573 1522 1433 1337 1290 1305 1390
490.0 1515 1725 2021 2070 1950 1779 1401 1286 1303 1305
530.0 1361 1364 1414 1471 1549 1688 1886 2256 2943 4267
570.0 6713 9229 10000 8557 6047 3774 2811 2503 2401 2174
610.0 1662 1290 1126 997 1005 1059 1149 1310 1546 1951
650.0 2423 2885 2993 2676 2331 1371 970 929 974 866
690.0 630 420 361 435 618 914 1309 1781 2526 3600
730.0 4951 6015 6185 5236 3717 2298 1415 1127 989 846
770.0 717 608 529 509 348 242 198 143 74 41
810.0 1 10 41 57 98 183 268 527 833 1196
850.0 1513 1629 1695 1796 1922 1933 1704 1575 1108 1078
890.0 1281 1280 1193 1057 892 860 797 693 543 359
930.0 234 144 87 48 44 76 153 329 635 1040
970.0 1233 1190 920 525 320 177 113 126 156 171
1010.0 166 163 157 130 87 45 32 28 29 35
1050.0 41 59 81 127 192 278 352 391 396 321
1090.0 277 228 167 127 129 203 361 590 811 912
1130.0 941 1031 1270 1574 1796 1856 1729 1947 2316 2456
1170.0 2297 1776 1116 879 892 1237 2061 3032 3717 3917
1210.0 3464 3081 3005 2785 2402 1791 1574 1876 2421 2927
1250.0 3308 3459 3375 2988 2463 1988 1913 2035 2102 2032
1290.0 1803 1481 1103 720 440 326 354 468 664 981
1330.0 1453 1901 2117 1929 1432 815 379 182 107 84
1370.0 92 103 106 111 118 108 120 108 124 203
1410.0 363 712 1358 2285 3515 4337 4748 4740 4287 3232
1450.0 2130 1244 585 256 156 135 112 94 100 106
1490.0 104 77 82 65 101 43 51 52 34 33
1530.0 41 59 59 47 32 52 69 71 0 10
1570.0 33 20 11 19 18 24 24 32 37 43
1610.0 47 50 48 42 35 41 48 38 36 47
1650.0 21 28 15 25 25 33 23 21 33 30
1690.0 26 36 27 32 28 32 39 48 39 64
1730.0 75 81 75 88 83 83 71 66 60 43
1770.0 45 33 26 33 39 34 28 21 28 33
1810.0 28 33 40 43 44 33 34 34 31 29
1850.0 30 33 34 29 29 29 23 24 33 31
1890.0 30 31 36 33 35 28 28 29 24 34
1930.0 34 32 36 31 32 26 29 25 17 24
1970.0 23 24 24 23 27 30 29 33 33 38
2010.0 42 41 41 40 41 35 36 30 33 36
2050.0 35 42 38 40 46 51 62 52 52 52
2090.0 52 44 41 41 41 35 35 35 30 30
2130.0 36 36 36 36 39 36 33 30 29 29
2170.0 30 37 46 51 52 57 58 53 52 52
2210.0 53 46 43 44 41 47 47 46 46 47
2250.0 47 53 54 64 56 70 76 87 105 112
2290.0 123 114 113 108 103 106 107 105 111 96
2330.0 109 87 90 94 75 70 80 70 51 51
2370.0 18 25 33 44 51 63 62 63 73 80
2410.0 73 68 63 54 52 45 49 51 53 52
2450.0 50 57 67 68 68 61 56 52 55 55
2490.0 55 52 51 45 45 39 39 44 45 33
2530.0 34 30 27 25 20 16 22 28 29 27
2570.0 33 34 28 25 22 19 14 5 6 9
2610.0 11 16 16 10 11 11 17 15 18 24
2650.0 29 35 40 48 58 66 70 60 58 52
2690.0 43 37 28 30 35 42 52 57 53 48
2730.0 36 30 14 14 14 12 12 21 18 25
2770.0 15 23 18 24 18 7 3 7 14 19
2810.0 19 22 24 34 39 68 89 113 143 170
2850.0 206 217 208 191 174 163 145 115 83 64
2890.0 54 48 43 53 59 63 68 65 65 73
2930.0 77 93 128 198 338 569 870 1259 1659 1891
2970.0 1919 1799 1655 1235 1101 851 679 500 373 323
3010.0 324 354 285 256 231 190 135 96 68 51
3050.0 43 44 33 27 39 26 39 37 33 26
3090.0 27 27 21 21 15 16 22 22 14 18
3130.0 23 22 20 24 26 21 33 28 32 33
3170.0 27 28 16 26 20 17 14 16 13 4
3210.0 22 23 17 22 18 22 20 16 4 14
3250.0 6 13 13 18 23 16 17 22 28 22
3290.0 21 13 14 20 9 16 15 21 32 44
3330.0 33 32 19 21 25 28 26 4 9 11
3370.0 5 28 17 12 11 10 21 6 14 19
3410.0 20 10 15 17 20 11 0 27 33 19
3450.0 18 9 19 20 26 26 16 17 25 16
3490.0 4 11 22 19 23 4 17 30 21 28
3530.0 10 14 17 26 9 20 31 33 36 41
3570.0 25 9 28 21 40 22 18 13 20 26
3610.0 33 40 37 49 34 37 16 33 40 45
3650.0 38 6 4 31 25 27 11 23 26 38
3690.0 35 41 45 39 36 40 49 47 23 51
3730.0 52 37 26 21 29 27 28 21 28 34
3770.0 36 22 36 34 25 25 35 27 12 23
3810.0 37 34 24 30 24 28 29 37 25 39
3850.0 41 36 24 35 39 35 46 43 46 51
3890.0 42 32 37 39 33 34 34 40 45 40
3930.0 35 39 37 39 59 65 69 56 46 40
##END=
