##TITLE=Propane, 1,2,3-tribromo-
##JCAMP-DX=4.24
##DATA TYPE=INFRARED SPECTRUM
##ORIGIN=Sadtler Research Labs Under US-EPA Contract
##OWNER=NIST Standard Reference Data Program
##CAS REGISTRY NO=96-11-7
##MOLFORM=C 3 H 5 Br 3
##XUNITS=1/CM
##YUNITS=ABSORBANCE
##XFACTOR=1.0
##YFACTOR=0.000055225
##DELTAX=4.0
##FIRSTX=450.0
##LASTX=3966.0
##FIRSTY=0.064558
##MAXX=3966
##MINX=450
##MAXY=0.55225
##MINY=0
##NPOINTS=880
##XYDATA=(X++(Y..Y))
450.0 1169 1083 1429 1307 948 653 261 237 32 268
490.0 16 219 111 180 165 307 362 334 642 619
530.0 747 821 1025 1239 1302 2049 2750 4504 8007 9551
570.0 10000 7448 5130 2512 754 974 714 980 1048 1249
610.0 1135 1785 2539 3353 4316 3476 2376 1327 1330 1930
650.0 2264 2388 1398 1014 1596 2399 3439 4681 4794 3042
690.0 2097 990 517 447 614 776 628 957 600 851
730.0 694 436 367 478 342 243 557 461 352 216
770.0 445 163 268 222 304 271 204 212 300 199
810.0 344 374 411 344 278 530 656 1028 1539 2167
850.0 1869 1735 1800 2881 3513 3715 3363 2582 2103 1670
890.0 1089 632 559 459 387 283 329 246 422 202
930.0 195 182 426 373 807 1240 1448 1525 1232 870
970.0 360 376 334 323 452 486 598 581 514 312
1010.0 325 267 127 277 229 245 114 236 216 81
1050.0 246 205 261 232 362 435 404 508 430 507
1090.0 371 360 234 395 479 709 973 859 833 942
1130.0 1405 1854 2257 2520 2421 2143 2425 2862 3151 2791
1170.0 2145 1595 1474 1736 2962 5125 5847 5260 3336 2617
1210.0 2969 3483 3290 2700 2420 3679 5155 5963 5712 5457
1250.0 5560 6132 5919 4362 2494 1189 689 537 556 516
1290.0 552 513 620 496 585 584 589 730 1032 1698
1330.0 2521 3036 2583 1692 773 503 352 275 282 163
1370.0 214 198 237 258 231 213 155 226 359 530
1410.0 927 1653 2829 4236 5468 5357 5234 5010 3865 2434
1450.0 1056 544 152 259 213 138 144 212 225 254
1490.0 216 198 111 190 123 116 205 132 78 70
1530.0 155 40 209 76 110 155 131 151 61 246
1570.0 118 174 117 185 140 127 151 138 167 132
1610.0 141 144 110 157 129 200 145 30 195 112
1650.0 159 6 156 73 68 84 152 99 132 78
1690.0 57 128 84 167 143 168 74 74 108 138
1730.0 132 136 105 59 147 115 142 170 188 126
1770.0 120 129 187 125 164 129 96 137 116 157
1810.0 183 117 101 165 146 109 161 197 132 90
1850.0 158 111 117 153 142 124 87 128 108 103
1890.0 145 133 202 131 129 114 175 138 131 178
1930.0 103 111 62 167 93 130 148 104 102 105
1970.0 188 144 149 130 116 124 137 146 161 123
2010.0 76 76 155 105 143 148 117 102 117 198
2050.0 125 192 164 140 126 139 122 136 115 129
2090.0 117 150 111 133 173 176 139 149 185 88
2130.0 159 96 136 69 112 97 78 121 127 133
2170.0 120 145 111 162 155 172 181 152 113 82
2210.0 148 157 118 123 84 75 95 129 142 144
2250.0 154 125 102 152 208 192 252 207 209 199
2290.0 202 182 173 210 155 149 185 228 198 234
2330.0 190 100 245 206 136 116 130 0 22 84
2370.0 91 58 172 103 125 145 126 150 138 200
2410.0 129 166 111 128 102 166 142 142 186 128
2450.0 146 130 171 163 148 183 108 108 147 133
2490.0 145 81 138 73 153 124 158 119 91 74
2530.0 62 185 72 123 102 83 35 75 119 100
2570.0 91 117 44 67 105 110 129 109 95 69
2610.0 121 42 104 105 112 49 93 133 42 126
2650.0 145 167 159 177 179 143 182 200 169 132
2690.0 85 96 86 83 26 89 49 19 54 87
2730.0 150 35 104 84 42 71 136 118 65 70
2770.0 26 26 25 120 77 88 40 42 112 91
2810.0 111 118 149 56 116 200 276 182 242 166
2850.0 91 145 234 203 197 155 142 100 119 131
2890.0 115 154 34 73 99 90 34 161 132 89
2930.0 101 150 126 145 285 408 553 852 1213 1561
2970.0 1879 1802 1616 1120 1015 794 777 560 274 236
3010.0 185 230 186 366 363 308 211 173 165 95
3050.0 204 129 82 108 46 117 143 190 169 145
3090.0 117 55 137 152 143 74 138 38 42 129
3130.0 65 112 113 152 90 100 159 138 126 163
3170.0 69 125 103 60 91 109 103 62 128 59
3210.0 132 83 196 88 133 151 67 175 119 193
3250.0 75 91 39 76 129 199 102 134 107 84
3290.0 144 227 200 167 101 91 77 126 169 92
3330.0 164 94 96 73 228 145 184 130 171 98
3370.0 184 241 66 173 81 117 71 175 96 118
3410.0 121 124 126 195 181 125 242 198 114 137
3450.0 153 101 176 167 173 35 127 111 103 204
3490.0 169 201 153 126 126 188 232 141 163 136
3530.0 86 82 191 202 82 157 99 164 163 228
3570.0 225 95 171 114 195 142 198 173 127 138
3610.0 33 207 156 179 158 192 159 151 299 236
3650.0 183 200 186 162 165 172 192 118 212 156
3690.0 182 169 191 197 284 199 166 268 196 192
3730.0 199 256 118 150 122 98 144 189 184 187
3770.0 138 218 225 294 280 257 246 172 138 154
3810.0 324 175 192 122 179 143 235 370 269 255
3850.0 246 232 236 344 305 296 207 211 201 250
3890.0 236 177 224 214 164 250 367 330 294 305
3930.0 314 249 285 268 178 165 12 21 22 23
##END=
