##TITLE=Pentane, 3-methyl-
##JCAMP-DX=4.24
##DATA TYPE=INFRARED SPECTRUM
##ORIGIN=Sadtler Research Labs Under US-EPA Contract
##OWNER=NIST Standard Reference Data Program
##CAS REGISTRY NO=96-14-0
##MOLFORM=C 6 H 14
##XUNITS=1/CM
##YUNITS=ABSORBANCE
##XFACTOR=1.0
##YFACTOR=0.000095056
##DELTAX=4.0
##FIRSTX=450.0
##LASTX=3966.0
##FIRSTY=0.000856
##MAXX=3966
##MINX=450
##MAXY=0.95056
##MINY=0
##NPOINTS=880
##XYDATA=(X++(Y..Y))
450.0 9 16 25 25 25 25 32 25 15 9
490.0 10 11 11 21 15 27 29 43 48 25
530.0 26 29 19 29 4 8 16 16 40 19
570.0 11 9 27 19 12 20 21 6 10 21
610.0 17 17 21 12 17 18 21 24 12 16
650.0 22 21 19 27 16 25 21 21 21 26
690.0 21 19 26 21 26 26 25 24 24 31
730.0 46 47 46 60 68 79 83 94 105 122
770.0 127 126 121 126 116 94 83 65 65 60
810.0 54 58 54 55 53 48 27 32 26 27
850.0 23 29 32 32 42 36 47 47 48 36
890.0 36 27 26 24 20 24 23 25 32 34
930.0 46 56 77 98 114 141 154 164 172 187
970.0 198 222 248 264 270 265 254 232 210 180
1010.0 150 138 118 110 103 101 96 91 85 80
1050.0 74 64 47 43 34 27 28 22 22 23
1090.0 23 27 27 28 38 43 59 65 74 89
1130.0 96 109 117 118 124 123 129 113 97 80
1170.0 65 50 42 35 32 27 26 26 20 19
1210.0 19 25 25 24 33 36 47 58 74 78
1250.0 85 91 95 96 91 91 90 97 102 107
1290.0 116 124 125 130 137 131 131 115 104 99
1330.0 95 104 109 123 135 155 187 239 320 414
1370.0 550 693 781 848 928 864 761 589 408 268
1410.0 183 141 123 123 143 180 239 338 465 647
1450.0 857 1064 1247 1368 1400 1411 1201 1013 832 640
1490.0 461 324 221 157 127 87 79 75 63 59
1530.0 53 60 59 57 53 59 64 68 47 51
1570.0 54 52 44 43 43 43 43 39 39 38
1610.0 36 39 31 33 32 37 41 36 37 47
1650.0 41 39 33 39 35 39 38 34 34 26
1690.0 26 25 25 14 15 15 15 12 13 9
1730.0 15 15 8 9 10 8 10 10 9 9
1770.0 9 9 9 10 9 9 9 8 8 4
1810.0 3 3 9 9 8 8 6 10 6 4
1850.0 3 8 9 3 2 7 3 7 3 2
1890.0 2 2 2 3 3 3 3 7 2 3
1930.0 6 4 5 5 6 1 1 1 1 1
1970.0 2 2 2 2 2 2 2 2 2 0
2010.0 2 0 1 1 1 5 7 5 5 5
2050.0 5 5 5 5 1 1 5 0 0 0
2090.0 0 0 6 0 3 5 2 4 3 4
2130.0 4 0 4 4 4 4 4 4 4 1
2170.0 1 4 3 3 3 3 3 3 9 3
2210.0 6 3 3 3 3 3 2 2 3 7
2250.0 3 6 7 5 7 8 8 2 6 6
2290.0 6 5 11 6 9 15 15 16 16 20
2330.0 26 18 22 19 14 25 28 25 11 10
2370.0 5 5 8 8 17 18 24 24 24 23
2410.0 29 29 28 28 27 24 23 20 19 19
2450.0 13 13 13 13 13 14 14 13 13 16
2490.0 16 20 17 14 13 19 14 14 14 15
2530.0 19 18 19 21 23 23 23 28 35 34
2570.0 45 50 50 54 63 65 71 74 79 76
2610.0 81 81 81 76 76 75 74 71 71 71
2650.0 74 70 70 70 70 71 71 76 76 76
2690.0 81 89 91 92 94 102 106 111 127 137
2730.0 149 158 163 175 178 176 177 166 158 152
2770.0 153 157 162 162 174 189 205 221 236 255
2810.0 273 300 320 349 374 412 463 532 650 834
2850.0 1096 1428 1827 2241 2721 3377 3964 4274 4529 4535
2890.0 4413 4265 4165 4037 4038 4285 4676 5027 5452 5880
2930.0 6093 6116 6037 5979 5955 6070 6540 7368 8471 9541
2970.0 10000 9294 8517 7286 5550 3730 2348 1498 1013 730
3010.0 570 466 400 373 340 320 311 298 295 289
3050.0 284 277 272 271 253 245 239 224 215 198
3090.0 187 174 165 156 147 140 137 125 130 131
3130.0 118 121 123 128 130 132 130 137 136 136
3170.0 137 136 120 115 114 98 86 69 65 60
3210.0 49 45 45 39 33 30 28 25 21 18
3250.0 19 13 8 14 15 15 9 15 9 15
3290.0 14 19 11 16 7 8 16 9 10 4
3330.0 10 9 8 10 15 9 12 15 15 11
3370.0 9 16 10 11 6 10 10 10 10 10
3410.0 10 10 16 6 10 10 6 5 11 5
3450.0 4 6 6 8 5 5 5 6 6 6
3490.0 6 12 6 5 5 6 6 12 6 9
3530.0 6 13 6 11 5 10 17 9 7 6
3570.0 9 5 19 8 16 17 11 16 7 13
3610.0 10 14 11 18 17 19 10 13 15 13
3650.0 22 8 30 33 33 34 28 30 38 27
3690.0 29 23 40 28 24 29 31 30 34 32
3730.0 45 43 38 39 36 29 25 25 26 24
3770.0 19 25 24 23 30 32 28 29 29 42
3810.0 48 47 40 47 46 37 40 47 39 43
3850.0 44 48 45 44 44 48 44 48 43 43
3890.0 44 53 47 51 48 47 46 46 46 45
3930.0 51 39 40 45 44 52 54 55 48 49
##END=
