##TITLE=1-Propene, 1,2,3-trichloro-
##JCAMP-DX=4.24
##DATA TYPE=INFRARED SPECTRUM
##ORIGIN=Sadtler Research Labs Under US-EPA Contract
##OWNER=NIST Standard Reference Data Program
##CAS REGISTRY NO=96-19-5
##MOLFORM=C 3 H 3 Cl 3
##XUNITS=1/CM
##YUNITS=ABSORBANCE
##XFACTOR=1.0
##YFACTOR=0.000059308
##DELTAX=4.0
##FIRSTX=450.0
##LASTX=3966.0
##FIRSTY=0.034576
##MAXX=3966
##MINX=450
##MAXY=0.59308
##MINY=0
##NPOINTS=880
##XYDATA=(X++(Y..Y))
450.0 583 530 374 510 142 84 158 173 338 433
490.0 560 638 600 503 559 438 437 309 186 71
530.0 60 145 73 109 278 524 998 1460 1678 1655
570.0 1423 868 374 230 143 197 122 128 104 157
610.0 147 191 263 399 570 875 1204 1481 1622 1623
650.0 1547 1415 1264 1305 1316 1451 1193 1114 792 733
690.0 959 1415 2006 2613 3256 3964 5120 6415 7443 7293
730.0 6670 5380 3984 3678 4224 4887 5354 5466 4975 4076
770.0 3257 2488 2132 2172 2496 2725 3247 3306 3689 4720
810.0 6068 8374 9674 9393 10000 9046 7325 4473 2978 2351
850.0 1852 1255 733 556 500 576 754 1125 1659 2201
890.0 2413 2379 2312 1564 808 570 665 1012 1588 2052
930.0 2473 2988 2980 2360 2041 1374 612 312 187 129
970.0 102 100 90 112 96 84 93 73 79 83
1010.0 80 82 82 107 120 149 169 234 330 490
1050.0 738 1105 1485 1711 1875 1855 1579 1247 1099 969
1090.0 944 1050 1207 1455 1681 1904 1952 1810 1641 1318
1130.0 829 496 299 196 167 167 195 240 272 275
1170.0 347 482 860 1326 1363 1458 1382 1029 562 383
1210.0 359 396 388 414 435 434 515 690 939 1167
1250.0 1705 2353 3298 4423 4917 4573 4381 3264 2283 2032
1290.0 2129 2007 1755 1428 831 336 112 36 3 8
1330.0 16 10 12 17 17 26 28 37 46 54
1370.0 54 69 71 60 86 64 75 60 64 49
1410.0 74 92 234 473 811 1390 1752 2071 2031 1403
1450.0 1064 567 262 94 43 10 6 30 27 35
1490.0 11 32 7 23 38 47 64 55 70 35
1530.0 31 18 12 21 22 50 61 126 165 240
1570.0 311 440 535 599 690 794 976 1360 1953 2654
1610.0 3243 3512 3490 2982 2260 1649 1331 1013 763 541
1650.0 409 330 277 223 160 136 148 149 178 170
1690.0 167 144 125 93 83 79 96 109 111 125
1730.0 136 165 149 163 176 202 227 250 266 279
1770.0 291 271 253 246 250 223 215 200 175 169
1810.0 160 138 134 128 107 97 86 85 73 67
1850.0 61 60 58 57 61 63 60 60 66 72
1890.0 67 69 57 69 75 70 71 76 78 75
1930.0 74 67 62 66 66 76 68 74 64 73
1970.0 69 75 73 78 71 80 76 69 69 57
2010.0 56 55 54 31 34 29 43 46 40 51
2050.0 54 58 56 38 47 60 73 88 111 131
2090.0 129 130 138 142 139 147 144 145 135 130
2130.0 129 126 115 120 118 119 115 105 106 106
2170.0 110 112 110 122 123 123 131 129 126 129
2210.0 127 131 138 138 133 124 125 131 130 130
2250.0 138 137 137 145 139 131 130 128 121 140
2290.0 139 131 136 139 148 169 180 172 187 173
2330.0 142 127 124 84 51 127 222 200 66 0
2370.0 3 3 3 6 42 91 104 113 114 116
2410.0 124 127 119 118 118 114 111 114 111 114
2450.0 107 106 101 108 106 107 111 116 113 106
2490.0 109 103 114 112 102 108 112 113 110 110
2530.0 111 116 103 106 109 106 101 99 92 86
2570.0 86 75 76 72 71 75 61 67 68 72
2610.0 80 99 86 90 98 102 103 114 118 107
2650.0 100 115 152 133 147 135 118 106 101 97
2690.0 110 121 129 133 136 120 112 101 93 87
2730.0 81 74 75 64 42 48 62 51 66 61
2770.0 49 60 41 34 51 50 44 57 51 48
2810.0 32 42 58 65 59 67 84 84 100 147
2850.0 186 239 248 252 226 184 145 93 112 94
2890.0 92 90 102 96 80 59 81 82 86 80
2930.0 73 113 107 152 229 376 597 783 994 1227
2970.0 1419 1326 1043 876 659 430 307 218 171 180
3010.0 181 182 179 152 148 118 103 74 76 86
3050.0 80 82 129 180 243 416 737 1034 1068 1178
3090.0 1300 1170 1041 1022 822 630 280 124 64 59
3130.0 40 25 31 29 50 18 45 26 34 47
3170.0 36 28 27 28 25 19 29 41 6 36
3210.0 37 32 41 37 25 50 34 73 20 12
3250.0 37 22 12 35 23 32 29 11 28 21
3290.0 38 41 51 38 42 35 47 50 45 34
3330.0 56 59 50 55 50 54 31 46 81 51
3370.0 46 35 65 76 55 53 50 66 68 94
3410.0 65 54 36 59 50 47 31 21 28 45
3450.0 34 72 48 32 46 62 53 54 62 51
3490.0 61 51 42 60 47 34 36 76 31 89
3530.0 43 82 70 89 105 60 60 70 67 86
3570.0 115 105 102 129 136 101 96 124 67 118
3610.0 99 105 88 103 88 96 72 56 54 65
3650.0 59 37 90 92 63 85 58 73 48 57
3690.0 109 97 98 75 92 84 71 71 96 89
3730.0 122 108 118 124 66 50 99 104 118 82
3770.0 114 60 106 119 124 119 152 146 110 83
3810.0 137 113 51 108 103 76 142 126 105 138
3850.0 157 75 87 111 100 134 86 81 96 128
3890.0 173 170 156 193 156 248 160 171 203 163
3930.0 181 221 187 176 202 194 152 129 131 122
##END=
