##TITLE=1-Butanol, 2-amino-
##JCAMP-DX=4.24
##DATA TYPE=INFRARED SPECTRUM
##ORIGIN=Sadtler Research Labs Under US-EPA Contract
##OWNER=NIST Standard Reference Data Program
##CAS REGISTRY NO=96-20-8
##MOLFORM=C 4 H 11 N O
##XUNITS=1/CM
##YUNITS=ABSORBANCE
##XFACTOR=1.0
##YFACTOR=0.000092480
##DELTAX=4.0
##FIRSTX=450.0
##LASTX=3966.0
##FIRSTY=0.134374
##MAXX=3966
##MINX=450
##MAXY=0.9248
##MINY=0
##NPOINTS=880
##XYDATA=(X++(Y..Y))
450.0 1453 1373 1554 1608 1627 1621 1631 1415 1330 1244
490.0 1069 886 733 724 752 766 737 757 769 701
530.0 576 576 469 480 414 452 359 256 267 267
570.0 339 227 258 237 224 263 192 290 236 222
610.0 252 327 407 427 485 467 436 500 542 542
650.0 555 541 502 491 509 504 555 555 569 567
690.0 601 659 652 700 756 769 821 902 1032 1123
730.0 1291 1491 1693 2025 2124 2463 2857 3150 3631 3813
770.0 4238 4479 4614 4671 4863 4637 4479 4119 3756 3577
810.0 3362 3177 2919 2819 2755 2586 2561 2436 2252 2107
850.0 2004 1827 1697 1497 1330 1233 1043 964 944 829
890.0 910 906 959 1060 1205 1164 1243 1189 1118 1044
930.0 915 815 773 792 897 972 1071 1111 1201 1319
970.0 1360 1450 1445 1536 1630 1692 1854 1893 2009 2178
1010.0 2315 2635 2977 3424 3984 4661 5357 5883 6616 7035
1050.0 7307 7796 7611 7478 6874 6250 5496 4571 3761 2828
1090.0 2089 1728 1445 1284 1211 1120 1110 1123 1169 1191
1130.0 1306 1349 1352 1359 1304 1305 1279 1270 1243 1274
1170.0 1280 1251 1233 1180 1068 1046 1026 902 931 880
1210.0 895 931 895 915 954 923 912 833 829 834
1250.0 821 800 807 800 834 788 790 796 794 857
1290.0 887 901 933 968 1012 1031 1048 1094 1178 1235
1330.0 1286 1372 1446 1491 1518 1544 1595 1622 1673 1745
1370.0 1806 1899 1952 2027 2128 2188 2249 2307 2272 2238
1410.0 2139 2003 1847 1621 1384 1182 1083 1063 1096 1230
1450.0 1447 1664 1928 2025 2078 2053 1972 1717 1470 1213
1490.0 999 795 673 558 545 497 494 519 539 498
1530.0 500 529 545 551 532 525 563 559 551 542
1570.0 564 574 639 658 716 812 900 1031 1199 1381
1610.0 1566 1664 1766 1809 1743 1654 1530 1337 1121 970
1650.0 780 657 482 373 326 278 210 169 142 140
1690.0 101 74 87 87 58 19 27 42 14 0
1730.0 10 41 16 22 12 29 25 23 25 10
1770.0 29 25 16 29 39 37 43 43 50 40
1810.0 54 54 62 63 70 71 70 70 71 87
1850.0 68 70 77 78 76 92 71 83 75 75
1890.0 73 76 78 82 80 88 78 86 76 82
1930.0 89 87 86 92 90 93 90 96 92 98
1970.0 101 102 108 111 111 119 122 116 125 125
2010.0 133 133 139 137 144 150 152 154 151 150
2050.0 168 168 162 172 180 186 182 189 186 197
2090.0 188 191 190 189 187 188 191 184 191 193
2130.0 189 186 186 184 181 180 183 177 177 176
2170.0 176 180 177 173 176 176 179 188 187 179
2210.0 180 182 185 183 180 188 187 187 186 186
2250.0 181 186 182 186 188 186 185 195 194 194
2290.0 194 200 204 214 215 220 218 220 235 228
2330.0 236 235 233 250 253 254 253 286 263 261
2370.0 249 254 248 249 241 233 231 234 233 234
2410.0 234 238 243 235 240 243 242 244 249 241
2450.0 237 242 247 241 251 241 246 241 244 247
2490.0 249 249 251 259 263 258 258 274 268 274
2530.0 276 274 280 284 290 292 291 302 312 318
2570.0 318 328 324 332 338 344 342 350 357 349
2610.0 361 365 373 377 382 393 406 414 414 427
2650.0 435 445 454 461 467 478 472 493 504 509
2690.0 522 525 541 556 566 583 602 623 640 667
2730.0 688 714 747 762 785 823 838 855 874 895
2770.0 926 952 996 1023 1082 1131 1201 1257 1335 1415
2810.0 1494 1567 1678 1819 1997 2242 2531 2875 3291 3722
2850.0 4167 4655 5151 5601 5929 6244 6548 6865 6941 6872
2890.0 6811 6597 6468 6307 6249 6466 6950 7567 8266 8892
2930.0 9427 9703 9773 9491 9182 8881 8615 8670 8963 9487
2970.0 10000 9575 8650 7632 6359 4820 3406 2366 1687 1254
3010.0 1004 832 736 669 619 593 567 556 535 536
3050.0 534 522 517 521 504 497 476 462 434 426
3090.0 406 395 395 379 356 361 350 341 332 328
3130.0 322 316 312 319 320 313 320 311 322 316
3170.0 322 311 304 305 300 279 275 260 266 258
3210.0 256 234 229 234 233 217 217 207 212 207
3250.0 212 207 198 196 189 215 183 193 194 188
3290.0 185 185 191 188 188 189 192 208 206 232
3330.0 253 254 271 275 272 266 248 224 226 204
3370.0 205 198 192 198 194 214 251 279 301 334
3410.0 358 377 382 374 364 332 305 277 261 236
3450.0 245 217 214 210 191 208 195 186 192 191
3490.0 191 175 185 196 208 213 240 256 280 352
3530.0 435 546 705 903 1124 1260 1340 1416 1460 1419
3570.0 1340 1198 1047 928 809 737 635 565 492 433
3610.0 414 386 358 342 347 375 385 407 470 532
3650.0 616 714 805 874 944 1006 1056 1043 976 891
3690.0 800 679 542 437 340 280 247 201 178 178
3730.0 162 149 140 125 133 124 104 91 91 80
3770.0 76 67 62 66 66 66 66 66 68 56
3810.0 57 51 72 77 60 69 64 73 70 68
3850.0 63 59 55 47 69 58 47 41 52 53
3890.0 47 40 43 51 51 44 49 33 34 39
3930.0 43 43 49 54 57 52 30 31 32 30
##END=
