##TITLE=2-Propanol, 1,3-dibromo-
##JCAMP-DX=4.24
##DATA TYPE=INFRARED SPECTRUM
##ORIGIN=Sadtler Research Labs Under US-EPA Contract
##OWNER=NIST Standard Reference Data Program
##CAS REGISTRY NO=96-21-9
##MOLFORM=C 3 H 6 Br 2 O
##XUNITS=1/CM
##YUNITS=ABSORBANCE
##XFACTOR=1.0
##YFACTOR=0.000083740
##DELTAX=4.0
##FIRSTX=450.0
##LASTX=3966.0
##FIRSTY=0.112714
##MAXX=3966
##MINX=450
##MAXY=0.8374
##MINY=0
##NPOINTS=880
##XYDATA=(X++(Y..Y))
450.0 1346 1319 1371 1431 1521 1746 2031 2345 2678 2959
490.0 3048 2880 2450 2343 2045 1796 1369 974 926 856
530.0 925 944 934 917 919 893 903 860 735 921
570.0 903 996 946 939 997 967 1010 1108 1229 1386
610.0 1512 1450 1266 1105 1260 1499 1676 1748 1785 1650
650.0 1572 1768 2350 3109 3639 3748 3481 3486 4513 5925
690.0 7165 6828 5530 4084 2421 1514 1187 904 628 416
730.0 270 177 143 129 123 122 123 156 128 90
770.0 61 46 16 0 14 59 134 307 550 905
810.0 1246 1385 1491 1257 985 767 582 532 577 719
850.0 875 936 869 657 468 304 158 99 87 69
890.0 73 100 122 169 232 324 468 714 1062 1351
930.0 1310 1186 787 391 229 194 209 247 291 349
970.0 418 524 625 726 841 997 1237 1633 2236 3111
1010.0 4310 5841 7552 9077 9989 10000 8927 7463 6001 5118
1050.0 4720 4523 4311 4087 3801 3597 3610 3977 4587 5215
1090.0 5442 5193 4494 3549 2896 2730 2952 3354 3500 3484
1130.0 3115 2567 2251 2045 1942 1839 1763 1709 1675 1735
1170.0 1942 2365 3033 3735 4255 4693 5063 5088 5147 5329
1210.0 5504 5875 6148 6694 6864 6525 5915 5150 4594 4412
1250.0 4473 4858 5536 6722 8001 8216 7346 5598 3640 2597
1290.0 1992 1605 1350 1190 1087 1042 1043 1056 1082 1163
1330.0 1309 1549 1932 2247 2474 2642 2668 2922 3385 3907
1370.0 4407 4731 4715 4493 3913 3166 2532 1846 1375 1186
1410.0 1258 1678 2577 4215 6006 6910 6925 5806 4324 3058
1450.0 1842 1125 638 407 346 340 269 207 235 265
1490.0 261 214 219 211 312 147 189 198 161 109
1530.0 123 157 193 110 91 143 174 211 4 87
1570.0 86 82 51 55 61 78 83 81 87 88
1610.0 93 112 95 76 77 69 95 37 54 88
1650.0 76 64 11 64 68 81 70 64 102 55
1690.0 71 82 96 51 41 43 86 61 41 64
1730.0 85 90 54 72 76 88 53 83 71 58
1770.0 80 49 48 58 51 58 46 37 35 26
1810.0 33 26 31 44 47 36 33 39 43 43
1850.0 36 34 41 42 48 48 32 56 55 61
1890.0 73 61 58 54 58 58 57 64 52 50
1930.0 51 50 56 65 49 56 55 57 49 43
1970.0 37 37 30 30 29 33 33 36 39 40
2010.0 40 46 52 45 56 63 63 70 83 83
2050.0 93 96 103 98 93 86 86 73 72 66
2090.0 60 49 53 57 54 71 71 69 71 69
2130.0 69 63 58 52 56 52 49 44 51 56
2170.0 59 73 66 67 60 59 54 47 46 47
2210.0 42 46 45 51 57 63 73 80 93 105
2250.0 97 93 96 94 93 103 110 115 107 103
2290.0 89 70 69 68 63 49 51 57 45 44
2330.0 37 31 23 30 17 41 70 80 38 37
2370.0 3 10 23 46 52 63 68 67 61 55
2410.0 54 54 49 45 49 59 61 65 75 75
2450.0 80 81 87 79 72 65 61 50 42 40
2490.0 34 24 23 22 21 29 20 26 21 20
2530.0 20 11 18 21 18 13 9 5 11 18
2570.0 11 18 25 24 31 17 22 23 26 31
2610.0 23 26 32 26 39 52 68 63 72 75
2650.0 74 89 99 106 113 124 113 119 114 112
2690.0 104 102 95 77 60 59 55 50 60 54
2730.0 55 55 66 77 75 73 67 56 59 45
2770.0 44 50 45 44 51 51 57 61 64 83
2810.0 73 81 85 102 116 151 202 276 339 381
2850.0 425 475 536 592 652 669 668 665 675 699
2890.0 754 836 962 1116 1301 1465 1536 1561 1512 1364
2930.0 1098 845 636 511 442 449 567 819 1323 1998
2970.0 2755 3298 3431 3158 2616 1860 1246 749 429 275
3010.0 241 280 363 442 542 591 565 452 319 204
3050.0 123 86 48 42 42 36 27 34 33 26
3090.0 33 37 31 30 24 18 11 16 26 17
3130.0 19 21 10 14 7 11 18 10 22 6
3170.0 4 12 3 13 14 5 8 21 27 30
3210.0 25 41 53 53 64 62 67 45 47 34
3250.0 44 30 42 46 53 58 81 82 83 98
3290.0 100 77 93 78 73 75 70 67 56 44
3330.0 50 51 56 44 71 55 50 40 52 50
3370.0 60 69 55 49 62 45 71 52 59 73
3410.0 78 101 110 119 134 137 152 160 146 139
3450.0 117 101 118 111 108 89 94 94 114 98
3490.0 109 110 116 107 131 125 118 149 172 266
3530.0 304 325 364 394 373 338 325 453 574 1008
3570.0 1870 3049 3761 4440 4078 3244 3431 4025 4346 4692
3610.0 4100 3548 3090 2547 2186 1889 1548 1304 1092 955
3650.0 872 700 608 530 483 466 394 338 270 220
3690.0 263 198 168 169 149 200 198 142 176 218
3730.0 189 243 255 223 244 264 196 177 155 159
3770.0 156 122 139 128 138 131 126 149 167 117
3810.0 115 116 160 159 139 120 170 214 204 174
3850.0 195 276 206 200 225 211 215 212 256 224
3890.0 234 230 246 271 252 194 206 222 233 228
3930.0 243 267 259 254 243 234 199 185 175 176
##END=
