##TITLE=2-Propanol, 1,3-dichloro-
##JCAMP-DX=4.24
##DATA TYPE=INFRARED SPECTRUM
##ORIGIN=Sadtler Research Labs Under US-EPA Contract
##OWNER=NIST Standard Reference Data Program
##CAS REGISTRY NO=96-23-1
##MOLFORM=C 3 H 6 Cl 2 O
##XUNITS=1/CM
##YUNITS=ABSORBANCE
##XFACTOR=1.0
##YFACTOR=0.000055557
##DELTAX=4.0
##FIRSTX=450.0
##LASTX=3966.0
##FIRSTY=0.022834
##MAXX=3966
##MINX=450
##MAXY=0.55557
##MINY=0
##NPOINTS=880
##XYDATA=(X++(Y..Y))
450.0 411 463 656 534 714 906 932 761 765 534
490.0 462 567 485 548 421 271 16 433 205 398
530.0 421 472 735 860 1379 1926 2153 2316 2531 2233
570.0 2061 1686 1375 1041 718 624 435 466 424 473
610.0 450 437 435 437 449 401 506 479 468 458
650.0 451 426 390 398 369 481 435 607 698 871
690.0 1143 1486 1896 2358 2812 3083 3097 2751 2282 1725
730.0 1640 2266 3295 3935 4713 5685 6293 7178 8554 9742
770.0 9959 10000 8710 6345 4391 3003 1858 1211 875 778
810.0 887 1076 1422 1768 2101 2423 2616 2581 2393 2169
850.0 1760 1370 1026 879 832 915 1210 1480 1584 1583
890.0 1533 1105 654 442 325 312 303 331 363 419
930.0 446 520 581 685 861 1108 1458 1778 1965 1927
970.0 1897 1674 1236 889 675 617 651 694 768 939
1010.0 1143 1427 1871 2505 3296 4202 4968 5538 6454 7212
1050.0 7684 7994 8043 8100 8069 7414 6762 6699 6726 6932
1090.0 6877 6288 5515 4725 3834 2919 2242 1791 1596 1546
1130.0 1705 2032 2490 2780 2768 2902 2833 2365 1972 1799
1170.0 1712 1688 1708 1775 1989 2350 2829 3292 3574 3651
1210.0 3686 3575 3397 3355 3538 3893 4076 4064 4115 4160
1250.0 4015 4008 4191 4338 4352 4423 4398 4167 4104 4389
1290.0 4664 4767 4827 4349 3581 2890 2113 1567 1238 1110
1330.0 1055 1076 1187 1376 1596 1881 2193 2480 2933 3253
1370.0 3735 4221 4558 4530 4390 3926 3287 2699 2075 1669
1410.0 1387 1323 1357 1869 2585 3727 4464 5210 5331 5332
1450.0 4476 3394 2657 1682 1052 662 488 407 323 288
1490.0 281 301 271 240 313 237 209 221 251 202
1530.0 181 193 175 232 128 197 119 239 212 134
1570.0 135 150 151 150 103 133 112 122 104 111
1610.0 109 88 161 67 123 41 140 91 94 83
1650.0 151 150 188 34 94 92 113 54 94 118
1690.0 77 62 126 143 97 68 74 124 87 59
1730.0 90 104 93 65 56 25 139 41 112 62
1770.0 122 78 74 67 89 57 100 44 40 84
1810.0 31 49 63 44 54 63 49 59 37 85
1850.0 56 58 66 56 56 68 72 62 76 63
1890.0 74 55 69 75 71 87 70 110 64 88
1930.0 80 83 84 72 80 76 87 78 73 71
1970.0 76 71 69 78 68 60 71 73 85 79
2010.0 80 73 83 84 84 81 79 78 78 78
2050.0 73 77 75 73 52 45 42 48 55 66
2090.0 82 100 115 122 141 142 154 155 159 144
2130.0 119 114 110 102 105 98 98 99 97 87
2170.0 85 82 78 75 73 74 65 69 67 73
2210.0 72 70 59 66 62 71 67 69 77 75
2250.0 84 85 96 102 110 104 105 100 83 65
2290.0 54 46 25 34 16 9 46 51 70 102
2330.0 105 105 118 100 78 49 66 82 84 65
2370.0 80 68 60 46 50 74 102 99 104 102
2410.0 107 103 104 91 88 87 93 91 96 99
2450.0 92 105 101 107 106 118 111 108 112 117
2490.0 119 104 102 101 104 103 98 95 84 76
2530.0 59 73 58 53 58 54 57 61 69 54
2570.0 60 64 66 61 75 78 78 81 79 88
2610.0 72 78 83 84 88 85 91 83 79 103
2650.0 104 105 110 112 119 106 100 110 112 135
2690.0 145 150 165 169 173 159 163 161 181 168
2730.0 161 157 153 139 125 121 112 119 117 118
2770.0 121 111 112 113 105 93 96 97 116 106
2810.0 127 118 130 141 139 154 161 196 230 321
2850.0 409 530 630 732 815 906 1018 1068 1083 1121
2890.0 1178 1233 1339 1476 1637 1775 1859 1825 1775 1722
2930.0 1583 1477 1302 1177 1227 1444 1980 2706 3548 4356
2970.0 4760 4817 4447 3796 2654 1937 1354 993 822 861
3010.0 1033 1185 1267 1203 1076 841 550 333 221 144
3050.0 114 89 103 99 80 76 72 81 66 71
3090.0 50 71 56 64 58 57 55 52 60 54
3130.0 54 53 57 41 55 58 60 33 24 28
3170.0 58 47 17 40 56 41 61 52 46 39
3210.0 72 37 53 44 56 87 72 101 100 93
3250.0 84 108 106 55 61 57 77 80 83 81
3290.0 119 108 137 143 136 134 125 113 125 102
3330.0 76 102 83 81 76 82 105 123 132 127
3370.0 115 98 126 106 104 106 121 156 146 99
3410.0 123 138 120 95 124 139 127 81 99 99
3450.0 115 76 50 61 44 73 85 81 56 41
3490.0 83 74 60 42 30 65 135 97 169 113
3530.0 212 210 216 200 148 151 118 127 165 161
3570.0 280 425 824 1683 2591 3039 3551 3807 3687 3566
3610.0 4090 4560 4977 5272 4838 3893 2971 2389 1895 1509
3650.0 1220 937 783 554 495 350 337 223 178 65
3690.0 132 97 118 125 114 82 83 74 49 75
3730.0 67 47 90 46 201 47 124 51 39 49
3770.0 64 114 0 41 24 66 43 73 41 100
3810.0 8 20 10 30 32 2 65 105 28 20
3850.0 87 109 78 78 53 50 55 92 36 156
3890.0 66 103 98 131 34 132 144 155 40 96
3930.0 118 107 163 74 98 124 152 165 180 71
##END=
