##TITLE=1,2-Propanediol, 3-chloro-
##JCAMP-DX=4.24
##DATA TYPE=INFRARED SPECTRUM
##ORIGIN=Sadtler Research Labs Under US-EPA Contract
##OWNER=NIST Standard Reference Data Program
##CAS REGISTRY NO=96-24-2
##MOLFORM=C 3 H 7 Cl O 2
##XUNITS=1/CM
##YUNITS=ABSORBANCE
##XFACTOR=1.0
##YFACTOR=0.000070166
##DELTAX=4.0
##FIRSTX=450.0
##LASTX=3966.0
##FIRSTY=0.098864
##MAXX=3966
##MINX=450
##MAXY=0.70166
##MINY=0
##NPOINTS=880
##XYDATA=(X++(Y..Y))
450.0 1409 1477 1415 1201 1116 1132 1337 1105 983 649
490.0 726 609 876 757 1024 872 857 623 733 839
530.0 998 772 802 506 534 194 412 331 734 585
570.0 410 411 333 599 655 806 627 1052 953 1081
610.0 903 1094 1291 1553 1550 1583 1352 1282 681 617
650.0 309 722 471 481 208 110 227 305 383 547
690.0 635 671 608 742 810 1061 859 846 726 738
730.0 948 1137 1648 2000 2553 2866 3172 3239 3210 3097
770.0 2773 2427 2071 1401 962 510 515 466 814 764
810.0 925 932 1034 1007 1033 1061 1260 1284 1265 990
850.0 908 826 938 827 881 918 927 915 961 1109
890.0 1329 1538 1514 1612 1685 1675 1575 1518 1502 1505
930.0 1446 1429 1352 1446 1405 1348 1210 1198 1134 1065
970.0 938 932 1019 1170 1360 1539 1791 2125 2408 2833
1010.0 3358 4053 4790 5589 6116 6710 7419 8039 8642 9075
1050.0 9484 9943 9944 10000 9835 9496 9040 8290 7641 7236
1090.0 6840 6475 6044 5511 5020 4419 3892 3323 2790 2417
1130.0 2124 1965 1944 1982 2054 2074 2209 2337 2573 2703
1170.0 2801 2751 2762 2614 2539 2495 2513 2509 2444 2332
1210.0 2308 2266 2386 2437 2574 2638 2777 2831 2941 3104
1250.0 3356 3602 3854 3986 3958 3823 3622 3302 2958 2696
1290.0 2541 2389 2216 2067 1920 1866 1743 1815 1804 1915
1330.0 1900 1974 2058 2222 2329 2408 2435 2539 2571 2732
1370.0 2859 3175 3312 3470 3363 3238 3055 2847 2606 2341
1410.0 2074 1873 1679 1550 1607 1791 1860 1895 1886 1908
1450.0 1758 1564 1359 1221 1180 1102 1028 794 654 512
1490.0 414 318 301 278 311 167 182 103 177 158
1530.0 221 138 181 50 79 96 127 116 62 90
1570.0 51 70 57 77 74 70 88 96 75 66
1610.0 46 123 44 98 54 124 87 27 22 80
1650.0 87 58 35 73 38 50 14 64 68 82
1690.0 70 90 13 37 130 178 206 165 200 247
1730.0 260 275 320 393 464 492 515 530 512 410
1770.0 360 229 269 176 150 98 98 102 97 82
1810.0 106 86 79 28 52 60 107 73 78 27
1850.0 61 63 70 99 109 104 54 49 64 92
1890.0 100 81 79 74 81 74 44 80 88 114
1930.0 70 92 98 118 87 100 108 126 116 98
1970.0 83 99 89 108 88 110 87 76 44 48
2010.0 75 103 104 60 66 60 70 79 78 103
2050.0 111 102 69 72 116 142 142 121 150 142
2090.0 153 127 135 159 170 165 138 140 138 120
2130.0 104 97 126 106 94 56 52 69 85 82
2170.0 86 101 82 66 43 72 116 104 103 61
2210.0 79 80 85 78 95 108 91 56 41 61
2250.0 86 78 78 69 103 81 71 60 71 107
2290.0 95 102 80 113 88 91 93 154 192 162
2330.0 94 42 35 59 8 206 260 276 28 1
2370.0 0 66 89 101 95 97 86 79 76 82
2410.0 101 112 73 78 78 104 124 93 116 94
2450.0 133 78 93 58 119 103 114 94 91 76
2490.0 61 38 82 85 125 54 60 26 92 80
2530.0 98 86 98 84 47 57 73 125 113 81
2570.0 68 71 89 76 64 98 86 105 42 86
2610.0 50 103 64 93 83 123 107 89 60 122
2650.0 118 166 125 158 130 158 121 167 210 238
2690.0 215 173 182 201 238 224 239 240 235 206
2730.0 207 223 275 267 290 237 288 267 306 261
2770.0 331 322 362 320 328 327 371 362 388 398
2810.0 440 417 418 368 437 484 546 582 614 694
2850.0 753 874 1007 1260 1491 1768 2067 2476 2902 3312
2890.0 3611 3833 3871 3671 3351 3191 2978 2989 2968 3125
2930.0 3254 3491 3711 3914 4064 4265 4438 4579 4523 4394
2970.0 4045 3619 3066 2474 1912 1511 1232 963 829 776
3010.0 807 791 748 656 573 458 343 272 258 246
3050.0 233 147 123 97 154 131 147 118 137 127
3090.0 93 82 101 146 128 115 127 128 132 89
3130.0 103 89 156 141 113 105 93 129 86 115
3170.0 141 140 126 44 52 68 138 132 106 102
3210.0 103 93 71 101 158 186 144 93 129 136
3250.0 180 147 173 182 179 172 113 166 162 216
3290.0 148 182 175 194 154 110 139 208 202 191
3330.0 132 182 151 210 175 257 256 267 194 150
3370.0 200 262 279 255 222 209 200 196 199 245
3410.0 271 249 202 177 243 225 261 206 297 263
3450.0 303 232 256 252 317 301 313 313 371 291
3490.0 311 261 398 377 418 347 358 368 377 370
3530.0 384 449 456 404 338 350 417 475 500 514
3570.0 515 655 724 938 1141 1484 1728 2032 2360 2845
3610.0 3347 3854 4236 4597 4840 4704 4271 3884 3339 2913
3650.0 2448 2231 2083 2077 2044 1970 1945 1900 1955 1792
3690.0 1560 1287 1098 875 744 619 561 572 518 392
3730.0 397 347 415 400 366 293 319 293 285 256
3770.0 282 264 262 214 209 210 237 182 173 197
3810.0 245 243 141 156 164 228 201 221 201 259
3850.0 169 113 124 231 253 241 169 173 128 137
3890.0 109 152 175 208 136 127 135 215 269 269
3930.0 276 284 326 311 298 344 63 86 88 89
##END=
