##TITLE=Cyclopentane, methyl-
##JCAMP-DX=4.24
##DATA TYPE=INFRARED SPECTRUM
##ORIGIN=Sadtler Research Labs Under US-EPA Contract
##OWNER=NIST Standard Reference Data Program
##CAS REGISTRY NO=96-37-7
##MOLFORM=C 6 H 12
##XUNITS=1/CM
##YUNITS=ABSORBANCE
##XFACTOR=1.0
##YFACTOR=0.000051700
##DELTAX=4.0
##FIRSTX=450.0
##LASTX=3966.0
##FIRSTY=0.002585
##MAXX=3966
##MINX=450
##MAXY=0.517
##MINY=0
##NPOINTS=880
##XYDATA=(X++(Y..Y))
450.0 50 24 16 14 7 7 6 5 11 13
490.0 29 6 16 17 17 27 27 45 31 21
530.0 27 26 39 20 29 29 29 2 10 29
570.0 28 26 23 29 29 29 29 24 9 32
610.0 20 30 31 30 31 20 31 31 33 28
650.0 26 23 23 32 23 27 32 34 22 22
690.0 34 32 32 31 31 20 31 31 31 29
730.0 28 30 27 31 30 30 30 30 30 30
770.0 29 29 30 30 30 30 21 28 35 33
810.0 28 28 29 37 38 19 28 37 36 30
850.0 37 41 46 46 62 57 55 74 74 75
890.0 83 83 83 80 70 65 66 55 44 45
930.0 45 35 35 35 35 43 57 66 76 86
970.0 89 101 100 100 110 100 80 70 60 51
1010.0 43 44 38 32 32 32 25 34 23 22
1050.0 23 23 23 23 23 22 22 22 22 22
1090.0 22 22 22 21 31 32 33 40 40 50
1130.0 50 50 50 50 50 50 40 39 40 29
1170.0 29 30 30 34 39 39 39 39 38 38
1210.0 39 39 47 47 47 47 47 47 47 47
1250.0 47 47 47 47 47 47 47 55 55 55
1290.0 55 55 55 55 55 55 55 55 56 65
1330.0 83 95 115 124 134 139 138 148 165 175
1370.0 185 185 248 281 214 222 210 161 118 101
1410.0 90 91 97 109 128 165 215 284 354 444
1450.0 507 543 523 548 621 580 481 411 362 303
1490.0 253 206 163 122 103 71 58 52 41 32
1530.0 31 30 21 28 19 14 21 24 14 12
1570.0 12 11 11 11 13 12 12 11 11 11
1610.0 11 15 21 10 9 11 18 20 10 20
1650.0 19 17 9 12 18 18 18 18 18 19
1690.0 17 18 18 17 9 10 10 17 7 8
1730.0 8 15 8 8 7 8 8 8 8 8
1770.0 6 6 8 7 7 7 7 7 7 6
1810.0 7 7 7 5 5 5 5 6 6 6
1850.0 6 6 6 5 6 5 5 5 5 5
1890.0 5 5 4 4 5 5 4 5 3 4
1930.0 4 3 3 3 3 4 4 4 4 3
1970.0 4 3 3 3 3 3 3 3 3 2
2010.0 4 2 2 3 2 2 3 1 1 1
2050.0 3 1 1 1 2 2 2 1 1 1
2090.0 3 0 1 1 1 6 3 1 1 9
2130.0 1 1 8 8 9 9 9 10 7 19
2170.0 19 19 19 19 18 17 9 9 9 9
2210.0 8 8 8 8 8 8 8 8 7 7
2250.0 7 7 6 6 8 8 8 7 7 7
2290.0 9 11 21 22 23 25 13 14 22 17
2330.0 6 13 8 7 8 7 17 12 10 2
2370.0 7 2 2 1 7 5 3 3 3 3
2410.0 3 3 3 10 2 15 7 14 9 12
2450.0 12 12 13 12 12 10 13 12 13 6
2490.0 12 1 1 1 2 2 1 12 11 11
2530.0 11 11 11 11 11 11 12 12 12 20
2570.0 21 20 31 31 31 31 31 31 31 31
2610.0 31 39 31 40 30 40 31 31 31 31
2650.0 31 31 31 22 22 22 21 30 32 32
2690.0 32 32 32 32 32 37 40 40 51 60
2730.0 61 69 80 71 76 70 66 62 56 60
2770.0 60 60 70 79 79 90 99 109 117 137
2810.0 161 183 207 243 283 312 360 428 516 656
2850.0 850 1122 1490 1935 2428 2852 3130 3398 3548 3380
2890.0 3232 3038 2812 2687 2723 2848 3059 3331 3631 3939
2930.0 4333 4836 5641 6419 7136 7776 8260 8858 10000 8765
2970.0 7353 6352 5262 4115 2999 2083 1425 1005 730 566
3010.0 450 364 299 242 205 170 145 132 112 102
3050.0 101 92 82 73 73 63 63 63 59 54
3090.0 54 54 44 44 44 45 45 45 45 44
3130.0 44 56 44 44 45 45 55 46 55 55
3170.0 55 55 55 55 55 45 46 46 36 37
3210.0 27 27 17 17 16 8 8 8 7 14
3250.0 9 7 18 18 8 9 17 9 9 8
3290.0 8 5 1 9 8 2 9 8 1 10
3330.0 1 1 9 10 8 9 9 9 4 1
3370.0 18 10 9 9 10 9 2 2 5 1
3410.0 11 1 2 4 2 10 1 9 10 12
3450.0 8 11 10 9 14 15 18 19 10 19
3490.0 19 19 12 21 14 21 20 20 21 8
3530.0 9 21 19 11 1 10 22 20 23 26
3570.0 16 19 13 21 17 28 21 18 21 19
3610.0 26 27 17 19 19 30 15 20 22 20
3650.0 34 18 19 30 30 39 29 34 25 30
3690.0 27 29 30 39 38 38 33 39 35 33
3730.0 36 37 35 38 51 35 41 40 31 40
3770.0 40 40 40 28 33 28 33 45 53 45
3810.0 54 44 49 49 41 43 48 47 46 49
3850.0 47 52 47 46 43 43 44 45 41 43
3890.0 40 53 50 55 46 51 39 39 38 38
3930.0 46 45 47 44 43 53 54 53 52 52
##END=
