##TITLE=2-Propenoic acid, methyl ester
##JCAMP-DX=4.24
##DATA TYPE=INFRARED SPECTRUM
##ORIGIN=Sadtler Research Labs Under US-EPA Contract
##OWNER=NIST Standard Reference Data Program
##CAS REGISTRY NO=96-33-3
##MOLFORM=C 4 H 6 O 2
##XUNITS=1/CM
##YUNITS=ABSORBANCE
##XFACTOR=1.0
##YFACTOR=0.000077295
##DELTAX=4.0
##FIRSTX=450.0
##LASTX=3966.0
##FIRSTY=0.001314
##MAXX=3966
##MINX=450
##MAXY=0.77295
##MINY=0
##NPOINTS=880
##XYDATA=(X++(Y..Y))
450.0 17 45 52 50 12 64 85 101 131 125
490.0 148 86 133 76 143 124 132 165 155 166
530.0 149 173 165 147 154 157 132 124 157 136
570.0 115 146 122 186 216 245 167 212 198 251
610.0 224 237 236 276 256 237 267 256 310 312
650.0 353 409 360 392 278 485 333 278 253 271
690.0 281 262 266 216 250 237 244 215 227 220
730.0 208 231 211 228 216 240 243 225 273 237
770.0 276 274 354 368 474 509 622 711 833 1009
810.0 1153 1144 990 1010 1031 1071 1084 1000 979 884
850.0 810 703 698 629 526 431 374 354 317 338
890.0 297 316 299 278 285 277 269 272 266 300
930.0 336 389 490 576 671 818 942 1180 1576 1638
970.0 1531 1468 1524 1657 1882 1818 1581 1464 1451 1332
1010.0 1203 1093 1017 874 597 468 405 451 492 624
1050.0 802 1066 1448 1841 2188 2300 2306 2390 2197 1986
1090.0 1515 979 622 469 407 382 372 384 395 385
1130.0 427 425 481 528 576 645 803 1043 1465 2133
1170.0 3126 4230 5348 6194 7519 8393 10000 9859 8943 8063
1210.0 7447 6487 5565 3946 2697 2102 1828 1772 1742 1855
1250.0 2060 2470 3092 3798 4332 4812 4976 5139 4964 4589
1290.0 3802 3004 2491 2142 1843 1671 1528 1370 1070 788
1330.0 590 500 434 408 400 383 394 376 388 386
1370.0 386 407 422 522 730 1202 1850 2290 2176 2328
1410.0 2251 2417 2089 1542 1367 1512 1815 1936 1991 2086
1450.0 2182 1792 1176 808 629 559 563 535 507 461
1490.0 433 391 388 348 362 327 311 326 314 316
1530.0 288 287 281 292 279 273 279 274 283 268
1570.0 264 267 274 282 282 302 309 357 371 426
1610.0 457 522 593 660 753 817 835 825 816 763
1650.0 699 570 407 343 307 323 300 305 304 318
1690.0 313 331 377 420 487 580 746 1025 1427 1959
1730.0 2742 3837 5385 6978 7917 7078 6203 7213 8370 6936
1770.0 4963 3380 2374 1601 1074 698 466 332 258 224
1810.0 196 190 176 176 174 169 168 176 186 176
1850.0 180 167 166 165 160 164 153 164 150 162
1890.0 157 168 169 181 194 213 227 248 260 273
1930.0 267 276 250 249 223 204 174 185 164 163
1970.0 144 145 142 144 146 144 155 157 166 175
2010.0 171 185 180 191 197 206 216 226 242 239
2050.0 243 223 218 196 195 169 161 142 135 133
2090.0 134 140 145 142 142 137 141 125 131 112
2130.0 116 102 110 102 103 101 104 104 101 100
2170.0 100 100 92 92 92 91 92 89 93 90
2210.0 93 94 87 91 80 89 82 87 81 94
2250.0 86 88 91 85 92 92 91 86 84 85
2290.0 83 90 89 96 88 97 91 99 101 93
2330.0 98 93 117 84 112 91 125 134 136 132
2370.0 123 107 98 87 86 82 87 80 87 80
2410.0 86 80 81 75 74 71 68 67 60 64
2450.0 63 62 62 61 67 60 67 64 67 55
2490.0 64 61 56 59 51 64 51 63 49 63
2530.0 55 56 54 54 57 54 54 53 53 52
2570.0 44 58 45 65 56 64 59 67 64 62
2610.0 62 61 61 55 53 48 45 45 47 44
2650.0 45 49 47 49 45 41 50 43 49 36
2690.0 49 37 41 37 44 41 39 40 33 32
2730.0 31 25 30 30 29 21 32 25 26 24
2770.0 31 24 26 21 13 27 22 31 22 27
2810.0 33 40 48 59 81 100 123 144 179 211
2850.0 241 253 236 241 227 241 193 185 150 160
2890.0 163 177 205 226 266 301 329 334 322 339
2930.0 334 355 375 476 640 961 1251 1321 1326 1312
2970.0 1318 1281 993 698 579 548 579 599 713 672
3010.0 640 614 609 609 610 568 586 576 565 489
3050.0 438 378 344 281 233 209 195 202 193 202
3090.0 197 208 222 250 272 239 235 217 231 204
3130.0 148 103 84 81 61 69 47 67 40 62
3170.0 47 50 49 31 38 44 50 45 35 41
3210.0 32 40 21 34 21 30 25 38 28 28
3250.0 42 16 32 21 32 21 27 28 27 29
3290.0 22 32 23 28 29 29 33 17 45 19
3330.0 33 12 33 27 28 36 32 35 36 32
3370.0 44 42 37 31 44 24 48 26 45 31
3410.0 31 31 29 33 28 38 24 37 32 39
3450.0 32 34 52 58 65 73 74 96 95 110
3490.0 97 117 97 110 63 71 38 32 24 23
3530.0 21 21 24 18 31 30 26 28 28 35
3570.0 17 38 32 32 30 45 42 35 49 36
3610.0 57 31 53 41 44 50 43 54 48 47
3650.0 61 55 49 50 69 57 76 57 66 66
3690.0 84 75 78 87 80 106 88 94 98 104
3730.0 98 96 101 106 125 120 124 118 126 132
3770.0 122 124 112 129 113 133 134 151 150 155
3810.0 158 157 159 145 153 151 140 149 137 144
3850.0 136 148 138 161 164 164 163 152 156 136
3890.0 136 123 127 127 135 140 150 155 157 157
3930.0 150 138 151 138 149 152 0 11 11 11
##END=
