##TITLE=Acetic acid, chloro-, methyl ester
##JCAMP-DX=4.24
##DATA TYPE=INFRARED SPECTRUM
##ORIGIN=Sadtler Research Labs Under US-EPA Contract
##OWNER=NIST Standard Reference Data Program
##CAS REGISTRY NO=96-34-4
##MOLFORM=C 3 H 5 Cl O 2
##XUNITS=1/CM
##YUNITS=ABSORBANCE
##XFACTOR=1.0
##YFACTOR=0.000065674
##DELTAX=4.0
##FIRSTX=450.0
##LASTX=3966.0
##FIRSTY=0.001182
##MAXX=3966
##MINX=450
##MAXY=0.65674
##MINY=0
##NPOINTS=880
##XYDATA=(X++(Y..Y))
450.0 18 8 7 2 18 23 55 55 57 44
490.0 47 72 72 64 103 98 79 94 118 54
530.0 98 81 121 165 176 201 133 257 340 416
570.0 457 531 542 580 610 526 470 461 481 402
610.0 323 312 288 285 292 236 263 221 276 217
650.0 251 236 297 309 339 438 482 512 645 767
690.0 909 962 1031 979 974 919 838 818 712 705
730.0 689 646 600 612 594 590 597 626 686 705
770.0 778 888 1027 1152 1295 1415 1507 1552 1497 1263
810.0 1175 935 669 561 524 515 499 468 494 488
850.0 519 530 482 551 555 555 538 512 489 465
890.0 424 401 358 330 310 295 305 319 338 328
930.0 341 364 319 280 309 285 286 258 259 272
970.0 275 295 324 379 480 621 830 1179 1686 2228
1010.0 2803 3287 3544 3548 3253 2802 2142 1280 755 569
1050.0 474 420 391 367 346 324 317 307 321 349
1090.0 383 454 522 631 780 978 1236 1569 1981 2411
1130.0 2780 3072 3257 3331 3421 3593 4049 4763 5719 6594
1170.0 6864 7034 6905 6164 5056 4263 3770 3468 3268 3067
1210.0 2764 2549 2448 2394 2459 2570 2746 3054 3445 4008
1250.0 4604 5151 5413 5415 5325 5350 5187 5245 5636 6232
1290.0 6866 7300 7467 7418 7019 6287 5313 4373 3410 2475
1330.0 1827 1437 1183 976 826 709 623 557 512 463
1370.0 422 405 382 374 376 369 387 406 450 511
1410.0 593 739 895 1052 1297 1690 2161 2441 2505 2502
1450.0 2456 1815 1277 983 851 765 721 635 564 502
1490.0 462 420 405 361 371 334 304 299 307 290
1530.0 281 281 296 324 309 313 322 348 336 309
1570.0 302 278 275 249 232 231 225 215 215 200
1610.0 201 190 205 191 186 169 181 192 175 183
1650.0 175 225 184 185 180 193 198 206 225 263
1690.0 253 281 328 382 407 462 542 667 780 976
1730.0 1256 1681 2257 3061 4096 5302 6653 7800 8493 8966
1770.0 9631 10000 9333 8419 7435 6236 5246 4787 4097 3097
1810.0 2231 1583 1109 764 538 384 298 253 222 209
1850.0 197 189 189 189 182 188 178 182 180 166
1890.0 160 148 139 126 118 109 109 101 108 100
1930.0 99 105 107 106 105 113 121 121 127 127
1970.0 135 142 148 151 155 162 168 171 171 175
2010.0 177 178 184 191 191 199 198 206 205 197
2050.0 185 169 161 149 143 150 150 141 134 139
2090.0 133 133 127 124 125 123 124 124 121 115
2130.0 115 122 122 114 112 113 118 113 112 107
2170.0 105 104 103 96 95 87 87 80 71 62
2210.0 59 61 61 54 51 55 55 54 53 53
2250.0 54 51 44 53 48 43 52 50 50 58
2290.0 58 65 65 65 56 62 56 52 47 50
2330.0 56 46 53 51 47 61 44 38 38 39
2370.0 37 44 43 47 49 42 42 42 42 41
2410.0 41 48 40 46 49 46 46 40 46 45
2450.0 53 52 44 44 43 43 44 43 39 43
2490.0 43 34 34 42 42 40 47 41 40 40
2530.0 39 39 44 39 39 38 43 38 37 45
2570.0 44 29 35 35 35 44 37 42 32 42
2610.0 41 41 32 32 32 24 33 25 28 22
2650.0 31 31 29 29 29 29 28 28 27 35
2690.0 30 29 25 31 27 23 26 16 19 24
2730.0 17 17 16 15 14 2 15 21 12 16
2770.0 13 15 16 16 23 16 23 31 27 41
2810.0 34 42 54 53 74 82 105 151 223 309
2850.0 352 366 384 380 333 247 177 147 147 158
2890.0 175 191 230 277 316 347 365 365 351 349
2930.0 355 363 396 472 627 950 1466 2014 2225 2298
2970.0 2228 2165 1664 1152 870 748 707 689 697 745
3010.0 787 744 710 688 675 660 615 563 512 474
3050.0 414 351 304 250 214 190 172 161 148 134
3090.0 134 132 127 123 118 103 102 93 80 74
3130.0 65 67 58 49 55 36 35 36 28 36
3170.0 27 26 19 15 20 16 21 21 20 20
3210.0 22 20 13 6 6 12 6 6 6 6
3250.0 6 6 6 6 6 6 7 7 7 7
3290.0 6 6 6 6 6 6 6 6 6 6
3330.0 6 14 7 7 7 7 7 8 8 8
3370.0 8 14 8 7 7 7 7 6 3 7
3410.0 7 7 7 8 8 8 15 8 8 16
3450.0 8 9 11 15 15 15 14 38 32 39
3490.0 47 54 62 71 75 90 88 96 90 87
3530.0 86 77 60 54 61 62 64 58 61 61
3570.0 75 83 77 73 55 56 48 33 17 9
3610.0 17 19 11 20 9 27 12 11 10 17
3650.0 34 11 18 10 16 22 20 26 13 19
3690.0 19 10 11 19 12 27 26 20 26 26
3730.0 23 22 20 36 29 33 28 19 11 19
3770.0 26 20 20 21 32 28 18 29 25 27
3810.0 27 27 35 35 35 21 21 31 26 28
3850.0 32 43 29 27 21 28 28 27 20 29
3890.0 29 19 15 24 30 26 29 36 36 36
3930.0 28 21 22 13 14 15 0 1 1 1
##END=
