##TITLE=Acetic acid, bromo-, methyl ester
##JCAMP-DX=4.24
##DATA TYPE=INFRARED SPECTRUM
##ORIGIN=Sadtler Research Labs Under US-EPA Contract
##OWNER=NIST Standard Reference Data Program
##CAS REGISTRY NO=96-32-2
##MOLFORM=C 3 H 5 Br O 2
##XUNITS=1/CM
##YUNITS=ABSORBANCE
##XFACTOR=1.0
##YFACTOR=0.000071875
##DELTAX=4.0
##FIRSTX=450.0
##LASTX=3966.0
##FIRSTY=0.005175
##MAXX=3966
##MINX=450
##MAXY=0.71875
##MINY=0
##NPOINTS=880
##XYDATA=(X++(Y..Y))
450.0 72 133 126 100 83 5 17 95 161 119
490.0 89 68 144 119 158 233 105 101 197 280
530.0 309 400 457 548 502 560 551 571 475 316
570.0 331 417 399 408 374 345 330 370 403 300
610.0 451 400 375 498 507 421 330 393 326 324
650.0 390 404 539 759 900 1033 1032 1044 979 892
690.0 822 739 686 529 540 600 511 455 442 458
730.0 515 359 296 486 350 352 294 301 220 232
770.0 205 215 290 307 298 260 248 285 304 329
810.0 294 321 339 377 396 389 424 454 487 472
850.0 467 426 392 415 403 389 432 457 458 499
890.0 497 478 463 431 410 389 345 337 294 267
930.0 236 220 205 191 196 176 195 203 215 223
970.0 242 242 282 345 401 485 653 864 1148 1488
1010.0 1850 2129 2240 2134 1838 1369 859 580 491 461
1050.0 445 418 441 461 502 543 608 709 834 1004
1090.0 1192 1476 1779 2168 2610 3021 3302 3371 3390 3279
1130.0 2868 2590 2503 2631 2917 3210 3462 3484 3388 3173
1170.0 2730 2339 2128 2025 1998 1974 1999 2080 2206 2401
1210.0 2593 2662 2595 2379 2122 1798 1567 1490 1558 1724
1250.0 1962 2342 2881 3701 4927 6577 8351 9718 10000 9556
1290.0 8350 6386 4557 3458 2787 2303 1935 1627 1349 1115
1330.0 946 809 705 635 594 550 514 479 441 410
1370.0 383 346 333 317 312 313 331 353 414 484
1410.0 592 710 810 914 1026 1227 1631 1933 2045 2064
1450.0 1904 1274 858 731 633 576 497 466 409 368
1490.0 322 316 268 257 221 215 233 210 179 204
1530.0 225 212 224 183 211 239 222 204 196 230
1570.0 223 218 205 207 207 198 176 170 177 159
1610.0 157 151 120 143 131 135 119 129 144 115
1650.0 131 101 153 155 170 162 170 194 223 198
1690.0 241 249 247 262 325 392 450 524 681 854
1730.0 1096 1421 1940 2626 3464 4471 5616 6684 7511 7907
1770.0 8213 8097 7099 5828 4753 3845 3229 2660 1995 1470
1810.0 1078 817 601 448 328 267 230 189 161 145
1850.0 141 147 134 139 132 124 133 123 113 110
1890.0 101 102 102 100 99 92 93 91 99 96
1930.0 98 107 113 117 120 121 129 123 133 121
1970.0 113 120 113 109 113 107 105 113 114 115
2010.0 129 126 135 141 135 147 146 139 125 123
2050.0 100 96 99 99 88 88 87 87 79 80
2090.0 78 88 91 95 103 100 110 110 118 110
2130.0 108 101 93 87 86 86 75 78 73 74
2170.0 70 63 60 55 47 46 52 45 44 30
2210.0 30 27 23 22 23 29 28 28 27 19
2250.0 19 18 26 25 24 36 34 36 36 43
2290.0 35 41 34 26 33 19 11 5 5 5
2330.0 5 5 5 5 5 5 5 5 5 5
2370.0 5 5 9 16 21 26 21 35 34 27
2410.0 21 35 27 38 34 39 36 36 35 35
2450.0 30 36 29 29 29 22 30 32 29 30
2490.0 30 31 31 23 17 24 24 24 18 18
2530.0 22 25 24 32 32 29 26 33 26 33
2570.0 32 26 26 19 27 30 25 40 25 26
2610.0 36 34 40 34 35 35 28 34 35 31
2650.0 38 32 29 30 36 29 36 28 30 28
2690.0 36 22 22 22 22 31 27 24 23 38
2730.0 24 24 25 24 24 24 25 25 29 32
2770.0 23 32 31 39 40 32 39 37 40 47
2810.0 47 49 56 66 81 88 94 136 188 239
2850.0 282 306 302 285 216 162 163 132 130 139
2890.0 159 173 201 224 250 279 279 280 260 271
2930.0 275 285 308 350 435 586 900 1379 1618 1624
2970.0 1634 1442 983 712 623 596 590 594 589 582
3010.0 587 554 514 493 475 470 446 410 367 352
3050.0 305 261 224 182 157 148 141 131 136 127
3090.0 126 108 113 98 104 91 97 97 74 76
3130.0 62 53 54 48 53 45 44 44 51 44
3170.0 38 43 43 38 32 37 36 44 43 53
3210.0 45 38 31 38 40 30 37 37 42 32
3250.0 33 31 35 33 32 33 41 40 26 29
3290.0 40 38 32 14 29 42 30 27 42 35
3330.0 41 35 38 36 39 45 30 44 41 27
3370.0 30 36 50 30 43 42 35 35 47 34
3410.0 34 31 49 44 43 45 46 46 60 56
3450.0 45 46 52 45 47 44 47 52 60 67
3490.0 61 74 93 96 120 117 133 123 112 116
3530.0 94 109 98 82 89 75 80 90 96 143
3570.0 200 266 278 279 265 225 169 119 70 62
3610.0 51 46 50 44 45 17 34 43 44 39
3650.0 17 23 18 46 43 21 24 11 35 27
3690.0 26 31 41 18 26 18 6 27 27 17
3730.0 27 12 5 5 5 5 5 20 21 20
3770.0 20 15 8 24 31 37 16 15 5 27
3810.0 16 9 23 16 23 30 18 5 5 15
3850.0 9 5 33 38 30 23 24 23 17 27
3890.0 21 25 25 24 19 20 18 39 40 47
3930.0 52 48 47 53 62 66 0 5 5 5
##END=
