##TITLE=Butyrolactone
##JCAMP-DX=4.24
##DATA TYPE=INFRARED SPECTRUM
##ORIGIN=Sadtler Research Labs Under US-EPA Contract
##OWNER=NIST Standard Reference Data Program
##CAS REGISTRY NO=96-48-0
##MOLFORM=C 4 H 6 O 2
##XUNITS=1/CM
##YUNITS=ABSORBANCE
##XFACTOR=1.0
##YFACTOR=0.000130505
##DELTAX=4.0
##FIRSTX=450.0
##LASTX=3966.0
##FIRSTY=0.018140
##MAXX=3966
##MINX=450
##MAXY=1.30505
##MINY=0
##NPOINTS=880
##XYDATA=(X++(Y..Y))
450.0 139 68 10 66 46 144 90 210 279 166
490.0 85 264 118 218 140 115 127 122 145 88
530.0 178 116 174 87 117 139 90 148 90 106
570.0 64 129 40 84 98 105 71 82 129 98
610.0 144 142 175 150 183 240 183 171 134 172
650.0 186 175 152 162 151 146 162 153 173 160
690.0 152 122 128 106 96 105 98 93 78 80
730.0 86 116 62 75 88 73 91 80 95 91
770.0 127 116 125 130 112 191 264 203 243 234
810.0 238 228 228 238 253 274 301 365 434 526
850.0 628 695 710 729 748 690 753 690 522 450
890.0 368 330 314 298 274 274 287 308 298 297
930.0 291 296 307 262 206 162 146 149 146 172
970.0 210 287 400 547 671 680 686 692 705 702
1010.0 680 596 596 686 940 1358 1811 2191 2292 2681
1050.0 2579 2437 2584 2307 1524 923 552 462 416 367
1090.0 398 384 363 352 396 475 613 836 1152 1617
1130.0 2272 3115 4017 4798 5155 5084 5067 5243 5346 4604
1170.0 3381 2231 1545 1121 851 693 599 525 490 461
1210.0 430 411 388 377 381 386 374 360 360 343
1250.0 353 322 300 279 283 284 281 282 296 277
1290.0 249 262 260 243 218 200 188 183 172 167
1330.0 173 168 191 205 241 302 399 509 622 668
1370.0 599 584 670 703 609 473 343 273 217 194
1410.0 194 201 253 271 297 285 282 303 326 327
1450.0 325 342 364 323 261 273 309 284 233 207
1490.0 187 161 147 132 145 148 122 124 136 125
1530.0 118 113 121 134 117 102 99 117 100 86
1570.0 94 92 96 96 94 93 95 101 100 105
1610.0 103 104 115 120 129 124 136 142 134 137
1650.0 150 154 129 109 112 109 118 103 120 126
1690.0 113 111 142 148 145 139 149 169 159 148
1730.0 158 182 172 177 202 239 281 355 443 538
1770.0 666 830 1032 1362 1841 2552 3470 4603 5978 7493
1810.0 8719 9333 9431 10000 8813 7951 7234 4976 2886 1617
1850.0 1043 799 624 474 376 327 286 251 218 202
1890.0 186 167 150 135 136 128 131 123 130 123
1930.0 119 120 119 126 118 118 118 118 109 109
1970.0 109 106 111 113 119 127 133 135 140 141
2010.0 142 145 138 135 125 115 101 95 93 85
2050.0 82 79 86 85 85 80 82 73 76 74
2090.0 68 70 61 58 50 45 36 35 37 37
2130.0 36 29 32 37 42 37 40 37 39 38
2170.0 41 40 40 43 40 40 41 46 45 49
2210.0 50 51 55 53 56 58 58 57 58 61
2250.0 55 53 53 57 61 72 74 80 95 104
2290.0 107 113 121 112 109 102 87 62 55 41
2330.0 39 22 13 11 8 21 33 45 27 10
2370.0 25 16 26 26 29 27 31 27 27 30
2410.0 31 31 31 33 33 34 34 33 29 26
2450.0 28 28 27 26 27 26 28 29 32 27
2490.0 27 30 32 37 39 42 44 47 39 38
2530.0 37 31 28 27 23 22 22 19 19 18
2570.0 17 19 19 19 21 20 18 30 22 16
2610.0 22 25 18 14 15 16 16 3 3 15
2650.0 17 12 11 12 9 12 10 18 19 28
2690.0 29 32 33 28 37 40 41 45 52 54
2730.0 47 51 45 54 46 43 37 31 29 28
2770.0 28 33 27 30 26 24 33 31 36 37
2810.0 33 38 36 42 41 47 55 64 72 76
2850.0 86 84 99 107 105 139 170 204 268 350
2890.0 468 629 787 892 954 1097 994 930 912 819
2930.0 716 599 555 524 514 536 576 626 705 811
2970.0 853 985 1152 1206 1232 1422 1575 1323 1238 1146
3010.0 958 784 633 504 355 240 157 111 78 62
3050.0 52 54 51 39 41 42 46 45 47 42
3090.0 48 47 40 34 28 39 38 35 30 30
3130.0 19 26 36 32 28 28 16 25 36 18
3170.0 10 12 17 12 7 13 11 7 16 13
3210.0 13 9 3 14 11 5 7 19 5 12
3250.0 1 8 9 16 11 11 20 5 0 14
3290.0 5 14 14 19 16 14 11 17 13 9
3330.0 23 27 28 14 22 10 24 26 20 30
3370.0 23 20 20 17 20 24 34 19 25 36
3410.0 26 25 24 21 31 27 24 18 31 20
3450.0 22 26 20 27 10 37 27 30 34 32
3490.0 24 23 29 36 22 30 31 29 35 40
3530.0 33 28 23 40 38 36 39 47 42 46
3570.0 57 56 60 74 80 92 110 108 115 151
3610.0 152 156 141 139 139 130 110 93 92 70
3650.0 60 63 35 32 41 43 50 53 38 43
3690.0 48 45 47 50 41 62 38 32 40 58
3730.0 78 39 47 62 75 63 60 43 54 39
3770.0 59 60 54 52 43 74 65 65 51 70
3810.0 63 60 53 45 68 57 65 56 41 58
3850.0 46 78 50 66 65 62 55 73 75 63
3890.0 65 66 68 48 51 76 60 62 46 31
3930.0 61 46 72 80 58 62 58 67 71 51
##END=
