##TITLE=Thiophene, 2-chloro-
##JCAMP-DX=4.24
##DATA TYPE=INFRARED SPECTRUM
##ORIGIN=Sadtler Research Labs Under US-EPA Contract
##OWNER=NIST Standard Reference Data Program
##CAS REGISTRY NO=96-43-5
##MOLFORM=C 4 H 3 Cl S
##XUNITS=1/CM
##YUNITS=ABSORBANCE
##XFACTOR=1.0
##YFACTOR=0.000056738
##DELTAX=4.0
##FIRSTX=450.0
##LASTX=3966.0
##FIRSTY=0.026497
##MAXX=3966
##MINX=450
##MAXY=0.56738
##MINY=0
##NPOINTS=880
##XYDATA=(X++(Y..Y))
450.0 467 490 525 543 390 330 255 113 56 13
490.0 24 0 92 3 68 23 97 37 74 75
530.0 110 22 59 15 113 72 88 2 122 5
570.0 125 24 38 59 118 41 65 21 63 80
610.0 43 49 74 57 127 249 372 482 552 673
650.0 762 1213 1694 2529 3633 5160 5700 5916 7181 10000
690.0 5606 5984 5219 4077 2543 1344 588 267 122 133
730.0 73 92 68 135 141 133 115 148 147 188
770.0 134 141 123 189 178 314 442 690 876 995
810.0 1072 1512 2973 1308 1571 1870 2198 2574 2320 1495
850.0 1809 2247 1495 782 422 234 164 132 85 103
890.0 116 107 97 100 94 95 99 132 82 94
930.0 113 70 46 28 44 39 53 44 71 93
970.0 118 119 227 384 710 1417 2475 3653 4060 3998
1010.0 4255 4373 3377 1553 843 770 727 952 1665 2352
1050.0 2456 2673 2493 2574 1749 682 376 399 447 414
1090.0 524 543 409 243 232 153 63 48 26 21
1130.0 26 24 21 16 12 34 37 37 44 29
1170.0 23 32 17 22 26 41 17 52 62 136
1210.0 309 710 1063 1026 1338 1348 1489 1127 588 575
1250.0 311 123 38 73 55 74 89 88 73 105
1290.0 87 64 40 38 34 48 26 26 17 53
1330.0 71 149 250 410 434 547 639 939 977 821
1370.0 735 705 693 437 310 421 693 1206 2142 3288
1410.0 4024 3931 3997 3904 3634 2031 918 585 430 366
1450.0 340 277 251 101 94 44 100 91 139 188
1490.0 339 419 496 514 840 1216 1385 1289 1310 1121
1530.0 1166 690 293 158 86 77 139 209 281 285
1570.0 309 252 297 299 245 156 108 72 71 68
1610.0 84 112 193 230 275 229 206 287 252 193
1650.0 123 151 61 57 46 70 56 70 75 137
1690.0 117 171 230 267 201 184 193 186 99 72
1730.0 59 96 57 82 53 89 81 110 133 190
1770.0 251 321 280 278 284 268 194 132 81 52
1810.0 25 33 26 31 24 35 27 38 38 56
1850.0 41 44 43 41 33 41 25 31 27 28
1890.0 39 37 39 35 33 35 33 33 24 32
1930.0 26 22 34 27 35 34 40 33 33 24
1970.0 34 23 35 11 24 23 34 33 37 33
2010.0 51 41 41 33 32 24 33 24 40 25
2050.0 44 37 43 38 51 41 51 41 43 43
2090.0 49 47 58 39 47 41 43 39 23 21
2130.0 33 32 32 24 32 35 37 36 40 58
2170.0 61 68 62 69 60 70 58 51 48 41
2210.0 32 33 21 33 25 31 23 40 32 51
2250.0 51 70 70 73 77 84 65 53 39 50
2290.0 41 41 23 40 25 40 29 43 29 44
2330.0 31 49 19 59 48 39 33 56 46 52
2370.0 39 44 27 20 21 22 22 22 21 31
2410.0 32 31 33 36 46 35 36 39 38 44
2450.0 38 32 31 21 23 17 23 22 26 14
2490.0 28 24 22 22 29 22 29 29 41 29
2530.0 34 25 32 14 23 10 23 11 21 11
2570.0 21 11 23 12 27 20 31 31 29 29
2610.0 33 20 21 21 28 14 20 12 26 32
2650.0 26 16 15 16 22 9 11 11 17 32
2690.0 27 21 15 26 21 14 15 27 21 28
2730.0 19 29 19 32 28 32 25 38 31 39
2770.0 21 34 19 37 17 37 19 37 25 59
2810.0 44 61 64 75 56 64 46 46 16 26
2850.0 8 24 24 28 14 27 19 36 17 26
2890.0 15 34 17 33 17 25 29 35 29 27
2930.0 23 21 23 36 24 14 27 24 16 22
2970.0 24 23 29 27 32 16 31 24 24 12
3010.0 35 31 47 40 46 45 58 53 60 33
3050.0 40 23 41 23 62 85 186 292 469 530
3090.0 524 532 551 474 281 153 171 154 128 88
3130.0 123 101 77 44 24 28 31 21 22 21
3170.0 21 22 27 23 25 24 24 26 12 16
3210.0 31 28 21 21 16 33 25 27 20 24
3250.0 11 45 19 27 22 37 27 28 16 28
3290.0 23 51 21 35 24 49 25 38 8 45
3330.0 26 46 17 38 13 50 24 32 14 38
3370.0 41 46 25 35 19 52 28 39 19 29
3410.0 33 35 28 47 32 45 24 44 26 41
3450.0 47 36 27 46 34 48 39 28 40 44
3490.0 52 41 44 32 68 43 49 29 53 46
3530.0 50 34 41 43 61 39 55 38 48 45
3570.0 53 24 46 31 52 41 40 31 49 32
3610.0 50 39 47 39 51 56 48 19 41 38
3650.0 69 29 38 14 27 28 58 49 36 24
3690.0 38 11 3 2 11 11 17 4 28 15
3730.0 24 23 34 35 57 36 32 19 9 20
3770.0 1 2 2 2 2 2 2 2 2 2
3810.0 2 2 8 20 17 17 16 39 17 15
3850.0 1 8 2 2 2 2 2 2 2 2
3890.0 2 2 2 2 2 2 2 2 2 2
3930.0 2 7 2 2 2 2 2 2 2 2
##END=
