##TITLE=1H-Pyrrole, 1-methyl-
##JCAMP-DX=4.24
##DATA TYPE=INFRARED SPECTRUM
##ORIGIN=Sadtler Research Labs Under US-EPA Contract
##OWNER=NIST Standard Reference Data Program
##CAS REGISTRY NO=96-54-8
##MOLFORM=C 5 H 7 N
##XUNITS=1/CM
##YUNITS=ABSORBANCE
##XFACTOR=1.0
##YFACTOR=0.000151526
##DELTAX=4.0
##FIRSTX=450.0
##LASTX=3966.0
##FIRSTY=0.011971
##MAXX=3966
##MINX=450
##MAXY=1.51526
##MINY=0
##NPOINTS=880
##XYDATA=(X++(Y..Y))
450.0 79 82 57 59 30 60 59 42 81 22
490.0 5 6 41 72 62 36 61 40 40 62
530.0 44 48 67 62 61 57 76 83 81 94
570.0 158 237 268 364 374 497 421 792 1254 864
610.0 511 528 461 473 359 286 220 179 133 153
650.0 204 267 320 298 412 502 546 888 1169 1604
690.0 2253 3005 3661 4093 4369 4423 6132 10000 5325 4509
730.0 4799 4340 3933 3020 2125 1301 730 377 215 160
770.0 125 146 125 164 146 157 141 136 127 107
810.0 104 122 108 73 91 83 93 75 77 88
850.0 75 84 76 87 84 115 121 139 181 196
890.0 203 194 188 166 166 131 125 91 78 63
930.0 55 57 69 117 166 358 546 748 607 627
970.0 771 687 670 662 425 290 170 174 139 154
1010.0 168 199 234 263 340 377 440 427 442 499
1050.0 604 659 689 820 897 1346 1702 2257 2188 2096
1090.0 2437 2154 1767 2359 1668 1027 460 255 149 103
1130.0 122 102 121 88 128 101 112 103 106 106
1170.0 88 113 90 116 104 135 120 131 140 132
1210.0 146 135 152 121 142 125 158 153 165 180
1250.0 188 255 312 480 701 1158 1678 2245 2681 3100
1290.0 3389 2970 3449 2889 2342 2055 1370 739 466 358
1330.0 330 365 274 300 328 272 207 176 163 193
1370.0 247 267 371 486 628 723 863 910 1047 1357
1410.0 1583 1736 1344 1499 1417 1235 1235 1028 734 565
1450.0 444 409 345 398 404 423 442 565 805 1084
1490.0 1546 2032 2332 2461 2652 2935 2990 3317 3218 2541
1530.0 2530 2049 1971 2262 1745 1309 1133 865 554 358
1570.0 224 185 170 142 156 124 120 101 105 92
1610.0 89 96 67 97 72 106 81 89 104 123
1650.0 102 145 204 236 202 149 163 254 195 157
1690.0 146 162 138 178 202 238 231 175 251 306
1730.0 246 155 151 138 111 84 93 71 48 49
1770.0 20 11 31 20 21 16 11 16 7 30
1810.0 27 26 31 29 25 13 28 36 24 10
1850.0 33 42 38 33 28 13 31 35 29 29
1890.0 19 20 24 29 28 30 29 28 28 41
1930.0 51 55 62 56 65 73 72 56 58 40
1970.0 35 36 29 31 29 20 21 28 29 26
2010.0 29 28 23 23 25 27 25 26 24 25
2050.0 24 22 22 23 13 27 28 34 37 42
2090.0 40 35 39 34 35 34 35 32 32 25
2130.0 24 29 28 28 27 28 32 40 41 44
2170.0 51 53 51 54 52 44 40 42 39 36
2210.0 40 36 41 43 48 48 48 54 53 57
2250.0 58 61 57 47 48 41 38 33 31 20
2290.0 16 12 11 14 7 3 0 0 6 8
2330.0 14 20 23 34 43 23 13 13 29 49
2370.0 61 71 64 50 40 42 40 39 41 43
2410.0 45 51 53 52 56 56 55 62 68 68
2450.0 77 79 80 80 83 95 88 81 73 78
2490.0 72 61 60 55 44 33 40 38 38 39
2530.0 42 45 46 52 61 65 64 68 70 73
2570.0 69 65 69 59 57 52 49 49 46 39
2610.0 36 36 33 32 29 34 28 29 28 28
2650.0 27 33 34 37 51 49 51 54 56 50
2690.0 54 59 57 63 69 82 93 111 130 151
2730.0 173 193 201 207 218 210 202 196 177 155
2770.0 163 174 172 180 181 192 221 270 337 440
2810.0 496 503 546 528 502 511 412 303 236 222
2850.0 240 257 298 340 398 473 587 718 875 1048
2890.0 1203 1358 1498 1591 1648 1660 1649 1626 1619 1669
2930.0 1765 1924 2109 2273 2390 2463 2446 2376 2199 1969
2970.0 1747 1435 1174 917 743 640 588 564 554 558
3010.0 554 555 575 603 612 611 592 572 498 465
3050.0 415 348 298 242 216 187 173 165 155 158
3090.0 194 245 316 450 537 642 684 842 921 863
3130.0 779 753 743 643 469 344 245 162 104 72
3170.0 47 25 21 21 21 18 27 18 13 12
3210.0 20 22 16 21 21 13 19 13 20 14
3250.0 23 19 19 14 24 25 26 16 25 22
3290.0 25 19 15 19 15 14 28 23 10 8
3330.0 18 13 23 20 19 32 17 27 25 24
3370.0 23 18 21 13 20 16 7 6 5 28
3410.0 26 13 20 18 1 10 13 12 11 22
3450.0 34 23 12 25 14 20 22 10 18 17
3490.0 18 13 17 16 16 13 18 16 7 18
3530.0 7 17 12 17 15 12 28 22 22 2
3570.0 11 31 23 24 23 28 17 17 11 26
3610.0 23 17 27 35 10 17 25 22 27 26
3650.0 23 17 13 24 31 7 16 23 27 22
3690.0 17 22 15 17 30 38 28 14 33 18
3730.0 10 18 16 11 32 37 27 27 15 17
3770.0 30 38 33 29 28 36 20 23 38 34
3810.0 32 40 45 37 34 23 17 19 15 29
3850.0 33 28 41 15 51 38 27 26 49 40
3890.0 18 26 18 35 24 24 45 38 33 40
3930.0 32 10 23 25 9 39 37 0 21 0
##END=
