##TITLE=Phenol, 2,4-bis(1,1-dimethylethyl)-
##JCAMP-DX=4.24
##DATA TYPE=INFRARED SPECTRUM
##ORIGIN=Sadtler Research Labs Under US-EPA Contract
##OWNER=NIST Standard Reference Data Program
##CAS REGISTRY NO=96-76-4
##MOLFORM=C 14 H 22 O
##XUNITS=1/CM
##YUNITS=ABSORBANCE
##XFACTOR=1.0
##YFACTOR=0.000113492
##DELTAX=4.0
##FIRSTX=450.0
##LASTX=3966.0
##FIRSTY=0.000113
##MAXX=3966
##MINX=450
##MAXY=1.13492
##MINY=0
##NPOINTS=880
##XYDATA=(X++(Y..Y))
450.0 1 9 337 273 192 262 73 205 255 190
490.0 403 389 643 507 343 233 333 297 178 208
530.0 240 89 123 142 94 187 118 7 157 164
570.0 226 225 156 116 174 133 110 29 49 85
610.0 39 39 49 25 47 68 182 234 263 253
650.0 246 164 138 178 109 57 77 119 45 48
690.0 48 57 59 34 94 130 308 365 302 235
730.0 184 130 72 80 67 43 16 50 47 40
770.0 37 29 28 52 82 196 398 685 1190 1599
810.0 1621 1319 1010 679 559 465 273 171 89 71
850.0 84 89 47 57 50 84 132 174 203 284
890.0 283 286 302 247 210 192 143 140 167 171
930.0 145 128 115 87 78 69 52 54 41 38
970.0 60 41 43 51 42 53 57 55 59 68
1010.0 73 89 92 80 66 82 77 88 122 113
1050.0 125 92 113 177 239 378 736 1127 1380 1284
1090.0 953 536 331 258 272 298 347 441 521 558
1130.0 552 572 688 957 1358 1678 1750 1624 1456 1475
1170.0 1885 2408 2696 2434 1900 1526 1421 1488 1517 1451
1210.0 1312 1127 1005 966 1067 1287 1695 2336 3040 3382
1250.0 3144 2371 1613 1130 1005 1089 1256 1371 1308 1066
1290.0 796 580 443 364 334 343 398 555 832 1183
1330.0 1386 1236 871 538 440 498 653 937 1359 1803
1370.0 1921 1657 1296 995 969 1148 1397 1678 1691 1532
1410.0 1260 933 647 462 371 326 303 367 418 525
1450.0 692 817 999 1149 1211 1332 1389 1505 1723 1946
1490.0 2229 2434 2767 2850 2568 1864 1176 679 465 417
1530.0 361 355 306 237 186 131 118 119 106 122
1570.0 124 118 125 139 150 160 191 203 264 274
1610.0 249 236 171 119 103 88 80 91 82 76
1650.0 84 78 73 63 66 56 73 66 57 68
1690.0 60 60 65 71 60 58 62 80 70 69
1730.0 82 81 75 62 62 64 75 85 88 77
1770.0 80 94 69 65 73 58 59 51 61 61
1810.0 62 62 61 64 58 65 57 62 70 86
1850.0 91 91 82 63 61 58 59 55 52 55
1890.0 55 53 46 44 39 45 39 36 42 37
1930.0 37 31 30 38 33 33 37 48 30 32
1970.0 37 36 25 28 27 31 38 27 30 32
2010.0 23 30 33 25 25 25 23 28 33 34
2050.0 37 36 39 38 33 25 23 21 20 19
2090.0 20 20 20 16 19 20 15 15 11 7
2130.0 14 8 14 17 9 14 12 2 7 13
2170.0 10 4 4 9 7 17 12 19 21 22
2210.0 21 22 20 15 15 11 10 15 9 14
2250.0 14 12 15 21 28 24 22 24 30 34
2290.0 39 38 40 47 50 54 57 53 59 48
2330.0 46 45 49 43 40 47 62 53 55 32
2370.0 27 26 24 43 49 44 46 50 41 39
2410.0 42 46 45 43 38 38 31 28 30 25
2450.0 19 21 20 23 24 22 25 26 30 34
2490.0 38 37 37 34 43 43 39 31 48 42
2530.0 40 29 37 32 41 41 43 39 37 32
2570.0 37 29 29 25 25 25 25 29 25 32
2610.0 28 29 23 20 23 21 26 27 30 34
2650.0 41 43 46 43 40 38 34 33 34 32
2690.0 22 23 25 37 34 45 49 69 75 83
2730.0 72 65 57 62 68 64 67 70 75 71
2770.0 66 61 62 70 75 86 81 76 81 97
2810.0 113 130 149 167 176 192 209 230 266 312
2850.0 374 477 645 879 1206 1596 1975 2239 2340 2312
2890.0 2187 2079 2054 2156 2365 2619 2829 2947 2919 2844
2930.0 2743 2706 2761 2979 3398 4153 5434 7093 8826 10000
2970.0 9950 8512 6178 3976 2563 1780 1371 1178 1106 1047
3010.0 948 821 713 648 589 532 471 422 391 386
3050.0 381 394 413 434 446 442 426 384 348 303
3090.0 260 224 194 189 183 180 184 192 188 203
3130.0 193 177 169 160 152 141 134 126 120 128
3170.0 125 125 131 128 126 125 126 119 115 117
3210.0 108 103 104 96 97 90 88 84 78 73
3250.0 69 75 70 63 53 57 61 58 63 61
3290.0 57 58 51 55 50 51 43 47 42 47
3330.0 39 43 45 49 47 49 46 51 45 43
3370.0 50 50 45 39 40 40 52 58 49 46
3410.0 43 58 53 44 51 42 48 41 32 42
3450.0 37 59 66 49 24 11 16 17 27 37
3490.0 34 27 23 25 30 28 33 30 41 39
3530.0 30 44 57 72 92 103 87 61 73 37
3570.0 47 42 52 67 52 41 55 50 52 72
3610.0 74 79 87 106 162 273 535 1047 1693 1928
3650.0 1736 1150 673 529 540 567 593 560 475 403
3690.0 300 252 206 149 124 99 68 92 92 67
3730.0 82 57 51 66 47 45 22 41 33 57
3770.0 46 58 55 42 49 65 39 54 44 59
3810.0 81 124 123 72 50 27 54 8 3 18
3850.0 18 10 1 7 2 7 2 3 1 2
3890.0 2 8 2 2 2 0 79 7 39 11
3930.0 44 2 6 29 27 16 2 40 19 1
##END=
