##TITLE=Benzoic acid, 4-chloro-3-nitro-
##JCAMP-DX=4.24
##DATA TYPE=INFRARED SPECTRUM
##ORIGIN=Sadtler Research Labs Under US-EPA Contract
##OWNER=NIST Standard Reference Data Program
##CAS REGISTRY NO=96-99-1
##MOLFORM=C 7 H 4 Cl N O 4
##XUNITS=1/CM
##YUNITS=ABSORBANCE
##XFACTOR=1.0
##YFACTOR=0.000072699
##DELTAX=4.0
##FIRSTX=450.0
##LASTX=3966.0
##FIRSTY=0.000000
##MAXX=3966
##MINX=450
##MAXY=0.72699
##MINY=0
##NPOINTS=880
##XYDATA=(X++(Y..Y))
450.0 0 624 821 717 263 755 877 910 904 623
490.0 645 584 714 984 966 935 1200 1254 1381 1451
530.0 1118 1211 1223 1178 966 1402 1451 1237 1205 1099
570.0 877 1004 807 730 692 854 801 663 756 878
610.0 972 944 819 704 642 537 554 542 535 545
650.0 482 524 670 863 853 1294 1710 2172 2113 1637
690.0 1044 627 640 529 596 705 576 490 439 306
730.0 547 664 713 851 1166 1440 1571 1828 2185 1987
770.0 1672 1408 1080 1206 1451 1603 1628 1539 1124 803
810.0 659 552 482 553 513 522 625 721 927 777
850.0 587 455 328 297 317 357 285 310 286 404
890.0 460 563 734 944 967 929 856 735 619 491
930.0 388 330 359 349 312 337 293 321 332 332
970.0 338 332 305 360 280 307 341 344 388 379
1010.0 413 494 449 549 564 681 838 1026 1444 1964
1050.0 2325 2199 1819 1360 1110 1146 1463 2130 2994 3631
1090.0 3993 4252 4077 3709 3000 2164 1624 1360 1320 1436
1130.0 1771 1941 1982 2013 1825 1648 1397 1170 1167 1377
1170.0 1708 2245 2967 3647 3929 3639 2997 2367 1969 1740
1210.0 1590 1556 1498 1549 1520 1469 1438 1405 1395 1316
1250.0 1167 1023 952 978 1008 1021 1053 1073 1111 1151
1290.0 1224 1332 1442 1583 1718 1824 1921 1933 1930 1951
1330.0 1988 2225 2618 3262 4091 4835 5186 4995 4345 3544
1370.0 2856 2290 1852 1570 1353 1229 1201 1146 1147 1054
1410.0 928 856 690 675 603 575 528 451 489 438
1450.0 435 449 436 505 555 667 824 860 887 783
1490.0 695 703 687 810 820 969 1138 1204 1586 1890
1530.0 2304 2898 3155 3647 3848 4189 4647 4854 4632 3897
1570.0 3088 2470 2124 1981 1972 2017 2098 2236 2489 2543
1610.0 2501 2271 1780 1333 970 790 661 599 567 530
1650.0 517 484 519 513 542 579 586 690 689 764
1690.0 859 923 1011 1085 1182 1280 1362 1555 1650 1666
1730.0 1660 1599 1632 1656 1669 1817 2292 3627 6221 9178
1770.0 10000 8704 5371 2438 1268 854 653 676 622 674
1810.0 739 771 859 799 685 562 485 444 406 394
1850.0 392 379 385 375 371 364 373 381 379 377
1890.0 392 382 394 396 405 408 398 400 401 408
1930.0 413 416 417 403 393 389 370 370 354 357
1970.0 358 365 365 360 355 346 340 343 337 336
2010.0 334 331 334 334 332 334 333 337 331 328
2050.0 332 334 338 336 340 342 338 341 342 340
2090.0 345 340 341 338 342 340 342 337 332 333
2130.0 331 330 337 331 331 337 336 333 335 336
2170.0 337 330 335 331 329 332 333 330 325 313
2210.0 316 306 307 305 306 313 307 306 308 300
2250.0 307 297 302 301 301 303 303 306 313 314
2290.0 331 330 344 342 343 349 339 335 327 316
2330.0 332 316 311 317 332 346 332 341 349 316
2370.0 329 316 334 358 350 343 338 339 351 349
2410.0 349 347 354 354 359 358 367 367 375 378
2450.0 383 376 377 380 380 374 373 375 376 373
2490.0 373 378 372 370 369 372 366 371 367 367
2530.0 370 367 367 372 372 371 377 379 387 393
2570.0 392 392 388 389 385 392 391 386 392 388
2610.0 398 394 390 393 396 390 395 398 395 390
2650.0 392 398 398 394 396 399 394 386 395 388
2690.0 382 381 381 383 374 374 370 361 369 367
2730.0 364 358 359 360 359 354 356 351 349 355
2770.0 352 356 352 350 351 354 349 350 355 347
2810.0 347 348 346 355 352 356 352 356 365 373
2850.0 374 386 383 390 392 397 405 407 414 422
2890.0 422 423 433 433 437 429 416 405 390 390
2930.0 389 378 378 384 378 371 374 374 380 383
2970.0 379 387 378 371 358 359 362 357 354 356
3010.0 359 363 365 370 379 379 386 391 393 397
3050.0 387 404 403 402 428 442 481 521 555 582
3090.0 577 556 526 505 488 452 446 422 414 403
3130.0 398 398 400 392 390 384 383 379 385 378
3170.0 386 378 383 382 377 379 382 375 377 375
3210.0 381 374 378 377 375 381 394 389 381 386
3250.0 376 384 382 384 377 375 382 373 376 379
3290.0 374 380 367 378 381 369 383 374 381 374
3330.0 383 390 377 375 383 393 398 391 377 388
3370.0 390 401 398 395 408 402 408 404 390 399
3410.0 400 398 390 389 383 380 399 389 384 400
3450.0 368 394 401 379 381 399 402 396 380 384
3490.0 387 404 394 399 412 400 423 418 422 413
3530.0 390 371 369 337 349 346 363 388 417 552
3570.0 854 1613 3027 4003 4133 2930 1448 566 413 349
3610.0 307 340 301 332 312 343 332 345 320 341
3650.0 318 366 321 347 328 331 349 324 320 296
3690.0 339 318 320 303 288 313 319 297 309 305
3730.0 323 332 311 306 310 330 313 320 302 315
3770.0 318 309 301 307 306 314 307 352 309 339
3810.0 315 307 322 335 305 288 331 332 298 323
3850.0 320 322 327 336 342 331 318 299 325 318
3890.0 329 327 363 341 351 320 320 353 292 342
3930.0 310 322 377 316 332 317 313 374 288 360
##END=
