##TITLE=Benzene, 1-chloro-2,4-dinitro-
##JCAMP-DX=4.24
##DATA TYPE=INFRARED SPECTRUM
##ORIGIN=Sadtler Research Labs Under US-EPA Contract
##OWNER=NIST Standard Reference Data Program
##CAS REGISTRY NO=97-00-7
##MOLFORM=C 6 H 3 Cl N 2 O 4
##XUNITS=1/CM
##YUNITS=ABSORBANCE
##XFACTOR=1.0
##YFACTOR=0.000124628
##DELTAX=4.0
##FIRSTX=450.0
##LASTX=3966.0
##FIRSTY=0.011341
##MAXX=3966
##MINX=450
##MAXY=1.24628
##MINY=0
##NPOINTS=880
##XYDATA=(X++(Y..Y))
450.0 91 59 48 95 82 54 91 86 102 41
490.0 97 29 27 55 78 102 105 203 192 304
530.0 422 491 438 333 236 170 183 156 151 106
570.0 134 116 114 100 102 71 29 35 44 47
610.0 14 26 14 2 14 23 30 23 55 65
650.0 122 227 377 458 497 406 298 229 174 188
690.0 171 217 236 267 265 242 234 227 331 494
730.0 747 1086 1247 1466 1709 1603 1323 746 349 219
770.0 114 112 71 107 62 74 75 64 64 66
810.0 124 161 353 630 1213 1738 1954 1831 1174 604
850.0 295 156 101 113 94 95 98 120 136 156
890.0 225 317 524 795 1216 1598 1644 1372 851 363
930.0 156 112 68 77 66 74 52 65 59 44
970.0 46 34 39 23 40 28 38 34 46 59
1010.0 58 78 75 101 137 233 378 675 1119 1533
1050.0 1692 1546 1157 783 566 398 303 225 190 166
1090.0 172 215 268 338 350 349 272 194 135 120
1130.0 139 163 212 243 326 410 505 496 411 271
1170.0 156 109 86 98 86 110 110 125 114 105
1210.0 102 80 86 80 95 95 172 326 531 611
1250.0 565 377 191 166 135 159 158 204 214 243
1290.0 279 289 320 327 411 454 598 788 1126 1623
1330.0 2381 3458 4931 6665 8255 8369 7655 5629 3825 2473
1370.0 1593 1076 739 595 521 481 480 450 452 410
1410.0 418 408 399 386 365 380 344 370 377 425
1450.0 493 574 778 976 1150 1144 973 657 552 433
1490.0 536 608 767 882 883 1108 986 1162 1177 1779
1530.0 1997 2896 4123 5225 7558 8152 10000 8203 7984 5970
1570.0 4340 3297 2617 2535 2828 3352 3899 4494 4364 3825
1610.0 2976 1949 1201 724 480 426 325 355 323 339
1650.0 279 269 212 182 179 151 153 100 129 80
1690.0 92 85 89 77 56 73 41 53 28 47
1730.0 27 40 43 40 38 32 44 17 35 24
1770.0 36 26 35 44 44 72 75 86 70 81
1810.0 63 68 60 55 49 24 35 16 23 8
1850.0 24 14 21 21 17 22 13 26 10 25
1890.0 18 24 23 32 41 40 62 68 83 75
1930.0 76 50 33 22 12 10 2 12 1 9
1970.0 1 11 1 7 8 4 9 3 12 4
2010.0 12 7 8 8 9 12 4 12 7 15
2050.0 6 16 13 14 17 19 21 9 19 11
2090.0 14 10 14 10 11 13 9 15 12 20
2130.0 9 16 14 16 11 14 17 8 14 13
2170.0 17 11 19 15 14 18 17 20 16 24
2210.0 17 24 16 19 16 10 15 12 17 12
2250.0 17 13 16 18 23 24 25 27 22 22
2290.0 16 16 10 16 10 1 6 2 11 0
2330.0 9 5 17 10 25 13 1 19 2 12
2370.0 10 30 25 36 40 39 37 34 32 25
2410.0 29 28 29 25 28 30 27 33 31 35
2450.0 32 39 37 40 36 39 38 35 38 34
2490.0 40 35 40 32 38 37 37 37 37 38
2530.0 30 36 32 36 31 34 36 32 40 39
2570.0 43 41 49 44 48 46 44 44 37 40
2610.0 34 32 30 37 32 31 34 37 34 33
2650.0 41 36 43 47 56 59 71 83 89 102
2690.0 105 109 106 106 96 87 77 70 63 54
2730.0 53 50 50 47 57 51 53 49 45 43
2770.0 38 40 31 33 31 34 32 37 40 36
2810.0 45 41 48 49 57 58 63 72 74 81
2850.0 84 91 91 106 111 132 141 160 177 184
2890.0 199 202 212 201 194 178 159 137 123 114
2930.0 109 111 103 105 99 94 86 81 73 66
2970.0 65 52 60 51 47 46 45 42 42 44
3010.0 43 43 42 42 42 51 54 56 63 59
3050.0 62 60 58 53 59 55 76 109 156 229
3090.0 303 368 429 469 466 421 338 244 133 79
3130.0 60 43 45 37 39 38 36 29 28 27
3170.0 23 25 22 28 22 31 26 29 28 28
3210.0 28 24 27 18 26 24 28 19 25 26
3250.0 24 27 21 25 22 26 23 19 26 22
3290.0 22 22 24 19 26 21 27 27 30 26
3330.0 23 25 25 27 21 25 22 21 25 28
3370.0 27 27 31 25 28 25 32 28 29 31
3410.0 24 23 27 27 19 29 29 35 23 20
3450.0 21 21 25 19 27 22 25 20 20 22
3490.0 31 27 16 19 13 25 14 27 14 20
3530.0 22 19 18 19 26 18 18 10 20 4
3570.0 20 25 20 25 16 20 14 26 16 21
3610.0 13 14 15 19 28 14 30 23 25 23
3650.0 17 35 23 27 20 29 21 27 29 21
3690.0 32 28 41 21 33 31 41 26 41 16
3730.0 27 30 41 28 25 41 27 44 32 40
3770.0 46 32 30 40 39 31 34 14 29 46
3810.0 45 37 27 30 31 38 19 33 26 34
3850.0 36 22 47 46 47 32 60 30 9 34
3890.0 29 36 29 40 22 42 28 50 21 13
3930.0 35 39 33 28 33 28 45 32 57 28
##END=
