##TITLE=Benzenesulfonyl chloride, 4-chloro-3-nitro-
##JCAMP-DX=4.24
##DATA TYPE=INFRARED SPECTRUM
##ORIGIN=Sadtler Research Labs Under US-EPA Contract
##OWNER=NIST Standard Reference Data Program
##CAS REGISTRY NO=97-08-5
##MOLFORM=C 6 H 3 Cl 2 N O 4 S
##XUNITS=1/CM
##YUNITS=ABSORBANCE
##XFACTOR=1.0
##YFACTOR=0.000067807
##DELTAX=4.0
##FIRSTX=450.0
##LASTX=3966.0
##FIRSTY=0.008340
##MAXX=3966
##MINX=450
##MAXY=0.67807
##MINY=0
##NPOINTS=880
##XYDATA=(X++(Y..Y))
450.0 123 123 204 262 280 375 588 927 1382 1945
490.0 2495 2809 2789 2242 1423 1012 802 723 770 835
530.0 855 1001 1140 1415 1861 2520 3414 4059 4428 4155
570.0 3846 3564 3622 3598 3371 2990 2724 2963 3463 4281
610.0 4661 4748 4105 3692 3494 3327 3102 3026 2851 2344
650.0 1869 1562 1635 1680 1642 964 492 340 205 222
690.0 158 212 204 220 219 194 136 107 86 108
730.0 111 136 152 192 231 301 352 443 687 1234
770.0 2179 2784 2473 1507 611 274 150 134 121 157
810.0 177 266 557 925 1256 1152 705 360 201 174
850.0 171 207 241 281 385 570 943 1690 2444 2531
890.0 1850 1023 702 582 419 278 156 84 51 51
930.0 56 40 20 29 27 25 24 29 29 26
970.0 15 13 13 1 16 19 26 29 39 57
1010.0 80 108 126 176 220 276 372 594 1046 2085
1050.0 3505 4185 3429 1844 897 584 426 404 459 596
1090.0 772 916 919 785 610 482 415 393 432 509
1130.0 619 726 813 881 940 986 982 932 886 978
1170.0 1334 2111 3535 5819 8525 10000 8904 6212 3893 2563
1210.0 1860 1446 1152 893 659 439 314 271 274 326
1250.0 385 388 326 244 204 210 205 218 249 286
1290.0 294 271 259 277 327 388 470 570 689 882
1330.0 1205 1722 2549 3583 4598 5195 4928 4011 2821 1974
1370.0 1580 1486 1486 1643 1868 2034 2563 3943 6617 9125
1410.0 9330 6549 3227 1297 766 621 607 517 468 499
1450.0 617 803 1171 1507 1680 1449 988 538 328 315
1490.0 333 295 347 393 519 676 747 935 1161 1342
1530.0 1579 1807 2159 2626 3254 4110 5302 6320 6577 6000
1570.0 5169 4494 4035 3880 3928 4215 4383 4192 3342 2250
1610.0 1381 839 598 400 348 258 263 253 215 240
1650.0 289 297 205 149 114 108 134 70 132 136
1690.0 86 62 142 131 99 56 90 140 67 40
1730.0 64 128 66 60 80 103 71 73 79 64
1770.0 105 124 108 145 154 162 152 132 141 91
1810.0 81 69 42 48 50 59 36 17 35 52
1850.0 29 13 26 27 40 58 23 13 10 14
1890.0 22 18 22 28 40 60 83 112 136 114
1930.0 84 57 28 32 25 15 17 20 15 28
1970.0 27 23 20 15 14 25 17 8 5 7
2010.0 3 10 17 12 8 10 11 12 13 10
2050.0 5 8 9 15 18 14 16 17 9 8
2090.0 9 4 5 4 6 3 5 6 4 6
2130.0 5 5 4 1 1 5 1 1 0 4
2170.0 4 7 7 10 15 14 12 8 7 1
2210.0 6 1 2 3 3 4 3 4 7 6
2250.0 7 6 4 9 11 20 31 40 47 51
2290.0 55 63 71 73 74 76 68 60 63 54
2330.0 43 50 43 63 71 82 85 71 68 57
2370.0 47 56 71 64 48 30 22 22 22 24
2410.0 21 22 20 19 20 23 25 25 28 27
2450.0 23 22 22 23 24 20 21 21 21 16
2490.0 15 21 20 20 19 22 24 23 27 30
2530.0 35 38 41 40 46 52 59 60 66 58
2570.0 56 52 51 54 60 70 58 55 44 36
2610.0 34 34 31 29 33 33 34 27 31 27
2650.0 33 39 38 44 48 55 59 76 71 71
2690.0 81 81 77 83 81 70 71 61 59 56
2730.0 61 45 44 40 36 39 44 31 28 29
2770.0 28 37 47 31 34 31 32 41 52 39
2810.0 48 43 45 58 50 45 49 51 57 69
2850.0 55 65 58 68 81 85 85 93 102 107
2890.0 119 132 146 150 163 148 136 116 108 116
2930.0 105 94 82 81 84 75 65 60 77 78
2970.0 61 59 65 63 41 35 41 49 42 32
3010.0 40 56 58 45 56 66 54 50 58 56
3050.0 51 47 61 67 84 140 230 358 463 505
3090.0 460 371 313 260 201 128 80 67 57 56
3130.0 53 53 51 39 36 34 26 25 25 20
3170.0 17 8 12 8 9 12 12 17 17 16
3210.0 16 16 18 17 20 12 13 9 15 12
3250.0 19 16 13 11 8 2 16 21 10 11
3290.0 10 13 15 17 6 12 11 15 12 9
3330.0 14 13 19 16 17 14 11 13 19 16
3370.0 13 16 18 13 11 12 15 7 15 11
3410.0 12 14 14 14 15 13 14 18 11 12
3450.0 14 20 20 13 17 19 13 5 13 11
3490.0 18 13 9 10 18 11 5 5 6 18
3530.0 13 11 16 12 9 14 10 12 15 17
3570.0 31 12 18 18 17 21 9 7 8 4
3610.0 5 15 9 17 11 19 15 9 10 23
3650.0 20 26 26 18 21 14 20 10 13 14
3690.0 8 21 11 19 16 21 19 9 14 28
3730.0 18 22 19 29 32 23 25 19 11 20
3770.0 24 18 13 19 11 23 6 0 5 20
3810.0 15 12 0 14 18 13 4 1 7 21
3850.0 0 20 17 19 28 11 11 2 2 21
3890.0 22 15 5 14 8 24 13 13 13 4
3930.0 15 0 4 2 9 16 19 11 7 10
##END=
