##TITLE=Phenol, 2,4-dichloro-, benzenesulfonate
##JCAMP-DX=4.24
##DATA TYPE=INFRARED SPECTRUM
##ORIGIN=Sadtler Research Labs Under US-EPA Contract
##OWNER=NIST Standard Reference Data Program
##CAS REGISTRY NO=97-16-5
##MOLFORM=C 12 H 8 Cl 2 O 3 S
##XUNITS=1/CM
##YUNITS=ABSORBANCE
##XFACTOR=1.0
##YFACTOR=0.000079636
##DELTAX=4.0
##FIRSTX=450.0
##LASTX=3966.0
##FIRSTY=0.015688
##MAXX=3966
##MINX=450
##MAXY=0.79636
##MINY=0
##NPOINTS=880
##XYDATA=(X++(Y..Y))
450.0 197 190 113 107 44 166 186 255 297 264
490.0 296 305 333 329 350 370 393 381 431 456
530.0 505 596 685 761 834 890 984 1295 1628 1776
570.0 2234 2887 3109 3198 3815 4578 4214 3972 4069 3194
610.0 1851 935 613 475 450 470 548 675 847 1103
650.0 1121 907 715 773 894 1558 2614 3079 3363 3398
690.0 2412 1305 868 747 762 953 1271 1464 1463 1655
730.0 2066 2437 2311 1960 1932 2456 2555 1837 1405 1593
770.0 2165 3179 4856 7298 9879 10000 7783 4855 2992 2072
810.0 1690 1742 2263 3005 3166 2340 1330 777 584 531
850.0 646 923 1566 2730 4201 4856 4162 2934 1972 1406
890.0 1040 799 630 523 420 345 262 222 203 211
930.0 202 176 196 225 248 201 138 104 98 110
970.0 119 103 100 104 111 126 151 209 221 174
1010.0 169 173 217 291 327 284 283 314 444 711
1050.0 1344 2222 2261 1625 1058 784 723 865 1309 2437
1090.0 4010 4423 3845 2927 1981 1240 759 553 466 432
1130.0 416 416 479 635 723 672 664 765 948 1190
1170.0 1646 2486 3407 4449 5940 6986 6846 5653 4068 3330
1210.0 3763 4564 4514 3412 1957 1061 734 680 822 1140
1250.0 1341 1132 778 554 480 448 428 399 361 328
1290.0 305 291 258 222 219 283 329 293 293 334
1330.0 407 481 504 481 490 561 706 944 1259 1589
1370.0 1884 2230 2725 3367 3865 3897 3369 2909 3291 4231
1410.0 4345 2918 1495 801 635 619 628 735 1034 1664
1450.0 2364 1982 1926 2461 3907 6364 7145 5795 3416 1924
1490.0 1236 879 701 567 471 351 284 232 195 146
1530.0 104 73 59 53 50 63 83 120 175 274
1570.0 432 625 761 692 498 311 186 118 89 72
1610.0 60 50 40 20 6 0 3 7 14 21
1650.0 21 16 15 8 11 20 38 42 49 36
1690.0 25 16 19 13 11 11 16 28 38 60
1730.0 82 89 74 48 34 33 46 56 68 70
1770.0 65 49 37 24 14 17 28 45 74 97
1810.0 96 80 60 49 43 40 32 28 24 26
1850.0 27 29 31 43 52 65 79 100 111 134
1890.0 151 154 145 128 114 105 100 96 85 72
1930.0 68 63 59 57 62 74 92 105 105 100
1970.0 96 101 100 92 71 59 48 44 39 37
2010.0 39 35 34 34 33 32 34 35 37 39
2050.0 39 38 40 40 42 42 40 39 40 38
2090.0 38 35 34 32 30 30 37 39 38 36
2130.0 33 29 29 30 28 30 28 26 30 28
2170.0 31 31 34 38 40 44 45 43 45 46
2210.0 42 43 44 41 43 41 44 48 50 53
2250.0 56 61 63 68 71 75 82 84 88 88
2290.0 85 82 81 81 83 88 86 90 109 121
2330.0 113 104 104 103 100 94 99 80 83 62
2370.0 58 59 52 56 59 61 59 61 66 65
2410.0 61 61 63 65 67 65 70 69 62 60
2450.0 58 56 53 55 55 53 51 51 51 55
2490.0 50 52 58 59 57 60 61 61 63 59
2530.0 59 57 61 66 68 72 71 77 82 86
2570.0 92 98 99 97 100 100 97 96 96 90
2610.0 89 84 79 83 80 85 86 82 84 89
2650.0 83 87 92 87 93 97 100 94 94 88
2690.0 82 77 76 77 79 75 81 79 83 81
2730.0 75 69 67 68 65 59 60 64 61 66
2770.0 65 64 63 65 65 69 67 67 70 71
2810.0 74 72 73 77 74 73 74 72 72 70
2850.0 57 52 53 61 68 70 69 75 71 78
2890.0 76 74 68 71 70 67 53 38 20 26
2930.0 49 72 94 105 109 104 99 96 104 106
2970.0 110 112 109 109 104 108 117 122 131 140
3010.0 156 164 167 170 179 185 188 188 188 189
3050.0 195 223 271 353 454 553 659 747 727 558
3090.0 408 360 333 294 241 188 160 136 117 109
3130.0 101 94 96 90 97 94 89 99 97 99
3170.0 96 83 79 74 72 65 64 64 58 61
3210.0 56 62 63 62 60 62 64 68 72 76
3250.0 74 71 76 76 71 73 74 78 82 79
3290.0 74 84 85 87 87 85 97 98 97 97
3330.0 90 89 93 97 94 95 85 90 88 87
3370.0 85 92 93 93 96 102 88 96 88 87
3410.0 85 79 77 74 65 72 63 63 71 68
3450.0 70 62 66 67 69 63 68 64 58 57
3490.0 58 53 44 52 44 45 52 51 51 59
3530.0 65 65 74 69 62 63 75 68 76 74
3570.0 79 106 111 122 124 108 93 84 96 95
3610.0 106 106 106 107 115 111 106 99 113 110
3650.0 126 119 120 125 125 128 126 136 130 131
3690.0 146 142 141 137 130 126 122 109 112 113
3730.0 116 110 104 101 121 109 103 107 99 89
3770.0 94 88 95 79 69 72 67 52 61 70
3810.0 49 63 55 45 50 39 52 43 47 68
3850.0 52 34 34 17 31 31 24 32 40 56
3890.0 57 47 49 69 74 87 98 85 102 80
3930.0 87 94 90 84 106 102 120 111 125 125
##END=
