##TITLE=Ethyl chrysanthemate
##JCAMP-DX=4.24
##DATA TYPE=INFRARED SPECTRUM
##ORIGIN=Sadtler Research Labs Under US-EPA Contract
##OWNER=NIST Standard Reference Data Program
##CAS REGISTRY NO=97-41-6
##MOLFORM=C 12 H 20 O 2
##XUNITS=1/CM
##YUNITS=ABSORBANCE
##XFACTOR=1.0
##YFACTOR=0.000075812
##DELTAX=4.0
##FIRSTX=450.0
##LASTX=3966.0
##FIRSTY=0.009476
##MAXX=3966
##MINX=450
##MAXY=0.75812
##MINY=0
##NPOINTS=880
##XYDATA=(X++(Y..Y))
450.0 125 166 171 135 115 142 93 86 83 81
490.0 78 64 93 73 86 100 85 68 73 79
530.0 70 81 60 69 65 74 59 60 75 62
570.0 60 34 58 47 47 45 38 32 49 17
610.0 23 27 14 17 3 15 0 10 11 24
650.0 22 42 40 33 46 53 46 47 33 36
690.0 51 48 55 73 82 83 105 137 130 142
730.0 131 134 120 119 113 118 118 138 155 174
770.0 195 217 239 225 205 182 182 190 217 252
810.0 287 333 362 367 380 403 443 504 592 776
850.0 991 1103 995 755 559 420 330 270 226 195
890.0 173 174 183 194 212 254 286 309 315 306
930.0 301 299 308 326 353 385 420 453 477 488
970.0 476 445 419 400 384 384 417 443 466 468
1010.0 474 496 540 654 855 1088 1273 1372 1413 1414
1050.0 1392 1395 1482 1635 1769 1865 1969 2078 2096 1978
1090.0 1837 1838 1958 2035 2033 2097 2356 2652 2811 2938
1130.0 3400 4412 5570 6247 6333 6403 7254 8787 10000 9897
1170.0 8747 7471 6404 5434 4739 4578 4654 4423 3716 2892
1210.0 2363 2154 2177 2370 2661 2875 2815 2438 1958 1650
1250.0 1598 1693 1837 1916 1901 1845 1845 1933 2013 1927
1290.0 1648 1318 1104 1021 1008 1036 1124 1306 1441 1441
1330.0 1286 1124 1075 1193 1445 1636 1629 1423 1285 1411
1370.0 1751 2160 2574 2833 2737 2260 1816 1522 1388 1431
1410.0 1649 1925 2166 2240 2178 1996 1784 1585 1480 1485
1450.0 1561 1662 1729 1740 1666 1490 1256 1009 783 614
1490.0 497 394 331 284 265 247 221 208 194 186
1530.0 171 168 166 172 165 158 157 157 154 146
1570.0 148 147 143 136 128 126 121 122 119 124
1610.0 120 123 127 134 134 138 144 148 151 156
1650.0 169 180 195 216 234 241 237 230 225 253
1690.0 284 351 413 487 544 633 731 913 1268 1984
1730.0 3482 5785 8446 9598 8037 5170 2938 1763 1265 1011
1770.0 872 740 626 505 403 326 273 247 239 240
1810.0 237 230 194 164 132 108 86 75 68 60
1850.0 55 45 47 42 47 47 47 48 48 53
1890.0 55 57 57 61 58 59 53 54 49 44
1930.0 43 43 41 38 39 37 38 37 34 36
1970.0 37 32 29 26 27 28 26 28 32 36
2010.0 40 47 53 54 54 56 55 51 50 46
2050.0 45 43 39 42 42 40 33 33 28 28
2090.0 26 24 26 25 26 25 28 29 25 24
2130.0 27 24 24 24 26 23 23 23 21 20
2170.0 17 17 16 14 15 14 12 12 11 11
2210.0 12 11 11 11 11 9 11 13 12 16
2250.0 15 15 15 15 16 17 16 20 22 21
2290.0 28 28 33 37 43 47 46 43 49 48
2330.0 52 52 41 61 62 58 64 52 48 57
2370.0 56 62 52 48 34 29 21 22 20 20
2410.0 20 21 21 18 17 14 17 14 15 13
2450.0 14 16 11 12 13 14 13 10 11 11
2490.0 6 6 7 11 5 4 6 6 5 3
2530.0 4 3 3 5 8 6 7 4 3 5
2570.0 6 9 10 9 8 9 7 8 7 6
2610.0 6 6 6 5 3 3 2 1 0 1
2650.0 0 2 5 4 6 8 8 10 14 13
2690.0 16 20 23 26 29 31 42 51 58 72
2730.0 93 136 190 235 257 242 208 176 146 128
2770.0 123 126 127 130 126 119 122 124 134 147
2810.0 159 178 197 224 247 267 296 329 383 450
2850.0 554 692 901 1187 1508 1815 2053 2233 2354 2401
2890.0 2366 2304 2236 2217 2258 2418 2708 3102 3510 3813
2930.0 3970 3988 3938 3812 3712 3866 4184 4280 3923 3441
2970.0 3272 3391 3706 4024 4041 3646 3047 2523 2113 1753
3010.0 1436 1198 1022 905 827 777 751 747 746 710
3050.0 632 528 443 388 344 310 276 245 226 214
3090.0 196 185 176 169 165 158 155 145 136 128
3130.0 119 111 110 96 99 96 86 86 78 78
3170.0 70 70 64 56 52 51 45 42 39 32
3210.0 32 33 27 20 22 20 18 20 14 15
3250.0 18 10 6 11 11 12 10 6 5 14
3290.0 13 10 12 10 8 11 13 14 15 16
3330.0 12 15 17 16 11 15 16 18 15 10
3370.0 16 20 18 14 21 19 17 21 16 15
3410.0 15 19 12 15 14 18 16 18 18 32
3450.0 32 49 59 63 64 50 27 19 11 7
3490.0 0 4 10 6 4 7 3 5 2 9
3530.0 2 4 10 7 7 5 2 8 11 12
3570.0 18 12 9 10 5 9 6 9 5 8
3610.0 6 4 6 12 11 9 7 15 16 10
3650.0 14 11 12 1 0 3 4 6 7 7
3690.0 11 13 5 2 10 3 7 10 18 11
3730.0 10 7 11 15 10 10 20 16 14 10
3770.0 6 12 12 7 9 10 9 15 15 20
3810.0 25 21 14 28 6 9 18 16 17 16
3850.0 13 20 27 17 19 21 24 22 13 16
3890.0 21 5 12 15 28 21 18 17 19 29
3930.0 23 15 13 10 13 21 10 20 11 25
##END=
