##TITLE=Eugenol
##JCAMP-DX=4.24
##DATA TYPE=INFRARED SPECTRUM
##ORIGIN=Sadtler Research Labs Under US-EPA Contract
##OWNER=NIST Standard Reference Data Program
##CAS REGISTRY NO=97-53-0
##MOLFORM=C 10 H 12 O 2
##XUNITS=1/CM
##YUNITS=ABSORBANCE
##XFACTOR=1.0
##YFACTOR=0.000065918
##DELTAX=4.0
##FIRSTX=450.0
##LASTX=3966.0
##FIRSTY=0.041265
##MAXX=3966
##MINX=450
##MAXY=0.65918
##MINY=0
##NPOINTS=880
##XYDATA=(X++(Y..Y))
450.0 626 688 603 503 448 327 304 160 175 128
490.0 179 81 123 61 85 66 112 123 152 113
530.0 145 152 238 300 492 523 630 460 459 332
570.0 306 155 264 218 327 286 343 247 309 173
610.0 239 167 195 178 204 234 345 389 379 354
650.0 323 248 188 133 109 65 144 72 75 93
690.0 75 16 110 82 106 57 134 152 259 284
730.0 338 444 729 694 763 694 541 412 354 340
770.0 349 432 511 736 1065 1380 1587 1486 1242 1091
810.0 1149 1300 1379 1174 888 635 521 457 520 551
850.0 566 555 513 446 385 361 342 369 365 450
890.0 500 605 709 842 1094 1432 1610 1605 1331 950
930.0 720 618 594 592 571 535 465 401 343 323
970.0 334 391 451 574 759 980 1007 970 785 668
1010.0 621 756 915 1214 1501 1824 2014 2149 2025 1759
1050.0 1387 1007 634 440 327 296 241 276 268 294
1090.0 310 381 446 575 709 982 1318 1669 1797 1856
1130.0 1720 1677 1808 2166 2451 2543 2331 1974 1546 1341
1170.0 1250 1303 1369 1488 1593 1733 1962 2328 2718 3129
1210.0 3144 2997 2783 2942 3539 4631 5470 5928 5505 4709
1250.0 3931 3923 4686 6093 7452 8348 7524 6019 4205 2973
1290.0 2237 1769 1430 1188 989 871 751 686 615 581
1330.0 543 547 531 596 696 923 1182 1488 1704 1813
1370.0 1724 1521 1194 873 598 436 359 323 341 372
1410.0 456 568 776 1082 1478 1865 2085 2032 1712 1382
1450.0 1209 1242 1398 1516 1625 1642 1537 1354 1122 1074
1490.0 1249 1690 2547 4035 6240 8895 10000 8900 6447 3711
1530.0 2012 1207 827 576 447 347 299 275 232 231
1570.0 232 246 265 320 389 513 699 927 1147 1250
1610.0 1285 1197 1051 894 773 672 710 758 777 661
1650.0 481 290 200 154 153 137 134 120 132 113
1690.0 119 111 127 118 151 156 166 164 149 110
1730.0 100 79 83 76 97 75 82 60 60 46
1770.0 59 45 54 52 65 61 70 61 69 61
1810.0 70 70 86 101 139 163 179 165 166 134
1850.0 137 116 130 122 124 99 91 63 57 39
1890.0 50 36 35 35 33 27 34 27 28 25
1930.0 28 25 21 21 20 16 18 22 27 29
1970.0 44 43 45 41 44 38 38 29 33 31
2010.0 37 45 45 44 45 59 53 64 63 73
2050.0 71 85 78 95 80 79 67 69 62 52
2090.0 41 37 27 21 17 13 10 10 10 17
2130.0 10 11 11 17 12 19 12 23 18 28
2170.0 17 36 25 27 19 27 20 27 14 18
2210.0 13 10 7 12 6 6 0 7 7 7
2250.0 7 15 6 17 6 17 8 14 7 23
2290.0 16 31 32 47 47 67 55 59 57 72
2330.0 60 73 64 79 65 57 48 68 71 81
2370.0 39 64 45 48 31 42 35 35 37 37
2410.0 28 36 20 28 14 19 15 11 10 8
2450.0 15 15 16 24 31 33 37 44 39 38
2490.0 44 50 41 54 56 55 48 56 48 50
2530.0 48 53 40 40 47 34 36 27 28 20
2570.0 27 14 19 15 18 17 14 11 23 18
2610.0 23 22 30 30 29 31 36 41 43 30
2650.0 28 20 18 17 16 10 17 11 24 10
2690.0 28 14 25 29 44 29 51 41 51 49
2730.0 57 51 56 45 52 42 48 44 45 39
2770.0 46 46 53 46 69 62 85 77 106 110
2810.0 149 163 206 215 268 320 419 535 713 860
2850.0 976 959 902 763 627 515 475 451 475 499
2890.0 560 614 717 843 1019 1147 1275 1318 1326 1258
2930.0 1201 1121 1155 1233 1395 1463 1518 1459 1363 1235
2970.0 1086 968 911 919 938 935 933 969 1146 1409
3010.0 1578 1520 1263 923 719 648 674 697 746 757
3050.0 800 810 841 848 841 807 770 763 790 884
3090.0 879 739 546 390 262 215 178 175 135 121
3130.0 97 100 83 73 59 49 52 47 38 40
3170.0 40 39 39 38 36 41 33 41 21 35
3210.0 19 34 19 34 13 40 15 23 13 28
3250.0 15 22 19 30 21 30 23 38 30 40
3290.0 30 40 31 35 26 29 13 33 4 33
3330.0 3 27 4 34 6 25 3 20 9 20
3370.0 13 23 15 22 7 30 7 20 21 26
3410.0 21 26 12 23 11 31 18 26 17 23
3450.0 8 34 15 32 13 35 19 26 21 28
3490.0 14 13 22 21 19 26 26 26 35 33
3530.0 42 41 54 61 83 94 113 155 211 312
3570.0 490 817 1382 2243 3170 3889 3978 3359 2402 1482
3610.0 793 442 271 164 134 101 95 77 85 94
3650.0 128 121 111 75 59 26 36 32 24 22
3690.0 21 21 27 18 19 20 19 13 15 6
3730.0 13 4 15 6 12 0 20 0 14 1
3770.0 14 8 15 6 21 16 20 9 10 1
3810.0 11 11 11 11 27 8 16 1 21 8
3850.0 15 15 25 15 20 21 29 27 46 34
3890.0 49 24 33 10 15 7 31 17 16 18
3930.0 18 24 35 38 34 31 10 11 11 11
##END=
