##TITLE=2-Propenoic acid, 2-methyl-, ethyl ester
##JCAMP-DX=4.24
##DATA TYPE=INFRARED SPECTRUM
##ORIGIN=Sadtler Research Labs Under US-EPA Contract
##OWNER=NIST Standard Reference Data Program
##CAS REGISTRY NO=97-63-2
##MOLFORM=C 6 H 10 O 2
##XUNITS=1/CM
##YUNITS=ABSORBANCE
##XFACTOR=1.0
##YFACTOR=0.000212512
##DELTAX=4.0
##FIRSTX=450.0
##LASTX=3966.0
##FIRSTY=0.008926
##MAXX=3966
##MINX=450
##MAXY=2.12512
##MINY=0
##NPOINTS=880
##XYDATA=(X++(Y..Y))
450.0 42 53 106 126 38 74 42 39 13 55
490.0 15 26 42 124 111 101 69 69 103 91
530.0 52 43 43 26 46 57 13 63 60 70
570.0 84 83 76 115 143 155 184 173 154 123
610.0 95 60 72 60 62 82 96 122 147 181
650.0 197 233 206 167 160 124 123 103 84 58
690.0 37 37 33 35 34 46 17 39 27 11
730.0 41 38 62 53 6 11 33 45 71 78
770.0 99 100 135 149 174 212 247 282 350 429
810.0 479 493 439 404 346 298 253 235 216 236
850.0 255 259 267 269 279 286 275 267 242 215
890.0 167 138 124 122 143 173 253 364 500 670
930.0 842 1058 1258 1157 1019 812 632 469 326 230
970.0 181 150 147 142 159 179 212 263 318 397
1010.0 486 590 727 899 1112 1320 1453 1461 1368 1158
1050.0 879 618 437 337 287 260 256 267 300 355
1090.0 436 514 568 594 601 595 575 587 629 725
1130.0 890 1197 1694 2512 3797 5587 7506 8989 9962 10000
1170.0 9696 8694 7545 6438 5288 4308 3365 2557 1903 1418
1210.0 1098 864 694 558 457 394 350 318 291 274
1250.0 273 271 289 313 363 447 576 807 1204 1806
1290.0 2506 3013 3256 3443 3501 3364 3287 3446 3358 3079
1330.0 2564 1537 756 424 329 299 321 411 556 686
1370.0 781 878 917 836 780 776 786 818 871 902
1410.0 904 849 771 664 577 547 559 609 676 767
1450.0 896 1002 1049 1070 1072 995 880 759 636 532
1490.0 411 322 258 210 184 163 146 131 127 116
1530.0 107 104 102 101 97 97 95 100 94 96
1570.0 100 109 112 114 123 129 132 152 166 197
1610.0 236 270 335 394 475 576 671 728 708 669
1650.0 609 480 326 236 192 175 187 203 228 272
1690.0 297 325 381 451 581 809 1204 1850 2785 4008
1730.0 5377 5990 6562 6467 6003 5144 3511 2303 1410 836
1770.0 518 359 283 249 235 231 224 203 184 155
1810.0 131 112 88 78 67 58 52 42 45 46
1850.0 46 53 62 82 97 117 129 137 144 142
1890.0 133 123 107 95 84 78 74 64 59 50
1930.0 41 39 34 30 29 27 28 25 27 28
1970.0 28 27 25 27 27 30 34 37 40 45
2010.0 48 53 55 56 57 55 51 48 43 38
2050.0 33 31 27 24 24 20 21 19 19 20
2090.0 19 19 16 15 15 16 15 13 13 12
2130.0 12 16 15 14 16 15 17 16 15 16
2170.0 14 16 15 14 12 9 7 5 2 4
2210.0 2 3 4 6 6 8 10 10 12 10
2250.0 10 12 10 11 11 11 9 7 7 6
2290.0 4 6 5 8 12 10 15 17 24 24
2330.0 24 26 21 25 13 19 6 8 0 0
2370.0 0 0 2 2 3 1 3 3 6 6
2410.0 6 8 9 10 10 9 8 10 9 11
2450.0 11 9 14 14 16 16 16 15 15 15
2490.0 14 12 10 7 7 7 5 3 2 4
2530.0 4 4 6 6 7 5 5 5 5 5
2570.0 6 7 9 8 10 11 8 8 8 5
2610.0 2 3 2 3 4 2 3 2 1 2
2650.0 3 0 2 2 3 4 5 8 6 8
2690.0 9 9 9 9 9 9 8 10 12 16
2730.0 21 24 26 31 33 34 34 37 35 35
2770.0 37 37 40 39 42 41 40 42 45 47
2810.0 52 56 62 63 73 75 79 89 94 107
2850.0 122 138 162 184 209 238 271 324 365 395
2890.0 423 445 467 477 501 531 546 559 585 651
2930.0 774 946 1101 1187 1243 1238 1150 1087 1067 1145
2970.0 1313 1534 1819 2136 2221 2241 2257 1999 1560 1236
3010.0 1031 848 671 532 434 361 309 267 232 209
3050.0 193 182 165 152 134 113 98 91 90 89
3090.0 101 115 141 185 221 227 216 205 159 104
3130.0 61 49 45 41 36 39 36 34 36 30
3170.0 26 25 21 23 17 17 18 15 13 13
3210.0 14 15 13 14 10 14 15 11 11 10
3250.0 6 10 7 10 8 8 8 7 8 3
3290.0 6 5 7 3 6 3 8 5 6 8
3330.0 10 12 9 11 8 9 14 13 15 17
3370.0 17 16 16 18 18 17 15 12 9 9
3410.0 12 13 14 16 17 20 30 38 43 57
3450.0 66 70 77 80 74 62 51 40 30 17
3490.0 19 15 13 13 4 8 5 8 10 10
3530.0 6 14 7 7 7 9 5 2 4 5
3570.0 10 9 4 6 9 12 12 5 8 10
3610.0 9 5 5 9 5 12 8 10 5 5
3650.0 1 12 3 2 6 5 10 1 5 2
3690.0 0 1 7 6 10 4 7 0 12 7
3730.0 5 19 0 12 0 8 4 9 8 10
3770.0 10 9 10 6 8 12 8 10 0 2
3810.0 4 8 6 0 5 3 12 9 3 2
3850.0 4 1 0 0 11 0 17 0 0 8
3890.0 7 6 10 4 3 9 0 12 13 9
3930.0 3 6 2 26 4 0 10 14 6 11
##END=
