##TITLE=Propanoic acid, 2-methyl-, ethyl ester
##JCAMP-DX=4.24
##DATA TYPE=INFRARED SPECTRUM
##ORIGIN=Sadtler Research Labs Under US-EPA Contract
##OWNER=NIST Standard Reference Data Program
##CAS REGISTRY NO=97-62-1
##MOLFORM=C 6 H 12 O 2
##XUNITS=1/CM
##YUNITS=ABSORBANCE
##XFACTOR=1.0
##YFACTOR=0.000063647
##DELTAX=4.0
##FIRSTX=450.0
##LASTX=3966.0
##FIRSTY=0.005983
##MAXX=3966
##MINX=450
##MAXY=0.63647
##MINY=0
##NPOINTS=880
##XYDATA=(X++(Y..Y))
450.0 94 111 93 79 71 84 88 87 109 91
490.0 92 70 76 57 49 64 85 92 112 101
530.0 128 118 78 3 12 6 35 59 91 90
570.0 104 70 90 113 128 111 119 113 121 121
610.0 107 115 97 99 109 103 98 90 97 63
650.0 73 70 60 45 21 57 19 31 27 28
690.0 25 21 27 17 34 30 28 29 28 44
730.0 78 87 118 155 193 241 299 334 352 370
770.0 361 346 330 306 296 272 240 206 178 160
810.0 137 128 137 152 174 199 230 255 296 339
850.0 395 450 512 536 519 471 394 280 200 144
890.0 121 112 108 121 140 164 192 216 236 244
930.0 237 230 207 182 159 142 135 130 132 145
970.0 149 156 163 151 152 160 176 192 233 300
1010.0 411 592 834 1153 1448 1650 1698 1623 1406 1149
1050.0 975 956 1070 1292 1660 2127 2626 3044 3344 3496
1090.0 3525 3388 3220 3092 2977 2786 2713 2765 2902 3115
1130.0 3392 3809 4443 5464 6972 8512 9565 9859 9492 8574
1170.0 7234 6084 5774 6392 7439 8159 8339 7905 6798 5305
1210.0 3994 3152 2636 2318 2159 2094 2115 2241 2491 2878
1250.0 3297 3655 3781 3615 3184 2556 1862 1343 1027 871
1290.0 821 850 920 971 990 994 974 966 1004 1126
1330.0 1334 1629 1921 2055 2013 1839 1573 1319 1222 1296
1370.0 1475 1665 1887 2060 2099 1992 1853 1654 1235 920
1410.0 712 577 536 472 495 540 623 721 823 952
1450.0 1065 1202 1336 1534 1867 2242 2298 2250 2025 1625
1490.0 1092 729 537 415 361 287 261 233 211 185
1530.0 171 159 157 141 129 118 128 129 94 91
1570.0 88 94 78 84 70 73 65 59 64 66
1610.0 63 66 74 66 73 63 88 80 75 86
1650.0 97 95 86 92 111 125 144 154 197 218
1690.0 247 290 360 415 491 599 746 969 1272 1755
1730.0 2502 3600 5208 6926 8450 9485 10000 9848 9002 7417
1770.0 5386 3591 2377 1587 1114 843 650 527 416 337
1810.0 281 226 185 157 134 121 110 94 99 88
1850.0 82 70 71 71 73 71 65 71 74 79
1890.0 80 84 74 65 57 57 58 50 51 48
1930.0 55 61 64 61 66 59 56 56 55 48
1970.0 55 46 55 53 49 57 57 59 61 66
2010.0 68 76 78 78 78 78 69 68 63 54
2050.0 53 55 45 47 41 31 24 24 23 32
2090.0 32 31 37 28 24 24 14 25 15 16
2130.0 16 8 8 1 7 7 7 9 8 3
2170.0 9 9 8 7 7 1 0 0 0 0
2210.0 3 7 7 7 15 15 22 22 23 15
2250.0 15 13 17 16 16 15 15 15 24 20
2290.0 22 28 34 35 35 40 41 39 43 34
2330.0 41 40 39 38 31 24 39 28 17 11
2370.0 0 0 4 14 14 25 25 25 25 25
2410.0 24 24 23 17 17 17 12 19 10 16
2450.0 17 18 18 10 18 18 18 17 17 16
2490.0 21 17 13 17 19 10 11 11 10 13
2530.0 9 16 14 18 13 11 11 11 11 12
2570.0 18 18 18 19 19 23 18 23 20 21
2610.0 28 28 19 20 19 18 19 12 15 10
2650.0 11 21 17 19 20 12 20 20 13 13
2690.0 13 13 13 13 13 19 17 29 35 43
2730.0 52 59 67 75 75 74 84 78 82 90
2770.0 89 99 97 97 98 91 90 99 100 115
2810.0 127 133 154 167 174 184 191 191 200 216
2850.0 240 272 313 367 453 600 824 1124 1405 1588
2890.0 1711 1735 1686 1610 1588 1622 1674 1742 1823 1917
2930.0 2064 2278 2549 2829 3054 3181 3178 3136 3158 3401
2970.0 4024 5034 6042 6756 7027 6741 5785 4626 3488 2606
3010.0 1961 1455 1062 769 564 411 317 263 213 187
3050.0 165 140 140 132 116 109 107 107 102 103
3090.0 103 99 101 102 93 94 94 87 84 90
3130.0 86 86 87 87 78 87 87 87 87 96
3170.0 87 103 101 98 94 91 86 85 89 86
3210.0 80 71 71 64 56 41 41 39 32 19
3250.0 24 19 19 19 12 19 26 20 11 20
3290.0 26 11 10 16 18 12 4 19 11 12
3330.0 12 20 26 18 16 15 11 21 18 12
3370.0 19 20 20 20 20 19 13 12 16 12
3410.0 20 20 20 21 13 12 14 14 20 13
3450.0 23 28 31 43 52 66 77 107 113 114
3490.0 123 129 114 79 52 51 23 26 10 20
3530.0 9 5 15 23 25 14 25 42 66 81
3570.0 97 101 117 110 94 96 85 48 38 30
3610.0 32 19 14 24 25 21 41 32 31 25
3650.0 35 26 16 17 33 38 31 25 32 20
3690.0 27 28 23 32 25 18 35 32 24 22
3730.0 24 27 21 27 25 17 31 31 37 28
3770.0 21 13 18 22 21 20 11 6 14 18
3810.0 20 17 13 20 26 23 24 19 22 33
3850.0 29 30 25 17 19 18 18 7 10 10
3890.0 15 26 26 24 24 20 28 28 14 13
3930.0 4 12 11 0 0 4 11 12 16 24
##END=
