##TITLE=1,3-Butanediamine, N,N,N',N'-tetramethyl-
##JCAMP-DX=4.24
##DATA TYPE=INFRARED SPECTRUM
##ORIGIN=Sadtler Research Labs Under US-EPA Contract
##OWNER=NIST Standard Reference Data Program
##CAS REGISTRY NO=97-84-7
##MOLFORM=C 8 H 20 N 2
##XUNITS=1/CM
##YUNITS=ABSORBANCE
##XFACTOR=1.0
##YFACTOR=0.000060156
##DELTAX=4.0
##FIRSTX=450.0
##LASTX=3966.0
##FIRSTY=0.015159
##MAXX=3966
##MINX=450
##MAXY=0.60156
##MINY=0
##NPOINTS=880
##XYDATA=(X++(Y..Y))
450.0 252 307 316 279 238 164 124 90 104 134
490.0 160 159 229 266 267 321 349 326 298 262
530.0 196 188 103 141 132 110 171 152 227 219
570.0 194 179 154 121 151 157 136 204 160 158
610.0 111 120 109 119 101 36 99 69 34 65
650.0 91 109 105 101 102 170 156 120 139 160
690.0 175 152 162 161 146 204 220 245 228 206
730.0 269 218 245 254 302 301 338 366 365 345
770.0 411 420 445 461 454 383 325 274 275 239
810.0 244 318 331 322 399 434 502 574 589 565
850.0 543 458 385 342 294 287 320 344 371 431
890.0 481 531 566 539 486 412 341 323 306 296
930.0 303 374 424 534 632 664 665 638 649 673
970.0 711 837 954 1071 1209 1278 1345 1411 1437 1454
1010.0 1386 1262 1115 968 966 1129 1504 1906 2403 2719
1050.0 2778 2709 2483 2241 1984 1763 1572 1449 1340 1327
1090.0 1385 1465 1476 1434 1331 1195 1177 1202 1292 1360
1130.0 1350 1305 1242 1248 1375 1593 1788 1864 1773 1598
1170.0 1415 1319 1270 1232 1187 1120 1103 1098 1131 1181
1210.0 1214 1237 1159 1054 925 832 794 825 930 1078
1250.0 1253 1436 1680 1877 2039 2125 2039 1853 1595 1376
1290.0 1184 1049 970 950 908 860 786 701 641 609
1330.0 630 659 723 743 738 726 794 931 1171 1454
1370.0 1742 1964 1994 1898 1627 1248 905 683 556 498
1410.0 473 463 471 484 584 736 978 1289 1681 2067
1450.0 2464 2867 3176 3366 3274 2955 2447 1946 1478 1073
1490.0 775 596 461 414 320 302 282 252 215 211
1530.0 203 170 159 113 154 158 132 88 93 124
1570.0 113 123 96 125 133 133 123 125 123 126
1610.0 118 119 77 109 103 104 84 85 113 95
1650.0 105 37 118 124 123 112 127 131 146 117
1690.0 180 231 270 347 420 415 368 238 215 192
1730.0 167 120 120 121 131 105 104 103 87 96
1770.0 82 63 78 78 77 78 59 76 75 68
1810.0 75 74 82 84 83 72 82 81 76 63
1850.0 73 72 63 64 64 55 62 62 62 62
1890.0 62 62 60 70 60 60 60 59 60 50
1930.0 50 49 46 41 40 39 43 40 39 48
1970.0 47 56 55 55 57 65 70 65 62 61
2010.0 61 61 61 59 67 61 59 66 66 66
2050.0 66 75 65 65 65 65 65 65 64 63
2090.0 63 69 63 53 53 48 50 46 45 44
2130.0 51 51 51 51 51 51 40 50 45 41
2170.0 35 33 33 39 31 39 39 30 32 38
2210.0 38 37 37 36 39 36 37 36 44 43
2250.0 36 43 33 31 35 34 34 32 32 32
2290.0 32 32 31 31 31 31 31 24 26 23
2330.0 18 18 18 18 18 23 18 34 23 43
2370.0 33 41 45 50 50 50 50 52 51 52
2410.0 60 70 62 69 69 75 75 78 72 73
2450.0 70 71 80 79 78 81 80 90 93 101
2490.0 119 135 148 147 156 157 156 149 148 158
2530.0 160 162 158 159 159 159 159 159 159 152
2570.0 159 161 168 180 188 206 213 228 233 241
2610.0 243 252 259 253 253 254 261 263 279 287
2650.0 300 314 325 336 359 369 394 412 438 457
2690.0 500 545 605 685 798 911 1042 1198 1343 1488
2730.0 1633 1768 1911 2050 2226 2503 2958 3784 5083 6764
2770.0 8510 9597 10000 9592 8896 8017 6988 5950 5082 4535
2810.0 4455 4853 5620 6353 6546 5978 4878 3791 3062 2745
2850.0 2698 2840 3108 3406 3594 3640 3560 3457 3409 3413
2890.0 3488 3565 3606 3620 3623 3632 3719 3903 4270 4858
2930.0 5685 6715 7754 8633 8951 8878 8528 8165 8144 8722
2970.0 9472 9803 9331 8092 6314 4636 3207 2168 1555 1177
3010.0 904 717 613 523 457 410 379 353 336 312
3050.0 296 295 294 277 271 273 268 260 251 253
3090.0 240 227 209 201 192 184 176 169 161 167
3130.0 161 166 164 164 161 171 163 171 180 180
3170.0 163 163 163 171 162 148 149 140 140 134
3210.0 126 125 108 109 109 101 87 90 82 73
3250.0 66 60 53 38 38 47 46 47 39 48
3290.0 45 52 57 48 47 50 51 49 51 50
3330.0 50 42 35 42 40 36 35 44 45 32
3370.0 44 53 52 45 62 48 54 50 55 51
3410.0 47 33 38 29 41 40 31 40 39 40
3450.0 43 35 35 50 50 51 41 44 43 35
3490.0 36 28 19 27 21 21 21 25 28 39
3530.0 35 37 38 47 56 47 46 40 40 39
3570.0 37 29 24 23 25 27 18 33 25 26
3610.0 35 45 61 54 55 50 56 59 54 53
3650.0 29 37 46 52 53 35 32 28 45 67
3690.0 51 65 71 72 73 64 75 81 84 84
3730.0 87 69 76 66 68 68 82 92 93 118
3770.0 118 119 125 138 140 141 136 127 112 127
3810.0 127 121 113 120 128 131 121 120 144 152
3850.0 156 153 177 182 180 173 174 173 166 157
3890.0 149 137 133 129 126 133 135 142 159 160
3930.0 177 195 203 210 221 238 0 17 18 18
##END=
