##TITLE=2-Propenoic acid, 2-methyl-, butyl ester
##JCAMP-DX=4.24
##DATA TYPE=INFRARED SPECTRUM
##ORIGIN=Sadtler Research Labs Under US-EPA Contract
##OWNER=NIST Standard Reference Data Program
##CAS REGISTRY NO=97-88-1
##MOLFORM=C 8 H 14 O 2
##XUNITS=1/CM
##YUNITS=ABSORBANCE
##XFACTOR=1.0
##YFACTOR=0.000143170
##DELTAX=4.0
##FIRSTX=450.0
##LASTX=3966.0
##FIRSTY=0.000000
##MAXX=3966
##MINX=450
##MAXY=1.4317
##MINY=0
##NPOINTS=880
##XYDATA=(X++(Y..Y))
450.0 0 106 133 112 182 137 148 137 156 147
490.0 148 158 138 173 159 179 155 168 65 291
530.0 209 197 169 134 162 154 145 88 211 52
570.0 336 285 80 181 122 188 202 203 194 158
610.0 159 103 117 84 125 100 147 151 176 201
650.0 212 200 176 186 138 140 108 97 69 74
690.0 66 70 63 55 71 68 79 59 80 72
730.0 94 99 121 137 139 145 126 142 107 82
770.0 97 106 98 108 121 137 184 219 287 363
810.0 408 393 499 388 370 310 286 262 252 252
850.0 223 209 193 171 157 170 156 159 153 153
890.0 157 152 183 189 223 238 293 373 508 697
930.0 904 1112 1199 1147 967 771 610 521 473 450
970.0 423 411 388 363 342 328 344 368 444 558
1010.0 701 809 870 820 705 588 439 333 262 230
1050.0 250 328 413 479 527 515 458 389 343 309
1090.0 310 315 336 355 388 442 515 598 669 772
1130.0 908 1155 1550 2219 3253 4751 6704 8571 9938 10000
1170.0 9336 7689 6105 4665 3554 2720 2108 1650 1277 1017
1210.0 816 677 565 510 469 457 453 457 453 438
1250.0 422 409 415 418 452 482 551 673 926 1403
1290.0 2119 2797 3076 3020 2606 2369 2588 2895 2926 2588
1330.0 1954 1301 890 655 518 448 416 381 366 358
1370.0 364 395 446 498 550 585 613 685 781 852
1410.0 851 767 615 517 465 465 496 544 609 682
1450.0 816 967 1109 1175 1154 1054 911 755 596 449
1490.0 341 275 225 189 173 144 131 131 126 127
1530.0 116 124 116 121 104 111 104 113 117 111
1570.0 116 125 136 133 147 142 146 159 170 195
1610.0 212 248 281 344 381 467 540 638 639 605
1650.0 496 380 264 201 194 182 195 219 239 274
1690.0 297 330 346 397 438 590 795 1274 1978 3075
1730.0 4391 5504 6131 5865 4908 3538 2230 1357 773 512
1770.0 357 298 249 247 246 236 241 210 192 154
1810.0 143 120 110 93 90 88 76 83 76 85
1850.0 76 97 96 107 111 124 139 141 150 137
1890.0 129 112 107 89 91 90 83 79 74 78
1930.0 74 79 78 76 69 73 72 70 70 69
1970.0 73 70 75 76 80 71 76 78 81 77
2010.0 81 74 65 66 61 63 56 58 53 57
2050.0 55 54 53 52 52 52 55 54 60 58
2090.0 61 66 63 64 64 65 61 64 60 59
2130.0 58 60 56 52 52 48 51 46 51 48
2170.0 49 45 52 50 49 49 47 48 42 43
2210.0 42 44 46 48 48 48 49 52 49 50
2250.0 50 49 52 49 49 49 50 49 46 50
2290.0 50 53 54 62 63 67 70 68 71 73
2330.0 72 72 70 67 66 55 70 60 60 40
2370.0 41 45 42 49 49 53 52 51 55 54
2410.0 53 53 54 50 52 53 54 51 54 51
2450.0 51 55 56 58 55 62 55 59 57 59
2490.0 53 51 52 50 50 49 54 48 52 52
2530.0 57 54 55 58 59 62 63 63 63 65
2570.0 61 64 60 65 65 62 64 62 60 62
2610.0 62 58 61 54 60 60 58 59 59 60
2650.0 58 58 59 70 67 70 69 74 75 70
2690.0 73 69 78 76 82 80 76 77 75 75
2730.0 77 87 88 102 100 104 105 96 93 88
2770.0 93 93 93 94 94 94 100 100 114 124
2810.0 133 143 149 155 159 173 187 209 232 280
2850.0 338 394 461 523 611 704 846 1001 1145 1209
2890.0 1192 1119 1024 987 993 1046 1126 1229 1322 1451
2930.0 1623 1877 2165 2384 2481 2450 2421 2507 2819 3185
2970.0 3492 3427 3027 2542 1982 1576 1263 990 786 657
3010.0 555 472 412 375 361 333 308 275 254 244
3050.0 241 227 212 195 166 149 148 139 134 140
3090.0 138 143 169 197 233 265 247 219 145 102
3130.0 100 89 97 94 83 91 88 88 78 77
3170.0 74 69 73 78 76 74 71 76 75 75
3210.0 74 70 68 65 65 68 65 59 63 66
3250.0 58 61 56 57 60 63 56 66 48 55
3290.0 55 65 55 47 60 51 64 58 70 65
3330.0 52 64 58 61 49 63 58 59 58 57
3370.0 49 51 57 65 56 55 53 52 59 49
3410.0 72 61 71 63 73 73 72 80 87 99
3450.0 108 106 101 107 110 95 105 84 78 72
3490.0 67 66 57 57 45 47 77 51 71 76
3530.0 61 74 63 84 45 51 64 63 42 45
3570.0 58 87 63 65 60 69 68 78 71 62
3610.0 80 70 72 70 60 87 89 92 89 87
3650.0 82 79 94 87 91 89 77 79 79 100
3690.0 99 89 88 87 66 90 90 92 88 87
3730.0 90 96 84 80 100 75 78 82 81 77
3770.0 54 81 54 92 98 102 83 98 105 74
3810.0 91 110 88 115 92 94 114 85 77 80
3850.0 99 129 102 91 95 103 78 92 88 112
3890.0 112 114 101 100 116 92 114 102 101 118
3930.0 107 106 131 185 141 102 89 65 126 104
##END=
