##TITLE=Propanoic acid, 2-methyl-, 2-methylpropyl ester
##JCAMP-DX=4.24
##DATA TYPE=INFRARED SPECTRUM
##ORIGIN=Sadtler Research Labs Under US-EPA Contract
##OWNER=NIST Standard Reference Data Program
##CAS REGISTRY NO=97-85-8
##MOLFORM=C 8 H 16 O 2
##XUNITS=1/CM
##YUNITS=ABSORBANCE
##XFACTOR=1.0
##YFACTOR=0.000098242
##DELTAX=4.0
##FIRSTX=450.0
##LASTX=3966.0
##FIRSTY=0.023775
##MAXX=3966
##MINX=450
##MAXY=0.98242
##MINY=0
##NPOINTS=880
##XYDATA=(X++(Y..Y))
450.0 242 224 331 309 287 197 80 32 8 100
490.0 173 289 296 305 114 147 218 303 363 305
530.0 375 299 338 329 352 343 210 181 227 519
570.0 461 637 360 344 135 423 451 369 484 375
610.0 371 266 364 371 469 269 343 328 312 399
650.0 314 350 187 224 322 305 279 302 355 278
690.0 271 191 305 163 275 356 305 325 234 366
730.0 281 312 333 387 378 411 525 543 499 442
770.0 486 339 357 420 470 510 354 362 392 373
810.0 448 592 517 498 367 428 446 391 480 366
850.0 375 274 373 397 366 346 348 357 353 450
890.0 468 533 493 580 613 600 613 654 710 694
930.0 682 706 669 624 661 697 652 637 608 663
970.0 628 655 749 811 995 1313 1741 2104 2222 1997
1010.0 1592 994 663 586 596 623 629 674 702 727
1050.0 842 1036 1251 1604 2107 2769 3214 3436 3318 2950
1090.0 2604 2434 2369 2428 2431 2531 2714 2867 3121 3414
1130.0 3700 4233 4842 5923 7222 8640 9445 9208 8179 6552
1170.0 5255 4463 4416 4987 6142 6875 7089 6298 4982 3707
1210.0 2895 2476 2301 2142 2084 2126 2253 2508 2812 3192
1250.0 3369 3353 3175 2787 2358 1903 1550 1353 1231 1179
1290.0 1138 1080 973 892 807 805 791 853 938 1053
1330.0 1217 1415 1634 1774 1831 1726 1570 1341 1267 1251
1370.0 1423 1609 1838 2084 2278 2236 2088 1764 1299 1011
1410.0 832 703 610 545 568 579 676 685 791 881
1450.0 1004 1230 1390 1746 2129 2544 2634 2572 2126 1558
1490.0 1029 742 536 452 449 387 408 346 317 272
1530.0 291 284 324 259 238 257 222 232 159 219
1570.0 223 216 205 211 229 192 198 201 210 183
1610.0 207 229 196 238 200 235 175 162 196 225
1650.0 219 193 219 203 195 196 258 235 282 252
1690.0 298 369 407 537 619 730 854 1025 1263 1603
1730.0 2103 2840 4028 5648 7683 9145 10000 9298 7684 5444
1770.0 3695 2602 2011 1597 1329 1183 937 770 587 508
1810.0 418 334 308 274 260 221 231 229 206 171
1850.0 160 153 139 173 173 179 123 145 137 138
1890.0 140 144 160 119 121 126 156 121 140 121
1930.0 120 114 118 163 137 133 134 135 110 124
1970.0 150 149 129 123 143 136 141 147 145 130
2010.0 102 138 119 125 109 123 101 100 101 121
2050.0 116 122 136 122 118 91 113 122 122 133
2090.0 132 106 99 99 115 116 99 105 92 84
2130.0 101 96 106 75 67 79 86 102 117 95
2170.0 88 69 72 94 86 94 79 73 61 71
2210.0 81 82 62 65 52 63 70 69 79 68
2250.0 54 62 56 66 77 77 88 76 82 78
2290.0 93 103 130 141 164 158 160 154 177 173
2330.0 170 138 171 146 165 219 237 127 30 82
2370.0 93 129 130 120 75 52 26 57 56 61
2410.0 61 42 44 46 52 61 34 40 37 31
2450.0 40 45 41 39 19 37 24 21 39 36
2490.0 44 18 41 30 26 14 44 30 29 21
2530.0 27 39 11 38 29 22 8 18 44 51
2570.0 45 50 36 10 25 45 75 64 38 48
2610.0 14 24 37 64 40 38 43 61 50 50
2650.0 67 32 42 21 79 56 59 59 51 37
2690.0 35 56 57 58 53 85 62 63 82 107
2730.0 138 123 163 154 140 144 161 156 135 142
2770.0 126 136 110 181 162 167 126 140 164 157
2810.0 202 225 241 203 236 243 281 275 305 332
2850.0 325 397 483 598 707 929 1320 1844 2353 2690
2890.0 2868 2679 2535 2354 2332 2259 2301 2386 2465 2623
2930.0 2774 3124 3397 3821 4185 4567 4761 5095 5534 6352
2970.0 7487 8328 8806 8192 6754 4955 3413 2364 1677 1223
3010.0 882 646 456 411 344 302 237 214 213 164
3050.0 193 153 152 109 124 125 146 143 152 129
3090.0 77 103 94 152 136 137 124 88 85 95
3130.0 113 116 121 124 123 95 109 133 106 132
3170.0 107 154 133 135 153 133 135 128 110 90
3210.0 116 90 129 64 81 38 44 58 76 86
3250.0 60 34 32 33 63 77 47 40 28 32
3290.0 75 79 78 52 17 27 31 68 71 82
3330.0 61 48 25 62 49 68 60 68 67 55
3370.0 64 56 54 44 48 53 74 64 75 63
3410.0 41 49 39 44 56 61 104 64 50 33
3450.0 29 53 73 112 118 66 58 103 128 157
3490.0 143 131 100 67 91 114 93 74 34 55
3530.0 13 62 98 91 60 70 80 110 161 201
3570.0 242 193 265 226 229 187 156 125 78 48
3610.0 49 68 70 50 69 52 45 26 77 71
3650.0 74 73 76 57 37 36 80 58 74 88
3690.0 38 65 41 88 66 39 8 37 38 39
3730.0 73 62 24 7 5 35 45 73 49 54
3770.0 5 37 62 66 45 34 52 38 43 62
3810.0 93 39 33 23 60 48 72 117 87 77
3850.0 55 38 20 65 81 112 88 75 67 25
3890.0 43 46 90 53 32 65 70 76 46 50
3930.0 19 22 40 111 109 96 0 5 5 5
##END=
