##TITLE=2-Propenoic acid, 2-methyl-, 2-methylpropyl ester
##JCAMP-DX=4.24
##DATA TYPE=INFRARED SPECTRUM
##ORIGIN=Sadtler Research Labs Under US-EPA Contract
##OWNER=NIST Standard Reference Data Program
##CAS REGISTRY NO=97-86-9
##MOLFORM=C 8 H 14 O 2
##XUNITS=1/CM
##YUNITS=ABSORBANCE
##XFACTOR=1.0
##YFACTOR=0.000172867
##DELTAX=4.0
##FIRSTX=450.0
##LASTX=3966.0
##FIRSTY=0.054280
##MAXX=3966
##MINX=450
##MAXY=1.72867
##MINY=0
##NPOINTS=880
##XYDATA=(X++(Y..Y))
450.0 314 205 113 189 140 140 96 106 32 140
490.0 187 161 117 112 133 101 127 124 119 117
530.0 121 124 166 149 156 170 140 153 119 130
570.0 114 123 162 199 196 168 173 191 183 167
610.0 155 109 98 92 94 99 98 148 160 156
650.0 172 165 158 152 122 106 92 74 58 49
690.0 37 23 24 27 28 36 23 35 21 32
730.0 23 12 37 42 42 41 40 45 43 37
770.0 40 39 49 51 71 121 156 217 301 381
810.0 477 515 480 408 329 254 204 162 132 123
850.0 113 117 113 123 148 139 131 124 123 124
890.0 122 128 151 176 221 274 353 456 598 778
930.0 993 1223 1360 1302 1112 836 615 469 387 333
970.0 305 294 303 378 530 702 828 934 1010 1148
1010.0 1393 1557 1629 1426 1046 679 368 227 182 154
1050.0 143 134 141 139 144 154 171 183 200 218
1090.0 239 262 293 323 356 402 460 531 631 776
1130.0 1007 1363 1926 2830 4229 6157 8108 9652 10000 9443
1170.0 8427 7077 5845 4767 3915 3121 2469 1927 1513 1190
1210.0 927 730 582 479 408 360 331 309 296 295
1250.0 303 316 337 362 403 471 580 778 1151 1768
1290.0 2457 2900 3029 2840 2425 2337 2618 2950 3000 2696
1330.0 1991 1167 713 591 539 494 441 406 433 532
1370.0 689 868 1020 1074 996 894 802 786 869 934
1410.0 937 864 711 580 502 476 479 502 554 627
1450.0 761 932 1106 1238 1292 1263 1138 962 763 559
1490.0 390 285 212 171 143 120 106 99 93 93
1530.0 86 86 81 75 74 72 72 66 70 73
1570.0 79 85 94 102 113 120 124 133 151 173
1610.0 198 231 262 309 356 432 524 618 637 604
1650.0 499 350 241 182 159 151 158 174 198 220
1690.0 253 279 298 339 397 531 748 1200 1952 3118
1730.0 4589 5774 6374 6271 5252 3824 2449 1480 856 530
1770.0 356 263 227 207 211 206 207 184 157 124
1810.0 102 84 71 65 56 56 52 54 45 45
1850.0 53 57 62 69 83 88 101 106 107 99
1890.0 85 71 58 51 42 41 37 37 35 38
1930.0 38 37 40 35 37 36 37 36 41 40
1970.0 44 45 45 41 37 33 33 35 34 33
2010.0 32 29 25 21 17 13 14 13 15 13
2050.0 14 13 9 5 0 3 5 10 20 28
2090.0 34 38 42 40 38 35 32 28 28 24
2130.0 22 21 20 19 15 14 13 12 9 8
2170.0 7 5 8 5 6 6 10 6 8 8
2210.0 9 6 8 8 9 9 11 11 9 10
2250.0 8 11 10 7 9 9 10 11 14 15
2290.0 20 23 22 25 31 35 36 39 32 38
2330.0 34 23 26 20 16 18 16 12 12 6
2370.0 1 6 5 9 10 8 8 10 8 7
2410.0 5 7 9 6 8 6 6 10 10 10
2450.0 7 11 10 9 12 15 13 15 12 13
2490.0 12 10 8 7 10 10 10 7 13 13
2530.0 14 18 17 18 17 19 18 20 14 15
2570.0 16 18 15 15 17 16 17 17 22 22
2610.0 21 20 22 26 27 25 28 26 23 22
2650.0 27 32 34 31 31 27 21 14 17 15
2690.0 16 24 24 29 33 32 36 37 42 49
2730.0 61 64 72 79 79 79 75 72 63 63
2770.0 59 61 60 65 63 66 72 75 77 82
2810.0 94 99 108 116 126 136 143 154 163 181
2850.0 198 219 251 293 357 462 626 870 1096 1235
2890.0 1295 1261 1195 1167 1146 1119 1102 1095 1095 1169
2930.0 1301 1533 1786 2007 2156 2224 2301 2506 2798 3320
2970.0 3959 4110 3998 3481 2643 1832 1236 887 656 533
3010.0 446 374 317 297 275 258 229 204 191 180
3050.0 177 169 159 146 129 112 100 102 97 101
3090.0 103 116 143 182 234 244 235 200 131 88
3130.0 82 79 77 74 70 72 67 65 68 70
3170.0 69 69 68 73 72 67 64 59 58 49
3210.0 56 43 48 40 37 36 27 38 34 29
3250.0 21 31 24 28 44 42 43 31 37 38
3290.0 26 30 24 22 23 22 24 28 27 29
3330.0 22 27 33 33 33 33 36 36 39 40
3370.0 37 39 32 34 37 38 30 29 28 28
3410.0 28 33 24 27 34 29 41 44 49 57
3450.0 70 77 90 85 77 74 61 52 37 36
3490.0 29 29 25 26 24 19 24 19 26 29
3530.0 21 22 19 21 14 26 18 24 27 20
3570.0 20 6 22 23 17 25 17 15 12 17
3610.0 19 13 23 16 14 12 10 19 19 20
3650.0 17 9 14 9 17 7 18 17 13 13
3690.0 13 11 15 19 18 17 11 19 16 16
3730.0 16 12 9 12 21 19 15 18 14 8
3770.0 2 10 11 13 12 9 17 13 14 21
3810.0 8 10 27 23 23 22 10 5 16 17
3850.0 16 24 22 21 34 21 7 0 5 8
3890.0 22 31 30 18 25 23 12 20 22 30
3930.0 14 3 9 3 15 8 17 9 20 1
##END=
