##TITLE=Propanoic acid, 2-methyl-, butyl ester
##JCAMP-DX=4.24
##DATA TYPE=INFRARED SPECTRUM
##ORIGIN=Sadtler Research Labs Under US-EPA Contract
##OWNER=NIST Standard Reference Data Program
##CAS REGISTRY NO=97-87-0
##MOLFORM=C 8 H 16 O 2
##XUNITS=1/CM
##YUNITS=ABSORBANCE
##XFACTOR=1.0
##YFACTOR=0.000057959
##DELTAX=4.0
##FIRSTX=450.0
##LASTX=3966.0
##FIRSTY=0.003999
##MAXX=3966
##MINX=450
##MAXY=0.57959
##MINY=0
##NPOINTS=880
##XYDATA=(X++(Y..Y))
450.0 69 46 40 4 8 19 60 65 65 93
490.0 158 157 116 152 194 151 192 180 191 171
530.0 149 142 167 115 144 125 146 121 165 142
570.0 126 173 151 159 159 279 227 178 246 188
610.0 203 194 176 217 205 214 201 191 237 192
650.0 190 211 150 140 129 214 191 192 206 161
690.0 188 174 212 208 211 232 192 226 218 258
730.0 279 325 359 424 408 450 438 459 432 405
770.0 379 358 358 340 323 324 311 310 331 348
810.0 361 340 361 414 379 457 455 471 496 494
850.0 467 410 364 339 317 299 297 331 373 375
890.0 409 390 398 393 439 414 430 424 414 414
930.0 432 429 463 507 614 654 679 665 650 682
970.0 671 692 664 607 573 509 544 572 647 662
1010.0 673 640 633 600 580 531 492 481 504 564
1050.0 696 902 1138 1470 1865 2358 2855 3219 3326 3146
1090.0 2818 2513 2303 2187 2171 2238 2414 2625 2791 2990
1130.0 3240 3615 4171 5037 6322 7739 9191 9525 8786 7276
1170.0 5669 4618 4437 5030 6139 6977 7098 6266 4906 3684
1210.0 2900 2455 2181 2049 2024 2086 2232 2451 2731 3051
1250.0 3314 3447 3377 3074 2624 2150 1713 1376 1134 956
1290.0 872 842 836 851 833 833 822 847 901 1000
1330.0 1166 1381 1630 1850 1923 1788 1553 1274 1081 982
1370.0 929 937 982 1102 1326 1552 1608 1486 1179 834
1410.0 638 540 493 471 497 533 612 678 791 898
1450.0 1012 1158 1315 1567 1842 2197 2309 2187 1818 1280
1490.0 858 636 480 417 342 304 304 272 238 243
1530.0 241 216 214 172 193 189 167 141 131 162
1570.0 147 151 143 150 161 160 150 150 149 147
1610.0 151 151 129 150 138 147 143 129 155 137
1650.0 139 102 168 162 169 157 174 188 214 203
1690.0 267 320 354 418 539 656 779 919 1169 1504
1730.0 2014 2795 4101 5864 7907 9506 10000 9183 7096 4864
1770.0 3133 2033 1440 1079 860 701 561 473 392 329
1810.0 275 240 205 186 164 151 147 138 133 120
1850.0 127 128 127 118 111 101 110 109 106 101
1890.0 105 104 107 107 107 107 106 98 96 106
1930.0 96 98 103 103 97 103 103 109 111 109
1970.0 110 101 107 107 110 99 103 107 106 100
2010.0 98 105 96 96 97 95 96 96 98 93
2050.0 94 89 84 95 84 83 83 83 82 90
2090.0 83 82 75 81 76 71 66 70 70 61
2130.0 70 61 61 61 59 59 55 60 59 59
2170.0 57 57 50 56 48 48 47 47 47 46
2210.0 46 46 45 45 45 44 44 44 44 42
2250.0 42 43 41 41 42 40 50 46 47 48
2290.0 56 56 55 55 63 72 69 62 61 57
2330.0 59 50 60 61 50 51 58 58 41 43
2370.0 45 54 48 47 48 38 38 39 37 29
2410.0 37 36 34 38 26 26 26 26 20 17
2450.0 23 17 16 15 16 14 14 12 9 13
2490.0 14 12 13 13 11 12 11 12 13 11
2530.0 11 12 12 12 13 13 13 21 21 21
2570.0 22 22 30 30 30 41 31 31 32 32
2610.0 32 31 23 24 24 24 25 27 29 31
2650.0 25 35 35 35 41 44 34 43 43 43
2690.0 43 54 44 49 53 54 60 60 71 79
2730.0 71 89 89 106 116 118 123 119 115 126
2770.0 115 116 117 124 126 117 128 140 146 164
2810.0 168 182 200 218 235 245 288 306 351 432
2850.0 519 629 747 872 1048 1287 1625 2052 2467 2687
2890.0 2694 2528 2283 2132 2120 2212 2368 2573 2779 3014
2930.0 3271 3629 4086 4576 4891 5016 5080 5200 5671 6337
2970.0 7189 7740 7696 7108 5985 4656 3424 2447 1774 1302
3010.0 974 750 575 467 392 339 304 268 250 214
3050.0 188 171 153 136 143 130 116 118 108 115
3090.0 94 102 97 97 96 87 87 87 88 87
3130.0 78 76 81 77 80 83 90 74 81 82
3170.0 74 84 81 82 92 97 85 86 83 75
3210.0 68 66 59 41 51 41 27 37 33 29
3250.0 30 28 25 24 19 27 27 18 18 26
3290.0 26 20 19 31 24 22 24 27 28 29
3330.0 30 21 29 22 22 22 17 22 28 31
3370.0 22 22 24 31 32 14 22 19 17 29
3410.0 25 25 16 16 26 26 35 35 27 24
3450.0 35 42 39 42 63 73 83 103 104 113
3490.0 112 97 78 68 45 37 38 43 33 20
3530.0 20 21 22 30 21 21 22 24 34 31
3570.0 35 49 54 51 43 24 33 32 24 25
3610.0 16 16 23 20 26 9 27 26 26 26
3650.0 9 18 19 26 27 15 11 4 19 29
3690.0 13 28 27 11 21 20 12 21 21 19
3730.0 13 15 8 18 3 3 5 15 23 15
3770.0 15 25 29 24 24 23 26 23 6 17
3810.0 16 24 16 26 27 35 24 22 32 36
3850.0 26 12 17 26 28 27 20 27 25 27
3890.0 30 33 38 28 35 38 37 29 21 21
3930.0 29 23 30 33 39 43 0 3 3 3
##END=
