##TITLE=2-Furanmethanol, tetrahydro-
##JCAMP-DX=4.24
##DATA TYPE=INFRARED SPECTRUM
##ORIGIN=Sadtler Research Labs Under US-EPA Contract
##OWNER=NIST Standard Reference Data Program
##CAS REGISTRY NO=97-99-4
##MOLFORM=C 5 H 10 O 2
##XUNITS=1/CM
##YUNITS=ABSORBANCE
##XFACTOR=1.0
##YFACTOR=0.000087646
##DELTAX=4.0
##FIRSTX=450.0
##LASTX=3966.0
##FIRSTY=0.000000
##MAXX=3966
##MINX=450
##MAXY=0.87646
##MINY=0
##NPOINTS=880
##XYDATA=(X++(Y..Y))
450.0 0 664 1106 1121 1108 838 1146 1135 1111 1142
490.0 1066 1091 1107 1057 947 1060 889 1041 646 803
530.0 630 1010 905 975 967 1056 983 926 967 927
570.0 981 964 952 950 914 966 918 952 935 971
610.0 954 980 985 987 1049 1072 1060 1059 1085 1044
650.0 1061 1006 973 965 931 926 927 929 899 905
690.0 908 922 882 912 892 892 878 886 863 862
730.0 872 842 846 842 864 832 845 866 865 851
770.0 916 956 923 957 994 1060 1140 1236 1363 1487
810.0 1538 1589 1662 1636 1643 1618 1567 1519 1512 1538
850.0 1535 1586 1611 1653 1663 1687 1679 1666 1646 1619
890.0 1617 1617 1632 1657 1701 1733 1765 1759 1786 1803
930.0 1785 1744 1700 1667 1641 1643 1644 1662 1687 1734
970.0 1786 1883 1968 2023 2070 2085 2107 2103 2117 2160
1010.0 2267 2451 2711 3061 3550 4239 5165 6252 7314 8252
1050.0 9026 9656 10000 9673 8935 8019 7394 6971 6575 6174
1090.0 5855 5566 5302 5053 4764 4346 3828 3307 2813 2393
1130.0 2042 1801 1642 1540 1458 1417 1402 1423 1467 1530
1170.0 1591 1643 1694 1719 1733 1737 1745 1751 1769 1775
1210.0 1771 1732 1671 1603 1513 1433 1353 1311 1268 1244
1250.0 1228 1212 1194 1183 1184 1172 1177 1182 1192 1195
1290.0 1196 1201 1203 1203 1206 1232 1265 1327 1406 1498
1330.0 1598 1742 1899 2051 2149 2169 2193 2220 2169 2034
1370.0 1920 1870 1876 1904 1961 2086 2206 2269 2211 2120
1410.0 1989 1822 1566 1307 1175 1088 1084 1079 1143 1214
1450.0 1326 1441 1512 1584 1579 1526 1457 1333 1184 1058
1490.0 967 886 845 820 778 767 763 741 719 718
1530.0 725 704 692 672 686 693 681 663 653 679
1570.0 678 679 668 680 680 678 681 676 681 679
1610.0 683 675 674 670 680 674 675 655 680 661
1650.0 666 647 661 675 670 665 669 670 676 657
1690.0 674 672 661 656 670 681 691 677 689 706
1730.0 710 716 727 754 781 781 769 777 745 725
1770.0 708 698 704 713 711 722 722 737 755 779
1810.0 792 805 807 810 795 777 772 739 718 695
1850.0 694 697 695 702 696 704 699 706 705 708
1890.0 708 714 717 719 720 719 715 712 718 719
1930.0 720 717 715 713 704 708 708 711 703 704
1970.0 708 709 706 708 702 701 701 702 708 707
2010.0 705 712 709 705 708 706 707 712 709 714
2050.0 711 716 715 723 723 725 729 727 732 731
2090.0 729 725 719 715 712 702 697 693 693 690
2130.0 684 688 681 682 682 682 683 681 684 686
2170.0 689 684 689 690 690 690 689 689 688 688
2210.0 689 690 688 687 687 686 684 685 679 681
2250.0 680 679 682 681 685 683 688 687 683 677
2290.0 673 665 663 653 652 645 644 644 644 646
2330.0 646 652 644 644 644 644 653 662 691 658
2370.0 662 650 647 648 657 679 682 685 689 691
2410.0 686 690 679 675 676 673 671 673 677 676
2450.0 676 673 673 672 668 666 669 673 670 674
2490.0 671 672 669 667 670 673 675 676 678 679
2530.0 683 686 689 692 695 698 699 708 711 719
2570.0 721 730 729 733 737 741 745 744 747 751
2610.0 748 750 757 757 768 767 777 784 788 799
2650.0 808 809 820 826 829 845 851 857 864 868
2690.0 875 884 893 892 898 902 900 903 902 902
2730.0 912 909 919 929 925 931 925 925 919 932
2770.0 933 943 965 985 1007 1024 1053 1080 1128 1163
2810.0 1216 1282 1363 1467 1592 1747 1945 2199 2524 2960
2850.0 3493 4117 4772 5440 6058 6578 6981 7158 7192 7062
2890.0 6627 6155 5718 5284 4974 4822 4821 4953 5119 5284
2930.0 5446 5592 5732 5889 6109 6343 6596 6795 7105 7306
2970.0 7414 7322 7413 7653 6595 5575 4866 4053 3294 2599
3010.0 2041 1660 1412 1253 1133 1061 993 950 897 870
3050.0 837 816 796 778 758 752 745 733 728 721
3090.0 721 708 709 696 689 688 681 686 672 682
3130.0 673 676 675 673 670 673 667 664 665 655
3170.0 663 656 658 663 661 663 664 662 651 657
3210.0 660 661 656 663 661 662 661 665 666 667
3250.0 654 661 659 661 667 653 653 652 662 657
3290.0 653 663 654 669 664 650 646 657 657 648
3330.0 651 653 667 660 668 659 668 672 663 652
3370.0 665 665 667 656 646 664 667 668 662 658
3410.0 667 651 668 671 663 657 662 656 647 660
3450.0 662 658 663 666 685 680 682 687 680 694
3490.0 688 721 711 721 727 729 721 706 729 702
3530.0 704 693 708 689 689 707 708 712 711 724
3570.0 735 719 732 756 765 797 818 898 996 1156
3610.0 1353 1579 1799 1966 2053 1992 1935 1815 1616 1447
3650.0 1275 1180 1150 1104 1084 1058 1022 1015 987 908
3690.0 890 825 788 767 758 701 725 723 705 710
3730.0 711 709 702 730 729 723 764 750 746 733
3770.0 756 730 724 714 740 731 725 702 720 695
3810.0 697 705 701 695 700 682 698 701 730 737
3850.0 735 696 736 730 733 707 715 699 681 692
3890.0 750 697 715 726 706 783 751 723 716 750
3930.0 723 733 722 708 745 745 748 729 694 721
##END=
