##TITLE=2-Propenoic acid, 2-methyl-, 1,2-ethanediyl ester
##JCAMP-DX=4.24
##DATA TYPE=INFRARED SPECTRUM
##ORIGIN=Sadtler Research Labs Under US-EPA Contract
##OWNER=NIST Standard Reference Data Program
##CAS REGISTRY NO=97-90-5
##MOLFORM=C 10 H 14 O 4
##XUNITS=1/CM
##YUNITS=ABSORBANCE
##XFACTOR=1.0
##YFACTOR=0.000188779
##DELTAX=4.0
##FIRSTX=450.0
##LASTX=3966.0
##FIRSTY=0.031148
##MAXX=3966
##MINX=450
##MAXY=1.88779
##MINY=0
##NPOINTS=880
##XYDATA=(X++(Y..Y))
450.0 165 76 64 87 74 137 123 93 99 104
490.0 67 66 53 77 71 63 69 47 72 87
530.0 64 64 38 48 36 39 39 51 23 47
570.0 23 33 36 66 91 105 114 112 101 81
610.0 59 20 31 52 65 69 72 101 142 166
650.0 169 177 160 141 124 94 74 51 42 24
690.0 25 19 15 9 10 4 9 9 5 6
730.0 19 13 12 14 13 23 26 27 30 33
770.0 42 35 53 58 60 110 157 206 285 352
810.0 411 433 400 343 281 229 196 188 173 180
850.0 182 175 168 177 176 186 207 225 248 265
890.0 285 296 294 275 247 235 242 294 378 509
930.0 681 884 1041 1080 967 794 655 555 471 372
970.0 291 231 200 191 197 219 242 270 331 396
1010.0 454 480 469 419 376 351 355 388 461 502
1050.0 484 447 415 379 341 303 277 273 282 305
1090.0 331 366 412 473 543 666 817 1053 1374 1839
1130.0 2558 3925 5624 7844 9475 10000 8788 6829 5383 4583
1170.0 4295 4068 3824 3383 2844 2247 1759 1323 981 748
1210.0 584 486 399 322 291 280 291 309 338 373
1250.0 398 419 451 501 574 684 834 1056 1424 1987
1290.0 2615 2961 2788 2381 2127 2135 2159 2044 1792 1463
1330.0 1157 929 814 740 626 477 367 321 320 364
1370.0 406 426 421 414 417 413 429 499 620 720
1410.0 737 660 548 472 428 423 442 496 557 637
1450.0 739 862 932 913 800 647 490 366 284 205
1490.0 166 141 120 94 86 67 64 59 50 60
1530.0 48 62 52 54 46 59 56 53 64 63
1570.0 71 72 89 87 100 97 111 120 136 153
1610.0 174 209 231 286 318 398 466 560 568 504
1650.0 373 271 195 145 144 125 134 152 167 196
1690.0 230 272 299 352 392 496 598 855 1228 1895
1730.0 2870 4272 5727 6275 6022 4823 3513 2381 1520 1009
1770.0 656 458 332 276 245 226 222 204 183 149
1810.0 124 91 77 60 54 45 41 44 37 42
1850.0 40 50 49 59 65 77 90 99 108 102
1890.0 96 81 71 56 49 45 41 38 36 40
1930.0 38 39 36 39 38 42 40 40 42 39
1970.0 40 38 38 37 37 33 34 34 33 33
2010.0 32 32 29 30 27 26 26 25 21 20
2050.0 19 17 16 15 15 16 19 18 20 20
2090.0 21 20 21 22 20 16 16 15 12 12
2130.0 12 12 11 7 10 10 9 7 9 7
2170.0 9 7 7 7 8 8 6 6 6 7
2210.0 6 5 6 7 9 9 11 9 8 10
2250.0 10 8 8 8 9 7 9 11 9 9
2290.0 11 13 16 18 21 23 24 25 27 23
2330.0 26 19 20 16 16 13 18 12 14 7
2370.0 6 5 3 5 2 3 4 4 5 4
2410.0 5 5 5 5 6 7 5 5 4 7
2450.0 5 7 6 8 5 7 6 9 4 6
2490.0 6 6 6 4 4 4 4 5 5 3
2530.0 5 5 7 7 7 7 8 10 8 7
2570.0 8 6 10 9 8 5 5 4 5 3
2610.0 2 0 2 4 5 2 3 4 4 4
2650.0 4 6 6 5 6 6 5 8 7 7
2690.0 7 7 11 10 11 8 10 12 12 13
2730.0 12 15 18 23 21 25 25 23 18 17
2770.0 18 20 16 16 20 19 22 23 29 31
2810.0 31 33 36 38 44 47 48 51 56 64
2850.0 70 81 97 110 128 144 157 165 176 187
2890.0 199 218 233 243 241 236 230 233 244 273
2930.0 329 426 536 601 612 615 686 803 890 918
2970.0 879 802 732 736 782 789 724 618 528 465
3010.0 389 317 262 229 204 180 150 132 122 119
3050.0 118 115 104 86 76 63 58 55 58 58
3090.0 64 76 87 112 148 178 169 130 78 48
3130.0 38 27 30 26 21 19 20 13 11 10
3170.0 12 13 11 9 11 12 11 10 9 14
3210.0 10 12 6 9 8 9 7 5 7 8
3250.0 11 8 14 14 11 7 14 11 14 12
3290.0 6 6 5 8 10 7 5 9 9 11
3330.0 9 9 10 14 14 9 11 13 12 17
3370.0 17 18 21 15 18 11 13 12 14 15
3410.0 12 12 15 13 15 16 17 16 24 23
3450.0 40 43 52 68 66 64 60 49 39 33
3490.0 22 22 18 22 15 15 18 10 12 8
3530.0 6 5 5 12 10 4 2 13 13 6
3570.0 12 20 12 16 14 15 13 18 11 10
3610.0 19 12 11 10 16 11 18 17 10 15
3650.0 14 17 23 0 9 17 25 15 0 9
3690.0 20 11 5 15 5 11 14 8 7 6
3730.0 11 14 16 14 11 7 18 7 17 17
3770.0 8 14 9 19 28 18 10 8 3 3
3810.0 16 28 22 19 13 16 18 16 11 9
3850.0 25 22 24 24 15 21 11 23 12 2
3890.0 1 15 23 15 29 4 28 26 34 7
3930.0 0 4 22 7 12 52 9 2 2 40
##END=
