##TITLE=Butanal, 2-ethyl-
##JCAMP-DX=4.24
##DATA TYPE=INFRARED SPECTRUM
##ORIGIN=Sadtler Research Labs Under US-EPA Contract
##OWNER=NIST Standard Reference Data Program
##CAS REGISTRY NO=97-96-1
##MOLFORM=C 6 H 12 O
##XUNITS=1/CM
##YUNITS=ABSORBANCE
##XFACTOR=1.0
##YFACTOR=0.000067157
##DELTAX=4.0
##FIRSTX=450.0
##LASTX=3966.0
##FIRSTY=0.006111
##MAXX=3966
##MINX=450
##MAXY=0.67157
##MINY=0
##NPOINTS=880
##XYDATA=(X++(Y..Y))
450.0 91 54 76 98 122 122 97 137 113 101
490.0 83 52 79 81 85 84 148 120 82 158
530.0 170 149 158 155 106 119 132 96 159 100
570.0 159 123 169 144 122 173 148 112 95 68
610.0 78 84 97 118 117 114 114 95 111 103
650.0 105 109 113 83 50 74 56 24 44 52
690.0 57 45 67 59 70 55 72 101 109 140
730.0 159 207 233 293 347 402 494 599 727 806
770.0 914 958 945 927 839 828 724 613 494 396
810.0 310 245 166 39 192 182 144 108 80 84
850.0 79 83 70 84 99 82 88 96 97 126
890.0 134 148 171 171 188 201 220 241 273 317
930.0 347 393 437 476 522 550 600 621 641 633
970.0 617 574 513 453 384 338 300 271 273 284
1010.0 298 340 378 387 406 397 404 396 389 374
1050.0 359 352 314 283 276 255 270 278 310 335
1090.0 371 417 446 484 499 514 516 508 509 517
1130.0 545 605 684 778 858 871 841 789 760 716
1170.0 711 690 632 536 442 345 286 227 201 174
1210.0 180 188 203 226 244 267 277 297 312 332
1250.0 330 321 318 310 302 298 266 252 245 230
1290.0 221 218 223 240 239 230 248 251 279 299
1330.0 336 366 380 394 412 412 410 397 394 426
1370.0 488 593 719 847 1019 1103 1018 886 734 551
1410.0 396 298 222 210 213 245 293 377 541 755
1450.0 1029 1319 1541 1735 1727 1655 1469 1169 893 647
1490.0 409 298 193 143 96 69 81 52 47 73
1530.0 58 65 55 31 71 79 59 36 56 78
1570.0 61 62 62 61 70 57 60 49 53 51
1610.0 50 61 35 59 67 82 83 87 104 122
1650.0 114 148 189 218 257 291 327 381 427 483
1690.0 579 689 791 946 1141 1406 1737 2268 3118 4296
1730.0 5767 7277 8549 9226 9316 8686 7275 5337 3623 2434
1770.0 1810 1426 1141 937 764 611 491 427 375 343
1810.0 296 251 217 180 143 105 99 85 85 50
1850.0 66 62 69 69 58 49 53 49 51 49
1890.0 48 47 45 49 41 47 40 31 29 41
1930.0 27 28 20 7 10 14 4 7 6 17
1970.0 12 14 15 9 11 10 10 13 15 6
2010.0 7 0 4 6 7 9 8 15 17 27
2050.0 19 27 21 23 29 21 22 29 29 28
2090.0 29 29 27 22 22 18 29 22 17 16
2130.0 15 9 16 7 16 16 19 15 15 15
2170.0 11 16 7 9 15 9 17 18 18 15
2210.0 16 24 19 20 15 17 10 8 16 17
2250.0 9 9 17 14 22 17 17 18 24 25
2290.0 33 27 35 28 23 32 34 38 40 39
2330.0 39 43 40 48 49 40 48 30 32 39
2370.0 51 56 50 38 35 40 40 41 47 41
2410.0 49 40 42 35 38 34 34 34 26 28
2450.0 27 26 28 28 28 36 40 37 42 42
2490.0 42 42 42 44 36 36 36 36 35 35
2530.0 35 41 39 44 48 51 57 57 57 58
2570.0 66 66 79 79 87 95 105 112 130 150
2610.0 166 202 217 241 256 270 291 311 335 358
2650.0 410 473 571 695 887 1131 1394 1712 2119 2387
2690.0 2529 2652 2712 2671 2583 2427 2200 1970 1740 1563
2730.0 1420 1323 1249 1199 1159 1130 1099 1041 1015 978
2770.0 969 987 1054 1150 1294 1444 1585 1673 1722 1708
2810.0 1648 1524 1378 1227 1111 1034 1000 1021 1105 1214
2850.0 1393 1648 1978 2354 2716 3085 3529 3933 4190 4191
2890.0 4175 3900 3598 3298 3066 2980 3149 3477 3969 4557
2930.0 5249 5903 6222 6363 6255 6065 5809 5875 6429 7442
2970.0 8712 10000 9177 8210 6977 5166 3391 2135 1383 973
3010.0 742 582 505 458 418 382 372 357 334 319
3050.0 313 318 296 291 280 260 256 256 233 237
3090.0 219 209 199 181 181 168 174 159 160 155
3130.0 147 144 141 152 144 134 140 132 117 132
3170.0 130 118 115 110 104 92 81 81 74 66
3210.0 67 52 51 58 29 15 32 36 37 18
3250.0 16 30 34 31 16 31 16 33 27 24
3290.0 27 28 24 24 23 14 33 24 17 16
3330.0 9 11 16 20 17 17 17 12 23 26
3370.0 29 24 24 46 26 23 30 41 40 58
3410.0 40 15 39 56 75 76 91 91 117 105
3450.0 134 166 171 182 187 148 149 107 93 97
3490.0 83 49 48 49 1 27 18 28 40 10
3530.0 33 24 39 32 20 38 39 46 91 108
3570.0 176 174 164 145 125 65 31 28 11 2
3610.0 31 22 33 41 22 32 49 32 23 16
3650.0 12 5 16 33 24 31 16 24 22 22
3690.0 32 22 18 16 12 14 0 9 2 6
3730.0 0 0 3 8 4 18 0 6 16 15
3770.0 11 8 34 7 31 35 32 22 6 15
3810.0 17 12 13 14 1 8 28 33 26 15
3850.0 5 4 0 13 28 20 19 16 10 9
3890.0 20 28 26 26 24 34 30 24 14 12
3930.0 3 0 0 20 10 28 25 42 31 36
##END=
