##TITLE=1-Butanol, 2-ethyl-
##JCAMP-DX=4.24
##DATA TYPE=INFRARED SPECTRUM
##ORIGIN=Sadtler Research Labs Under US-EPA Contract
##OWNER=NIST Standard Reference Data Program
##CAS REGISTRY NO=97-95-0
##MOLFORM=C 6 H 14 O
##XUNITS=1/CM
##YUNITS=ABSORBANCE
##XFACTOR=1.0
##YFACTOR=0.000103671
##DELTAX=4.0
##FIRSTX=450.0
##LASTX=3966.0
##FIRSTY=0.026747
##MAXX=3966
##MINX=450
##MAXY=1.03671
##MINY=0
##NPOINTS=880
##XYDATA=(X++(Y..Y))
450.0 258 560 449 536 351 261 203 606 564 418
490.0 823 568 699 731 381 434 455 255 413 341
530.0 344 248 594 391 605 407 362 271 344 0
570.0 373 324 356 324 620 284 485 449 421 358
610.0 435 419 386 416 415 438 378 404 377 410
650.0 373 414 393 369 403 424 404 381 402 380
690.0 400 382 391 389 382 387 389 399 389 403
730.0 400 441 461 518 504 551 597 584 626 587
770.0 645 583 625 584 528 503 478 464 462 484
810.0 509 554 530 563 579 606 621 593 547 557
850.0 515 482 455 470 480 483 495 488 492 519
890.0 548 580 603 623 646 664 671 684 704 741
930.0 804 856 913 959 1002 1020 1026 1038 979 1013
970.0 963 829 859 808 861 940 1096 1305 1501 1779
1010.0 2023 2221 2433 2771 3067 3450 3803 4108 4297 4296
1050.0 4107 3667 3137 2516 1934 1433 1081 895 843 843
1090.0 863 904 928 954 954 961 941 915 877 835
1130.0 800 776 774 776 796 800 799 781 763 720
1170.0 705 695 696 711 733 771 809 851 883 907
1210.0 910 906 896 870 851 831 804 779 770 759
1250.0 762 764 772 776 782 783 785 784 778 769
1290.0 755 749 738 740 734 734 735 731 735 728
1330.0 734 737 742 747 762 759 769 778 799 864
1370.0 960 1109 1241 1369 1490 1456 1312 1142 937 757
1410.0 628 553 511 472 470 465 496 543 640 782
1450.0 995 1263 1487 1670 1779 1842 1730 1539 1307 1075
1490.0 850 662 524 419 370 315 310 290 276 277
1530.0 265 268 259 262 242 248 240 238 226 226
1570.0 219 212 213 205 209 201 203 199 198 192
1610.0 191 192 185 191 181 184 179 181 175 183
1650.0 171 175 162 167 167 164 162 160 158 148
1690.0 149 149 143 141 141 149 149 147 146 155
1730.0 153 156 157 163 166 167 170 169 171 169
1770.0 174 162 158 146 139 131 123 117 115 113
1810.0 110 109 105 107 99 102 96 96 96 92
1850.0 91 94 93 87 92 84 91 88 83 82
1890.0 85 81 79 76 76 76 76 78 75 76
1930.0 75 74 76 77 74 76 76 71 75 68
1970.0 65 70 70 72 65 70 69 72 68 70
2010.0 67 70 66 66 70 67 66 66 72 71
2050.0 74 72 78 77 79 76 72 75 67 69
2090.0 64 58 52 50 49 52 48 45 44 42
2130.0 45 43 42 40 44 40 39 30 38 38
2170.0 37 39 31 30 27 22 24 22 19 21
2210.0 23 19 19 20 19 11 16 15 19 16
2250.0 13 21 15 19 18 20 21 24 23 28
2290.0 31 35 42 44 42 46 44 43 49 38
2330.0 43 34 43 70 44 62 67 61 69 66
2370.0 59 69 64 66 63 59 60 58 58 60
2410.0 61 57 57 54 53 51 44 51 43 39
2450.0 37 38 36 38 33 34 37 36 33 29
2490.0 34 32 29 28 27 28 30 25 25 23
2530.0 20 22 28 29 31 34 34 40 46 50
2570.0 63 61 71 74 82 86 94 99 100 102
2610.0 99 107 102 104 101 98 103 108 104 108
2650.0 109 114 117 128 140 136 151 155 157 161
2690.0 173 181 182 192 200 200 207 215 218 244
2730.0 254 273 294 316 337 345 347 354 354 350
2770.0 367 378 378 389 406 425 436 438 446 456
2810.0 474 495 520 546 586 647 720 806 944 1115
2850.0 1366 1739 2234 2813 3507 4311 5101 5813 6230 6383
2890.0 6293 5866 5538 5212 5076 5229 5564 6009 6497 6922
2930.0 7260 7443 7387 7182 6891 6622 6655 7163 8046 9118
2970.0 10000 9434 8240 6913 5073 3319 2112 1440 1066 837
3010.0 696 593 524 474 430 389 389 369 357 343
3050.0 305 291 285 260 240 231 220 202 199 196
3090.0 180 167 169 167 172 168 155 145 139 139
3130.0 138 137 134 125 118 139 126 127 126 111
3170.0 126 117 119 112 103 100 77 67 75 68
3210.0 69 59 69 45 43 37 31 42 36 43
3250.0 40 36 24 24 42 53 41 56 18 22
3290.0 28 45 24 29 36 42 30 30 37 25
3330.0 32 21 27 27 48 45 45 49 52 40
3370.0 33 49 40 43 32 40 45 41 53 41
3410.0 62 47 59 54 26 44 56 50 61 68
3450.0 72 67 50 61 54 47 66 59 56 60
3490.0 70 58 64 63 40 70 59 44 33 54
3530.0 45 48 59 50 27 55 55 58 65 60
3570.0 59 48 48 60 54 74 39 79 58 92
3610.0 92 66 64 112 93 143 178 168 237 317
3650.0 372 562 717 852 965 1038 1018 970 814 659
3690.0 492 318 233 162 141 120 69 94 89 79
3730.0 93 59 54 59 78 82 100 66 69 40
3770.0 64 57 32 77 78 79 60 70 87 74
3810.0 64 88 87 69 81 61 111 107 70 88
3850.0 85 125 98 71 56 95 90 68 83 90
3890.0 66 117 95 66 69 76 95 70 76 68
3930.0 39 41 81 51 97 75 53 45 66 123
##END=
