##TITLE=2-Furancarboxaldehyde
##JCAMP-DX=4.24
##DATA TYPE=INFRARED SPECTRUM
##ORIGIN=Sadtler Research Labs Under US-EPA Contract
##OWNER=NIST Standard Reference Data Program
##CAS REGISTRY NO=98-01-1
##MOLFORM=C 5 H 4 O 2
##XUNITS=1/CM
##YUNITS=ABSORBANCE
##XFACTOR=1.0
##YFACTOR=0.000172092
##DELTAX=4.0
##FIRSTX=450.0
##LASTX=3966.0
##FIRSTY=0.020479
##MAXX=3966
##MINX=450
##MAXY=1.72092
##MINY=0
##NPOINTS=880
##XYDATA=(X++(Y..Y))
450.0 119 94 0 75 108 40 111 50 132 31
490.0 116 73 93 67 75 78 55 81 52 77
530.0 44 73 40 62 58 54 48 62 90 90
570.0 155 176 229 264 279 308 732 409 309 358
610.0 287 284 213 177 119 96 88 73 88 54
650.0 63 47 65 39 34 51 71 49 59 68
690.0 65 82 83 109 118 174 236 351 575 954
730.0 1600 2536 3302 3805 4229 4704 5911 5633 3816 3287
770.0 2613 1913 1332 903 552 343 224 163 159 153
810.0 212 197 237 274 436 408 312 231 258 219
850.0 195 144 119 133 127 189 269 459 414 436
890.0 424 525 486 297 186 177 186 246 308 385
930.0 388 498 657 633 575 571 570 424 278 215
970.0 201 198 220 247 297 406 606 979 1349 1501
1010.0 1577 1544 1748 1427 1134 850 474 274 165 120
1050.0 95 90 110 117 192 303 498 542 514 511
1090.0 550 564 367 214 139 109 94 102 107 124
1130.0 147 193 290 441 596 660 691 745 823 696
1170.0 585 469 285 206 175 186 201 232 256 305
1210.0 369 398 460 598 780 969 1022 954 937 919
1250.0 894 696 511 502 536 557 528 524 474 355
1290.0 234 149 91 54 47 51 65 76 58 49
1330.0 55 72 157 173 158 232 291 380 393 338
1370.0 384 481 473 500 620 637 636 691 665 615
1410.0 466 289 356 277 253 211 252 239 220 266
1450.0 455 691 1312 1888 2408 2638 2925 3011 2577 2263
1490.0 1701 1061 791 578 569 585 448 490 405 286
1530.0 207 174 215 312 322 267 589 883 1421 1734
1570.0 2223 2270 2211 2278 1870 1377 802 401 211 180
1610.0 158 181 239 234 266 208 283 296 262 256
1650.0 378 332 322 333 519 684 1017 1116 1329 1529
1690.0 1704 2210 3027 5307 7300 9421 8638 9999 8235 10000
1730.0 5822 2948 1252 883 654 563 470 393 407 330
1770.0 402 331 263 220 186 175 171 153 138 101
1810.0 82 101 56 95 95 112 93 67 110 120
1850.0 100 48 73 63 86 105 55 54 42 58
1890.0 59 69 44 56 65 87 102 100 125 92
1930.0 97 75 65 75 79 61 60 70 61 80
1970.0 61 63 49 54 43 67 57 41 41 36
2010.0 43 47 66 49 52 51 43 44 42 39
2050.0 25 33 27 34 37 35 36 41 59 68
2090.0 82 71 78 70 67 49 37 29 22 27
2130.0 21 26 26 33 27 34 36 35 35 34
2170.0 39 32 37 32 36 33 40 41 41 48
2210.0 49 54 47 54 50 51 47 48 47 41
2250.0 43 31 30 23 24 17 19 17 17 18
2290.0 16 20 12 21 18 22 22 24 23 18
2330.0 22 17 22 12 24 19 18 28 30 28
2370.0 29 42 37 44 40 43 43 46 49 48
2410.0 48 47 49 43 45 40 41 36 36 37
2450.0 34 36 32 35 32 36 33 37 40 40
2490.0 39 35 41 37 41 39 42 37 40 40
2530.0 36 36 35 45 48 56 60 63 61 59
2570.0 55 47 45 36 37 33 37 34 35 37
2610.0 40 41 39 45 44 49 49 53 54 59
2650.0 62 70 77 80 91 93 101 106 113 121
2690.0 138 162 212 289 343 326 308 364 393 368
2730.0 333 317 329 363 391 374 379 433 468 453
2770.0 441 470 541 653 814 1045 1251 1265 1147 1251
2810.0 1451 1381 1189 1055 1043 1085 1094 1032 975 965
2850.0 941 828 670 533 414 314 239 188 150 122
2890.0 101 85 77 71 73 74 77 72 76 80
2930.0 84 74 69 71 65 59 51 48 45 45
2970.0 45 46 47 47 50 47 49 45 42 37
3010.0 37 34 33 35 32 36 35 41 40 44
3050.0 45 46 49 52 57 58 66 61 58 55
3090.0 55 50 49 45 47 46 50 63 68 74
3130.0 70 71 68 67 56 41 39 33 35 33
3170.0 35 35 32 31 29 35 32 36 29 29
3210.0 25 26 21 17 19 18 18 14 20 16
3250.0 20 17 18 15 16 23 22 23 21 26
3290.0 23 24 23 20 22 19 26 19 23 22
3330.0 22 20 20 22 19 24 22 26 27 40
3370.0 36 43 57 74 94 116 130 143 158 157
3410.0 174 149 135 124 114 101 70 45 19 18
3450.0 12 17 14 12 22 18 17 18 22 17
3490.0 22 20 21 18 20 16 18 21 16 21
3530.0 19 24 19 24 23 24 25 26 27 22
3570.0 25 26 31 26 29 31 31 32 26 27
3610.0 20 25 24 25 23 22 28 23 26 17
3650.0 21 17 26 25 21 22 20 25 18 19
3690.0 14 25 17 26 22 15 23 20 19 22
3730.0 26 16 25 18 21 16 20 25 17 26
3770.0 21 22 22 25 20 19 24 21 19 15
3810.0 21 17 20 21 19 16 20 22 12 26
3850.0 19 30 16 21 24 24 23 25 28 19
3890.0 28 23 28 23 35 29 26 27 20 24
3930.0 17 26 26 21 28 25 24 20 29 20
##END=
