##TITLE=Benzene, tert-butyl-
##JCAMP-DX=4.24
##DATA TYPE=INFRARED SPECTRUM
##ORIGIN=Sadtler Research Labs Under US-EPA Contract
##OWNER=NIST Standard Reference Data Program
##CAS REGISTRY NO=98-06-6
##MOLFORM=C 10 H 14
##XUNITS=1/CM
##YUNITS=ABSORBANCE
##XFACTOR=1.0
##YFACTOR=0.000059268
##DELTAX=4.0
##FIRSTX=450.0
##LASTX=3966.0
##FIRSTY=0.001600
##MAXX=3966
##MINX=450
##MAXY=0.59268
##MINY=0
##NPOINTS=880
##XYDATA=(X++(Y..Y))
450.0 27 29 38 24 26 31 13 23 6 9
490.0 12 36 42 27 19 67 79 166 268 365
530.0 538 687 823 960 1094 731 549 403 228 122
570.0 60 32 12 42 50 42 44 36 34 51
610.0 43 41 40 32 38 21 53 54 54 57
650.0 53 77 97 178 272 465 628 925 1291 1703
690.0 2112 2531 2901 2272 1812 1402 990 630 363 238
730.0 200 232 325 480 719 990 1256 1505 1872 1391
770.0 1037 772 492 284 135 60 15 66 56 45
810.0 37 21 21 30 46 0 233 201 159 147
850.0 67 31 17 22 30 71 70 104 106 114
890.0 105 88 72 75 82 77 77 87 95 98
930.0 106 90 73 56 38 30 20 11 16 20
970.0 15 15 15 26 23 15 23 33 33 50
1010.0 78 127 214 408 657 749 765 631 441 181
1050.0 80 67 74 95 126 166 197 213 212 207
1090.0 191 158 162 222 359 447 469 418 308 141
1130.0 57 29 17 18 17 24 34 33 34 34
1170.0 35 43 61 95 147 200 280 354 388 340
1210.0 255 170 113 109 127 147 164 174 178 191
1250.0 258 401 652 958 1180 1234 1111 811 452 235
1290.0 146 99 85 66 68 53 53 55 53 51
1330.0 53 68 85 112 166 259 430 682 978 1302
1370.0 1476 1412 1218 916 675 563 553 522 458 394
1410.0 241 159 152 186 228 310 427 546 655 735
1450.0 809 868 904 890 893 917 942 962 1015 1213
1490.0 1609 1832 1794 1542 1234 549 235 173 166 167
1530.0 160 142 128 109 79 56 58 65 51 55
1570.0 70 87 115 157 228 358 501 621 697 677
1610.0 566 422 282 160 90 53 43 34 30 40
1650.0 40 49 57 74 80 77 73 58 47 41
1690.0 24 30 41 39 28 29 43 53 50 65
1730.0 87 103 91 90 85 70 56 39 30 37
1770.0 36 54 65 98 135 177 187 171 157 103
1810.0 69 54 43 37 29 32 19 23 29 48
1850.0 52 67 84 94 103 123 128 131 123 106
1890.0 85 58 41 36 26 26 35 45 63 78
1930.0 103 119 134 138 164 166 152 126 102 70
1970.0 34 25 18 18 11 14 14 9 9 10
2010.0 8 10 10 9 9 9 9 9 3 6
2050.0 1 1 0 0 1 2 1 0 1 7
2090.0 8 2 5 0 9 3 0 1 1 8
2130.0 7 1 1 1 1 0 9 9 9 9
2170.0 9 9 15 9 17 9 16 8 18 7
2210.0 17 13 9 9 8 8 8 8 9 0
2250.0 8 0 9 9 8 8 17 10 17 17
2290.0 18 27 20 28 20 29 29 30 30 25
2330.0 23 23 13 23 40 30 24 25 35 24
2370.0 42 49 41 45 44 36 28 27 27 19
2410.0 19 19 19 18 18 18 18 28 18 18
2450.0 19 19 19 11 10 21 10 20 20 20
2490.0 20 20 19 19 19 19 12 19 20 22
2530.0 18 19 18 25 27 19 29 35 37 44
2570.0 37 44 46 36 40 34 41 41 37 37
2610.0 37 29 29 37 38 37 44 47 36 46
2650.0 45 45 55 46 47 46 37 37 30 30
2690.0 30 32 37 42 46 60 63 76 79 88
2730.0 88 88 79 79 79 80 80 71 71 65
2770.0 66 64 63 80 72 72 82 91 89 104
2810.0 118 125 144 146 159 170 186 203 220 256
2850.0 300 373 519 748 1064 1410 1729 1947 1999 1942
2890.0 1858 1790 1793 1894 2071 2267 2400 2434 2396 2294
2930.0 2210 2179 2199 2309 2635 3280 4409 5921 7573 9209
2970.0 10000 9536 8085 5832 3714 2285 1421 898 606 472
3010.0 443 491 582 728 885 1096 1306 1466 1504 1468
3050.0 1394 1324 1418 1667 1927 2041 1997 1811 1586 1323
3090.0 1210 1172 1118 1019 867 706 544 428 328 237
3130.0 162 131 114 91 94 94 98 107 115 115
3170.0 114 107 107 88 93 89 92 91 91 81
3210.0 81 81 81 82 73 66 68 67 70 61
3250.0 62 58 53 57 48 48 49 48 64 38
3290.0 51 50 41 28 35 35 40 24 16 16
3330.0 17 17 24 22 16 22 21 15 21 35
3370.0 15 15 16 16 7 8 26 6 8 7
3410.0 8 13 7 8 22 16 16 16 8 7
3450.0 9 21 13 8 9 3 10 8 7 8
3490.0 16 24 23 25 6 29 22 0 13 10
3530.0 12 0 7 1 9 8 0 8 7 0
3570.0 10 4 5 7 9 1 8 9 24 24
3610.0 15 10 9 8 8 10 13 15 7 17
3650.0 10 33 24 23 31 28 21 17 17 7
3690.0 7 24 23 8 23 25 25 22 16 26
3730.0 18 19 37 24 24 35 32 24 23 33
3770.0 22 33 29 28 28 18 14 23 34 23
3810.0 31 31 25 32 39 39 31 23 23 32
3850.0 32 23 24 15 24 31 31 38 41 42
3890.0 39 42 47 49 48 46 46 40 40 39
3930.0 46 37 30 30 30 39 37 32 30 30
##END=
