##TITLE=2-Thiophenecarboxaldehyde
##JCAMP-DX=4.24
##DATA TYPE=INFRARED SPECTRUM
##ORIGIN=Sadtler Research Labs Under US-EPA Contract
##OWNER=NIST Standard Reference Data Program
##CAS REGISTRY NO=98-03-3
##MOLFORM=C 5 H 4 O S
##XUNITS=1/CM
##YUNITS=ABSORBANCE
##XFACTOR=1.0
##YFACTOR=0.000071494
##DELTAX=4.0
##FIRSTX=450.0
##LASTX=3966.0
##FIRSTY=0.007793
##MAXX=3966
##MINX=450
##MAXY=0.71494
##MINY=0
##NPOINTS=880
##XYDATA=(X++(Y..Y))
450.0 109 98 137 156 163 154 69 50 52 53
490.0 25 4 13 30 6 6 4 17 25 47
530.0 26 32 45 57 86 80 94 115 184 207
570.0 235 245 257 229 259 208 139 98 106 78
610.0 69 52 48 65 62 71 91 135 230 414
650.0 729 1120 1339 1289 1301 1298 1006 471 230 232
690.0 338 584 931 1313 1605 1825 2491 3863 2244 1584
730.0 1504 1246 884 598 462 548 578 508 513 486
770.0 464 244 116 69 60 71 99 180 319 459
810.0 543 628 629 650 556 504 618 325 384 384
850.0 379 428 432 330 258 340 269 144 72 36
890.0 29 23 11 21 20 17 21 16 17 23
930.0 16 17 9 10 16 16 16 24 26 27
970.0 25 25 25 17 17 11 17 18 24 32
1010.0 50 81 129 201 279 393 620 861 788 808
1050.0 612 679 456 192 87 69 81 91 74 79
1090.0 89 76 68 60 61 75 76 85 101 119
1130.0 148 184 199 186 204 214 172 130 103 97
1170.0 114 168 241 405 690 1146 1717 2190 2377 2423
1210.0 2389 2104 1585 908 668 678 782 744 741 548
1250.0 471 286 144 84 60 52 62 65 64 72
1290.0 89 88 86 84 92 95 92 79 87 84
1330.0 90 101 95 153 280 403 412 441 386 427
1370.0 296 156 150 211 250 290 324 402 605 926
1410.0 1373 1828 1931 1959 1927 1913 1348 763 415 262
1450.0 147 73 31 37 46 27 15 23 44 24
1490.0 35 63 111 205 336 558 729 803 818 811
1530.0 712 547 341 246 208 208 192 178 177 130
1570.0 89 45 61 41 57 42 47 41 56 56
1610.0 73 92 84 96 99 127 93 114 127 149
1650.0 162 255 303 343 412 515 579 710 960 1879
1690.0 3599 6408 8839 9221 10000 9199 8576 5132 2388 987
1730.0 454 243 185 170 145 135 140 132 119 115
1770.0 82 60 51 48 52 48 69 81 82 99
1810.0 97 109 101 89 86 66 64 65 49 51
1850.0 69 85 109 131 159 183 182 168 158 129
1890.0 94 66 47 43 30 20 11 10 0 7
1930.0 17 15 20 11 18 23 28 29 23 26
1970.0 20 16 10 10 10 3 5 2 8 2
2010.0 3 1 0 2 2 1 11 9 7 5
2050.0 10 9 10 8 13 9 22 22 23 23
2090.0 26 29 32 29 22 22 23 23 21 21
2130.0 22 21 22 22 22 22 41 44 42 34
2170.0 25 22 16 8 7 8 8 8 8 8
2210.0 7 7 7 7 7 7 7 14 8 8
2250.0 8 7 7 12 7 6 14 9 12 7
2290.0 7 7 7 7 1 1 5 1 0 0
2330.0 0 2 2 8 15 0 0 1 10 12
2370.0 34 39 35 31 28 20 20 20 20 21
2410.0 21 20 28 28 29 24 32 30 36 36
2450.0 28 35 43 42 43 35 27 34 26 26
2490.0 25 27 31 29 36 28 23 23 22 22
2530.0 27 23 22 26 23 33 36 30 23 30
2570.0 23 23 24 27 30 41 40 39 45 52
2610.0 63 63 64 71 78 79 66 65 68 69
2650.0 76 83 85 98 107 112 119 120 127 149
2690.0 178 205 265 315 340 375 427 449 449 497
2730.0 547 553 565 649 720 703 660 665 664 598
2770.0 535 563 619 697 797 836 840 937 1059 1119
2810.0 1164 1122 1027 1045 1140 1019 790 631 525 438
2850.0 346 267 214 165 141 120 116 100 87 88
2890.0 81 88 95 81 81 85 89 91 95 81
2930.0 90 96 94 81 80 74 74 73 68 59
2970.0 56 60 61 57 46 39 53 46 46 46
3010.0 45 53 55 55 55 59 68 68 66 60
3050.0 59 60 66 68 77 97 127 161 181 211
3090.0 225 228 201 183 170 142 127 107 102 90
3130.0 81 59 50 48 37 25 34 33 32 33
3170.0 25 26 30 31 29 28 20 20 34 32
3210.0 26 27 27 32 33 20 28 30 27 27
3250.0 22 28 23 33 20 19 27 26 25 28
3290.0 22 13 23 24 21 22 25 15 20 33
3330.0 20 14 32 33 29 38 28 31 50 66
3370.0 65 80 95 130 159 156 154 147 127 87
3410.0 53 37 14 21 19 33 12 12 5 14
3450.0 18 8 12 9 14 29 16 8 13 13
3490.0 26 13 7 10 11 17 13 5 3 13
3530.0 24 31 13 12 24 19 13 11 12 15
3570.0 23 12 21 29 6 36 32 26 19 11
3610.0 9 16 12 18 7 30 23 17 14 7
3650.0 22 51 19 6 12 17 10 24 25 13
3690.0 20 26 12 11 1 4 19 20 7 11
3730.0 15 13 27 22 28 23 48 33 33 25
3770.0 9 26 18 11 22 22 13 25 33 31
3810.0 30 30 32 28 31 25 29 38 51 48
3850.0 40 40 53 43 40 31 35 21 19 36
3890.0 29 26 23 16 19 30 21 22 33 37
3930.0 36 45 34 35 27 25 22 30 37 38
##END=
