##TITLE=Benzene, (trichloromethyl)-
##JCAMP-DX=4.24
##DATA TYPE=INFRARED SPECTRUM
##ORIGIN=Sadtler Research Labs Under US-EPA Contract
##OWNER=NIST Standard Reference Data Program
##CAS REGISTRY NO=98-07-7
##MOLFORM=C 7 H 5 Cl 3
##XUNITS=1/CM
##YUNITS=ABSORBANCE
##XFACTOR=1.0
##YFACTOR=0.000110287
##DELTAX=4.0
##FIRSTX=450.0
##LASTX=3966.0
##FIRSTY=0.180982
##MAXX=3966
##MINX=450
##MAXY=1.10287
##MINY=0
##NPOINTS=880
##XYDATA=(X++(Y..Y))
450.0 1641 688 1 209 41 44 278 218 235 316
490.0 159 213 219 197 272 216 229 195 192 137
530.0 144 192 164 216 200 230 183 245 223 259
570.0 251 301 285 250 272 263 266 330 408 415
610.0 584 584 831 1412 2263 2374 2526 1812 1006 627
650.0 603 444 499 658 880 1182 1485 1835 2214 2663
690.0 3210 3772 4559 5170 5973 6281 7140 7775 8642 10000
730.0 9888 8624 7474 6195 4414 2959 2069 1633 1509 1420
770.0 1364 1426 1524 1800 2525 3954 6093 8356 9886 9439
810.0 7168 5264 3907 2771 1965 1526 1339 1238 1255 1315
850.0 1441 1858 2802 4100 4816 4498 3407 2046 960 631
890.0 549 486 458 414 404 372 361 329 312 288
930.0 282 275 254 251 247 258 253 265 257 268
970.0 282 281 280 274 277 310 374 411 430 394
1010.0 335 294 308 352 422 497 525 511 447 377
1050.0 384 419 450 487 488 444 411 364 347 297
1090.0 262 260 254 262 250 256 253 253 255 265
1130.0 264 261 256 249 262 290 352 436 629 988
1170.0 1574 2401 3196 3551 3363 2609 1632 970 570 433
1210.0 395 345 310 307 326 345 390 433 499 536
1250.0 553 527 471 418 387 378 362 349 331 325
1290.0 313 310 326 351 382 396 426 447 458 436
1330.0 417 404 366 329 287 259 231 230 216 211
1370.0 228 236 242 233 224 202 190 183 177 176
1410.0 179 208 233 293 383 518 695 940 1214 1341
1450.0 1273 1223 1062 789 613 493 487 539 639 713
1490.0 792 795 742 635 490 350 268 211 187 187
1530.0 181 178 155 157 162 161 153 150 131 163
1570.0 157 173 174 221 234 257 262 260 239 211
1610.0 196 165 160 146 150 137 145 140 164 147
1650.0 161 107 124 128 115 112 116 104 118 97
1690.0 119 124 127 135 165 168 162 161 160 169
1730.0 178 200 213 252 260 266 268 274 260 271
1770.0 295 315 378 450 542 591 634 594 484 339
1810.0 235 166 132 113 91 84 73 74 56 57
1850.0 56 54 60 73 83 105 122 137 148 161
1890.0 179 202 205 195 165 127 94 77 77 90
1930.0 100 121 147 164 181 189 201 214 214 202
1970.0 165 129 84 57 41 39 33 35 35 35
2010.0 36 38 46 44 57 64 72 85 98 100
2050.0 104 96 81 71 58 59 45 36 30 24
2090.0 21 10 19 14 18 19 19 13 14 12
2130.0 9 9 11 11 11 17 9 12 9 10
2170.0 14 14 22 18 20 13 15 11 12 15
2210.0 13 18 15 22 14 15 14 8 6 5
2250.0 4 0 10 8 13 12 15 20 21 26
2290.0 28 31 23 28 17 20 18 19 20 25
2330.0 24 13 28 28 103 64 31 18 67 92
2370.0 107 113 102 83 55 33 23 17 9 13
2410.0 13 12 14 8 12 7 8 11 12 14
2450.0 10 14 21 21 20 19 20 21 18 15
2490.0 13 9 10 9 11 8 15 9 6 9
2530.0 6 9 6 8 10 11 13 13 13 9
2570.0 19 18 20 17 24 25 27 30 25 20
2610.0 12 18 9 13 15 20 7 11 19 15
2650.0 20 33 13 14 24 22 36 59 51 27
2690.0 37 28 27 47 56 6 21 17 23 40
2730.0 76 11 26 22 21 49 109 35 65 80
2770.0 83 128 161 70 68 57 31 105 75 25
2810.0 46 34 43 115 41 35 37 21 71 77
2850.0 35 47 38 65 80 53 43 42 39 43
2890.0 45 44 45 47 74 64 27 47 35 124
2930.0 57 55 39 87 116 55 46 50 91 107
2970.0 41 47 63 139 52 47 72 142 115 107
3010.0 160 205 252 244 299 405 448 480 601 659
3050.0 647 681 770 950 1206 1590 1885 1938 1778 1440
3090.0 1040 734 634 596 558 485 400 290 212 144
3130.0 99 74 56 55 49 54 55 69 61 67
3170.0 71 70 67 45 32 20 34 25 13 24
3210.0 22 26 24 36 27 14 10 26 20 12
3250.0 19 17 23 4 7 19 20 31 25 17
3290.0 30 15 17 28 30 25 27 31 17 40
3330.0 26 13 2 5 32 25 34 37 18 18
3370.0 7 11 14 21 21 12 15 20 25 32
3410.0 26 18 21 15 11 19 19 28 27 11
3450.0 12 23 17 24 20 22 8 21 24 11
3490.0 34 12 38 34 36 26 25 20 19 24
3530.0 31 26 26 50 31 18 27 27 21 28
3570.0 36 36 24 23 22 28 41 28 18 6
3610.0 40 36 26 56 24 19 38 61 55 44
3650.0 50 57 49 49 36 35 31 45 36 33
3690.0 23 67 50 58 53 64 63 61 35 56
3730.0 72 67 42 50 22 43 51 19 19 14
3770.0 35 35 41 24 20 25 3 0 22 17
3810.0 26 9 42 40 17 11 57 26 17 36
3850.0 13 37 56 39 59 57 46 49 39 37
3890.0 37 19 30 12 65 71 64 60 30 22
3930.0 99 75 63 67 82 123 88 43 71 44
##END=
