##TITLE=Benzene, (trifluoromethyl)-
##JCAMP-DX=4.24
##DATA TYPE=INFRARED SPECTRUM
##ORIGIN=Sadtler Research Labs Under US-EPA Contract
##OWNER=NIST Standard Reference Data Program
##CAS REGISTRY NO=98-08-8
##MOLFORM=C 7 H 5 F 3
##XUNITS=1/CM
##YUNITS=ABSORBANCE
##XFACTOR=1.0
##YFACTOR=0.000117392
##DELTAX=4.0
##FIRSTX=450.0
##LASTX=3966.0
##FIRSTY=0.021835
##MAXX=3966
##MINX=450
##MAXY=1.17392
##MINY=0
##NPOINTS=880
##XYDATA=(X++(Y..Y))
450.0 186 73 4 66 36 36 56 39 53 137
490.0 168 92 9 57 133 115 82 103 102 92
530.0 71 120 154 63 81 73 74 74 98 101
570.0 123 140 145 151 158 197 222 273 248 253
610.0 197 168 121 104 96 160 200 120 122 186
650.0 512 732 797 749 795 450 451 534 639 784
690.0 907 1274 1082 889 853 655 509 364 250 171
730.0 154 148 114 178 249 378 477 640 714 862
770.0 1223 855 687 648 482 326 211 161 122 102
810.0 109 88 101 87 101 93 100 95 88 92
850.0 90 89 77 92 95 96 96 103 115 113
890.0 141 150 158 158 169 170 183 195 234 248
930.0 172 187 155 146 118 115 104 102 113 101
970.0 115 114 125 113 115 113 112 117 121 142
1010.0 156 246 489 896 923 938 923 541 218 148
1050.0 198 269 519 1172 2305 2962 3306 3268 1953 845
1090.0 697 623 567 528 559 596 653 742 908 1195
1130.0 1647 2294 3320 4726 5764 7231 7249 5821 5024 4206
1170.0 4401 5089 5474 4354 3223 2695 1905 1064 635 413
1210.0 297 234 192 186 195 231 248 247 231 208
1250.0 174 159 169 174 205 224 237 243 244 253
1290.0 287 357 468 623 926 1652 3248 5986 8718 10000
1330.0 9339 7494 3885 1473 659 426 325 353 368 365
1370.0 339 316 249 205 200 184 177 164 138 115
1410.0 121 107 176 165 187 184 240 256 273 343
1450.0 455 502 449 453 454 333 277 201 126 122
1490.0 131 101 110 105 138 160 125 142 164 129
1530.0 138 126 146 171 148 103 105 145 105 72
1570.0 78 81 73 80 63 81 78 107 132 184
1610.0 226 231 243 183 160 88 99 99 84 100
1650.0 149 166 159 161 162 154 148 90 125 146
1690.0 118 103 142 129 99 71 86 119 73 64
1730.0 93 130 98 100 112 130 114 113 108 93
1770.0 111 111 78 80 76 80 96 102 133 115
1810.0 117 115 84 69 66 73 61 54 66 70
1850.0 54 43 44 44 55 69 56 60 71 79
1890.0 84 86 94 102 105 103 96 88 83 66
1930.0 59 60 66 82 87 87 78 73 82 91
1970.0 80 73 65 57 46 49 46 43 38 40
2010.0 41 46 45 47 43 45 39 41 47 45
2050.0 41 36 46 44 41 34 30 35 36 44
2090.0 56 60 59 55 44 31 30 26 28 28
2130.0 31 26 29 32 32 33 27 28 31 34
2170.0 35 32 29 29 30 28 29 31 34 34
2210.0 39 41 46 44 39 39 38 44 47 51
2250.0 51 45 46 48 49 49 49 49 50 49
2290.0 55 55 54 57 60 63 69 72 73 61
2330.0 66 59 53 67 55 60 57 49 43 26
2370.0 38 38 37 30 32 38 34 40 35 33
2410.0 30 31 30 27 27 28 24 25 26 26
2450.0 24 29 30 32 32 34 33 36 35 33
2490.0 37 31 35 37 35 34 31 29 32 29
2530.0 25 28 25 28 26 24 24 26 27 25
2570.0 25 25 30 24 28 28 28 30 26 28
2610.0 28 23 24 23 22 18 21 23 18 26
2650.0 28 22 16 15 6 1 0 3 9 11
2690.0 15 18 25 23 24 23 20 24 22 26
2730.0 21 26 28 26 30 25 19 27 23 22
2770.0 24 29 27 29 21 25 19 28 25 24
2810.0 26 30 32 32 36 34 30 38 27 32
2850.0 25 28 29 27 31 33 30 28 30 41
2890.0 33 34 32 35 30 29 41 46 48 48
2930.0 58 64 53 47 50 47 38 39 38 39
2970.0 40 36 43 37 37 35 36 41 41 44
3010.0 44 46 55 64 70 79 95 111 143 184
3050.0 219 265 316 324 341 325 344 393 388 359
3090.0 322 272 202 172 157 162 156 136 115 102
3130.0 79 73 52 37 26 21 27 25 24 21
3170.0 21 29 29 30 34 37 30 20 24 23
3210.0 20 18 28 25 17 34 26 20 14 19
3250.0 16 21 22 25 7 20 19 2 26 22
3290.0 19 11 22 26 26 20 23 26 26 32
3330.0 20 20 24 24 5 24 6 20 7 25
3370.0 26 10 8 22 32 18 21 19 16 37
3410.0 16 21 19 21 24 39 32 30 32 19
3450.0 29 25 31 19 21 29 22 33 43 37
3490.0 32 38 31 31 50 42 37 25 43 28
3530.0 32 31 30 37 42 41 43 42 49 43
3570.0 43 33 34 48 45 26 48 62 40 41
3610.0 39 40 29 45 62 67 42 34 47 29
3650.0 36 51 42 44 57 46 64 43 61 52
3690.0 50 43 49 58 51 54 52 61 67 58
3730.0 50 57 60 50 60 58 54 39 54 54
3770.0 54 62 47 41 47 35 58 58 43 41
3810.0 56 59 48 41 36 46 71 58 56 57
3850.0 46 49 29 50 36 35 56 41 35 56
3890.0 14 60 61 64 30 57 48 23 10 48
3930.0 35 60 45 47 118 78 46 65 97 50
##END=
