##TITLE=Benzene, 1-(1,1-dimethylethyl)-3,5-dimethyl-
##JCAMP-DX=4.24
##DATA TYPE=INFRARED SPECTRUM
##ORIGIN=Sadtler Research Labs Under US-EPA Contract
##OWNER=NIST Standard Reference Data Program
##CAS REGISTRY NO=98-19-1
##MOLFORM=C 12 H 18
##XUNITS=1/CM
##YUNITS=ABSORBANCE
##XFACTOR=1.0
##YFACTOR=0.000111575
##DELTAX=4.0
##FIRSTX=450.0
##LASTX=3966.0
##FIRSTY=0.004128
##MAXX=3966
##MINX=450
##MAXY=1.11575
##MINY=0
##NPOINTS=880
##XYDATA=(X++(Y..Y))
450.0 37 108 141 129 155 150 97 164 151 74
490.0 202 121 199 119 171 165 174 196 235 280
530.0 259 272 225 279 139 135 98 133 130 116
570.0 107 127 122 97 116 93 106 101 119 121
610.0 118 101 105 112 87 101 118 111 93 80
650.0 85 75 90 92 78 124 107 120 100 158
690.0 255 534 732 1147 1538 1038 731 480 210 146
730.0 110 98 126 106 90 66 104 83 95 75
770.0 98 103 69 86 14 166 198 108 146 119
810.0 133 120 132 128 178 278 560 897 1404 1984
850.0 1665 1052 763 383 226 144 154 153 168 216
890.0 284 431 581 675 625 490 299 230 211 202
930.0 214 216 257 277 280 269 229 174 155 148
970.0 156 177 199 244 264 278 262 256 236 215
1010.0 185 167 162 148 164 169 184 204 234 247
1050.0 245 242 225 206 180 164 150 136 132 124
1090.0 122 118 128 118 123 122 115 117 123 117
1130.0 120 126 123 132 128 131 128 128 129 136
1170.0 147 153 160 177 216 263 341 443 556 612
1210.0 584 579 728 1075 1368 1384 1144 756 427 270
1250.0 209 180 169 164 169 171 172 172 179 215
1290.0 331 524 712 804 745 552 343 244 195 179
1330.0 179 181 208 237 301 394 570 795 1097 1390
1370.0 1468 1348 1145 885 754 707 754 732 695 534
1410.0 398 391 428 488 594 705 845 935 992 1020
1450.0 1043 1088 1166 1228 1270 1305 1390 1565 1693 1699
1490.0 1516 1202 936 811 754 690 630 593 596 600
1530.0 622 625 590 547 479 429 401 410 415 435
1570.0 484 540 601 690 834 1114 1619 2445 3360 3766
1610.0 3137 2073 1197 657 388 244 191 155 135 116
1650.0 120 110 102 92 87 88 96 78 92 92
1690.0 95 90 99 99 102 103 115 147 176 221
1730.0 243 231 189 158 155 176 198 211 208 196
1770.0 179 144 108 89 81 72 72 70 65 59
1810.0 57 56 51 53 56 54 52 53 53 58
1850.0 52 49 50 53 56 58 55 56 55 63
1890.0 64 69 66 60 60 57 53 56 58 61
1930.0 61 65 61 61 56 55 47 49 41 40
1970.0 39 35 35 34 35 38 37 37 32 36
2010.0 36 37 41 42 47 38 43 44 48 45
2050.0 47 44 47 49 47 43 38 37 24 23
2090.0 23 24 28 31 28 32 33 32 28 25
2130.0 31 29 32 36 40 42 43 44 46 52
2170.0 52 46 44 45 40 35 33 33 35 31
2210.0 32 33 32 30 29 32 33 29 30 34
2250.0 30 32 31 34 30 31 35 39 35 37
2290.0 31 29 27 24 13 8 10 1 1 14
2330.0 12 15 22 10 20 23 1 1 3 35
2370.0 40 62 62 67 70 69 71 65 57 62
2410.0 58 62 63 62 62 61 59 57 59 56
2450.0 52 51 45 43 44 49 57 52 52 55
2490.0 50 57 50 53 54 50 50 53 56 52
2530.0 58 53 58 61 65 62 66 71 73 77
2570.0 76 70 73 72 75 73 78 80 78 72
2610.0 71 66 59 55 57 57 51 60 63 69
2650.0 69 69 66 65 71 78 81 81 83 86
2690.0 86 88 94 101 103 105 121 132 147 171
2730.0 183 216 239 260 252 227 187 157 145 134
2770.0 124 122 131 139 139 160 160 163 174 186
2810.0 201 225 254 274 293 317 355 399 454 533
2850.0 656 841 1121 1541 2081 2612 3010 3174 3108 2946
2890.0 2781 2665 2669 2804 3091 3458 3834 4187 4550 4846
2930.0 4940 4838 4565 4225 4075 4488 5545 7038 8546 9706
2970.0 10000 9104 7331 5190 3502 2534 1992 1695 1571 1556
3010.0 1631 1762 1877 1968 1987 1986 1912 1759 1618 1513
3050.0 1426 1329 1245 1122 987 852 703 566 475 389
3090.0 314 263 223 182 171 161 141 124 122 114
3130.0 109 102 90 92 94 97 99 87 85 95
3170.0 89 93 83 80 90 83 94 98 98 99
3210.0 85 87 79 77 81 83 73 77 71 64
3250.0 66 83 81 82 66 63 69 75 73 76
3290.0 72 61 67 65 73 59 60 64 52 54
3330.0 60 62 55 50 62 52 54 64 66 61
3370.0 58 75 61 63 78 65 55 57 55 63
3410.0 70 52 50 41 45 54 54 76 50 52
3450.0 51 67 62 56 52 37 59 49 45 66
3490.0 42 63 47 51 60 28 49 40 48 56
3530.0 48 48 32 42 51 40 35 39 32 24
3570.0 25 37 42 29 36 29 28 29 26 21
3610.0 37 20 24 26 21 10 14 51 25 29
3650.0 18 23 22 20 35 28 17 34 1 22
3690.0 5 8 31 48 22 18 26 15 15 17
3730.0 10 27 15 4 19 10 18 9 20 19
3770.0 9 10 35 11 4 9 21 27 34 28
3810.0 39 22 30 35 12 15 12 11 16 3
3850.0 18 13 13 52 12 32 15 8 11 2
3890.0 25 30 40 52 36 43 26 32 37 5
3930.0 36 30 0 21 41 14 30 26 65 42
##END=
