##TITLE=Benzenamine, 3-(trifluoromethyl)-
##JCAMP-DX=4.24
##DATA TYPE=INFRARED SPECTRUM
##ORIGIN=Sadtler Research Labs Under US-EPA Contract
##OWNER=NIST Standard Reference Data Program
##CAS REGISTRY NO=98-16-8
##MOLFORM=C 7 H 6 F 3 N
##XUNITS=1/CM
##YUNITS=ABSORBANCE
##XFACTOR=1.0
##YFACTOR=0.000071106
##DELTAX=4.0
##FIRSTX=450.0
##LASTX=3966.0
##FIRSTY=0.007111
##MAXX=3966
##MINX=450
##MAXY=0.71106
##MINY=0
##NPOINTS=880
##XYDATA=(X++(Y..Y))
450.0 100 107 107 99 92 108 118 108 109 110
490.0 130 126 138 125 138 167 151 137 180 156
530.0 139 134 92 49 9 48 20 51 117 122
570.0 149 149 149 130 118 84 77 58 57 58
610.0 43 49 57 64 74 125 152 189 245 354
650.0 540 818 1070 1424 1647 1618 1527 1345 1121 1049
690.0 1054 1181 1198 865 722 552 391 273 221 221
730.0 195 213 253 331 355 351 290 197 164 251
770.0 400 568 751 953 1055 854 671 500 353 231
810.0 140 106 98 105 80 78 79 93 93 118
850.0 168 234 330 412 542 589 539 524 552 669
890.0 829 949 974 864 611 356 181 83 36 24
930.0 24 16 16 25 11 26 28 33 41 49
970.0 45 48 44 42 76 118 198 227 224 182
1010.0 74 38 38 34 37 32 32 39 60 118
1050.0 221 409 760 1313 1804 2055 1959 1449 868 585
1090.0 476 434 418 405 412 465 547 664 880 1259
1130.0 1892 2865 4209 6054 8214 7565 5996 4577 3276 3100
1170.0 4168 5591 5953 4799 3724 2710 1585 876 534 367
1210.0 286 250 237 238 267 337 499 815 1324 1968
1250.0 2410 2411 2111 1524 890 475 310 236 207 208
1290.0 217 245 314 421 594 792 1000 1223 1611 2469
1330.0 4339 7373 10000 9869 7792 4638 1710 543 255 153
1370.0 95 55 65 80 73 81 82 72 118 152
1410.0 172 225 167 190 158 162 127 135 174 253
1450.0 376 626 1029 1565 1833 1896 1666 1113 704 492
1490.0 392 426 400 405 340 214 182 124 56 75
1530.0 58 65 45 0 15 67 70 47 96 139
1570.0 153 178 213 247 337 434 586 669 762 828
1610.0 924 1121 1423 1825 2156 2359 2213 1918 1535 1067
1650.0 651 453 360 297 261 229 182 187 116 80
1690.0 90 96 37 36 40 61 48 15 70 95
1730.0 81 53 95 91 76 71 88 83 76 84
1770.0 49 34 48 33 34 26 19 18 2 28
1810.0 30 29 39 32 32 32 47 73 58 49
1850.0 65 72 51 39 30 8 37 37 35 41
1890.0 39 42 51 48 53 65 70 83 90 101
1930.0 97 89 67 37 30 37 28 26 29 15
1970.0 26 28 29 29 29 20 25 34 35 38
2010.0 37 40 30 33 36 35 36 35 35 39
2050.0 39 42 39 42 39 43 42 36 35 43
2090.0 40 40 37 28 20 21 21 27 28 28
2130.0 28 29 35 42 50 42 42 39 35 31
2170.0 28 28 21 29 28 28 28 28 28 28
2210.0 36 36 36 34 34 36 34 35 41 35
2250.0 36 34 35 35 38 41 42 46 48 48
2290.0 49 41 34 42 42 43 41 38 43 43
2330.0 30 47 42 55 62 48 34 36 44 50
2370.0 60 63 62 55 47 42 39 33 40 34
2410.0 26 25 25 32 20 26 17 17 17 17
2450.0 17 18 18 26 25 19 25 25 29 32
2490.0 31 31 31 31 31 32 31 38 32 32
2530.0 26 27 28 24 28 30 31 29 30 30
2570.0 31 24 21 30 26 29 26 30 35 34
2610.0 36 37 35 37 36 30 30 29 29 24
2650.0 27 32 28 36 33 42 42 42 34 35
2690.0 27 25 21 16 11 15 20 18 12 12
2730.0 19 19 19 19 19 19 19 19 16 10
2770.0 12 11 11 17 11 3 10 4 6 2
2810.0 8 8 10 10 11 11 11 17 10 11
2850.0 16 18 19 18 18 21 21 19 18 26
2890.0 27 33 27 34 25 32 35 37 33 33
2930.0 41 47 40 40 41 40 47 35 33 31
2970.0 35 35 34 34 34 43 41 41 35 35
3010.0 40 55 76 110 169 243 289 294 282 241
3050.0 223 237 260 295 306 277 257 200 168 145
3090.0 134 127 112 99 84 76 62 55 48 46
3130.0 40 36 24 21 20 16 12 14 6 6
3170.0 13 7 6 6 15 10 8 25 20 28
3210.0 42 35 43 49 49 43 43 43 31 29
3250.0 22 19 13 8 7 7 6 6 14 7
3290.0 4 14 5 6 7 7 7 2 6 7
3330.0 0 6 7 7 7 7 6 6 9 15
3370.0 12 13 20 29 43 50 67 101 149 191
3410.0 256 277 292 306 329 311 274 258 154 86
3450.0 47 16 12 29 29 29 51 63 88 124
3490.0 154 168 188 182 172 159 184 211 202 180
3530.0 125 60 21 28 6 5 5 5 6 4
3570.0 12 16 10 6 4 11 13 5 12 5
3610.0 11 15 14 12 4 11 16 12 12 11
3650.0 2 10 26 10 12 12 25 42 12 15
3690.0 15 21 11 17 18 17 16 17 19 3
3730.0 10 21 26 5 27 31 39 33 26 25
3770.0 25 32 21 22 15 4 5 10 10 5
3810.0 5 12 11 19 28 17 28 32 42 47
3850.0 40 36 46 41 26 26 25 10 4 15
3890.0 7 13 3 4 9 12 12 18 18 18
3930.0 27 25 20 29 25 21 15 5 4 12
##END=
