##TITLE=Benzene, 1-chloro-3-(trifluoromethyl)-
##JCAMP-DX=4.24
##DATA TYPE=INFRARED SPECTRUM
##ORIGIN=Sadtler Research Labs Under US-EPA Contract
##OWNER=NIST Standard Reference Data Program
##CAS REGISTRY NO=98-15-7
##MOLFORM=C 7 H 4 Cl F 3
##XUNITS=1/CM
##YUNITS=ABSORBANCE
##XFACTOR=1.0
##YFACTOR=0.000057474
##DELTAX=4.0
##FIRSTX=450.0
##LASTX=3966.0
##FIRSTY=0.001437
##MAXX=3966
##MINX=450
##MAXY=0.57474
##MINY=0
##NPOINTS=880
##XYDATA=(X++(Y..Y))
450.0 25 41 32 22 11 4 3 11 36 30
490.0 95 99 148 165 200 171 138 101 83 78
530.0 77 92 100 48 92 65 70 102 112 164
570.0 121 120 15 120 145 128 150 157 140 148
610.0 146 139 141 133 143 202 162 185 217 282
650.0 306 308 266 167 143 188 203 273 383 530
690.0 700 876 859 765 932 1379 1435 1374 854 282
730.0 146 126 82 134 146 163 166 189 229 222
770.0 258 318 437 593 763 901 996 757 729 747
810.0 843 957 943 737 539 398 372 312 264 221
850.0 184 160 150 150 145 163 193 265 328 400
890.0 489 493 377 314 260 204 189 146 140 139
930.0 135 128 136 134 134 133 130 132 131 131
970.0 130 135 137 130 145 134 143 161 169 180
1010.0 219 298 322 319 246 199 207 213 232 283
1050.0 338 410 538 783 1149 1619 1926 2112 2128 1506
1090.0 1097 799 706 714 683 623 613 609 605 678
1130.0 917 1385 2118 3206 4561 6212 7432 6475 5228 3926
1170.0 3207 3714 4908 5318 4235 3192 2049 1047 610 420
1210.0 353 328 346 372 406 396 343 291 251 231
1250.0 255 337 475 770 1123 1223 1129 814 492 608
1290.0 957 1293 1434 1529 1532 2053 3686 6697 9678 10000
1330.0 7857 4177 1677 791 469 359 278 254 234 201
1370.0 195 187 164 156 165 180 210 268 319 378
1410.0 440 475 558 634 877 1160 1189 1115 778 416
1450.0 304 248 228 208 207 234 288 303 314 338
1490.0 335 296 262 198 183 172 131 127 142 112
1530.0 116 106 127 155 134 116 129 154 136 153
1570.0 197 261 316 365 397 405 373 325 280 279
1610.0 293 293 263 178 132 86 105 98 94 100
1650.0 130 138 124 138 132 127 135 94 101 111
1690.0 96 96 155 159 145 109 102 115 75 73
1730.0 78 108 80 77 94 110 94 110 111 110
1770.0 141 146 135 134 121 110 106 85 100 75
1810.0 77 78 90 85 94 95 88 71 76 66
1850.0 63 44 56 55 61 69 82 91 97 100
1890.0 94 83 69 59 58 58 67 59 71 56
1930.0 49 64 67 83 87 74 75 76 64 59
1970.0 56 55 60 55 45 57 41 44 47 40
2010.0 39 40 52 48 55 55 54 54 65 62
2050.0 56 57 58 69 77 75 74 74 56 47
2090.0 38 38 29 31 35 28 34 33 34 40
2130.0 39 40 48 46 57 54 37 36 37 34
2170.0 38 35 41 34 32 33 39 41 40 39
2210.0 38 43 42 45 38 45 35 43 42 43
2250.0 42 41 41 42 41 40 41 47 50 50
2290.0 56 68 71 73 83 80 81 78 79 58
2330.0 57 48 66 61 61 64 69 65 25 3
2370.0 8 5 19 28 33 31 39 48 46 47
2410.0 37 45 46 34 34 44 33 34 32 32
2450.0 41 32 31 30 39 36 38 36 42 36
2490.0 40 37 34 34 32 33 32 31 30 39
2530.0 39 37 43 37 42 45 44 41 42 42
2570.0 33 40 49 49 41 43 47 40 49 35
2610.0 35 28 18 18 7 16 16 10 26 32
2650.0 21 16 7 10 12 11 19 36 45 43
2690.0 48 41 52 35 32 35 32 36 37 36
2730.0 44 44 35 36 34 41 41 44 41 41
2770.0 47 38 46 36 36 43 41 44 45 43
2810.0 54 46 46 50 30 36 44 35 45 43
2850.0 42 40 43 28 42 32 39 38 30 35
2890.0 45 43 43 46 52 52 44 53 61 61
2930.0 74 54 64 45 44 44 42 32 50 42
2970.0 41 44 44 35 41 38 45 28 45 43
3010.0 26 36 41 53 40 45 47 57 64 81
3050.0 73 62 70 61 78 87 106 146 163 188
3090.0 180 148 120 91 73 55 71 54 49 40
3130.0 46 36 32 40 40 39 39 38 28 37
3170.0 35 35 45 33 22 40 22 33 28 47
3210.0 46 38 46 36 27 30 27 30 35 34
3250.0 22 32 32 22 10 30 38 29 26 35
3290.0 15 27 18 43 25 25 33 23 12 22
3330.0 12 38 27 46 32 27 26 19 27 32
3370.0 32 22 30 29 30 36 19 32 19 26
3410.0 25 25 19 14 12 31 30 30 22 31
3450.0 33 30 20 46 30 23 6 31 34 32
3490.0 23 24 20 13 7 19 19 33 24 32
3530.0 16 33 7 23 24 22 30 34 36 10
3570.0 16 31 13 26 37 34 52 8 33 33
3610.0 25 30 26 16 26 13 20 22 25 32
3650.0 32 12 1 0 19 24 13 27 27 33
3690.0 28 25 29 18 14 13 12 16 15 16
3730.0 23 15 15 1 2 16 12 7 14 11
3770.0 18 4 8 20 15 16 13 18 16 19
3810.0 16 11 19 0 9 0 0 2 2 6
3850.0 8 16 10 15 20 15 9 5 9 4
3890.0 0 0 7 3 2 6 1 0 1 0
3930.0 0 1 4 0 5 4 3 5 3 4
##END=
