##TITLE=Phenol, 4-(1,1-dimethylethyl)-2-methyl-
##JCAMP-DX=4.24
##DATA TYPE=INFRARED SPECTRUM
##ORIGIN=Sadtler Research Labs Under US-EPA Contract
##OWNER=NIST Standard Reference Data Program
##CAS REGISTRY NO=98-27-1
##MOLFORM=C 11 H 16 O
##XUNITS=1/CM
##YUNITS=ABSORBANCE
##XFACTOR=1.0
##YFACTOR=0.000055859
##DELTAX=4.0
##FIRSTX=450.0
##LASTX=3966.0
##FIRSTY=0.005865
##MAXX=3966
##MINX=450
##MAXY=0.55859
##MINY=0
##NPOINTS=880
##XYDATA=(X++(Y..Y))
450.0 105 136 127 128 129 150 167 192 245 226
490.0 258 224 176 189 154 164 236 284 267 292
530.0 208 158 149 107 153 122 189 217 281 303
570.0 307 200 135 209 195 368 437 516 675 566
610.0 408 288 195 109 102 49 75 73 39 70
650.0 36 140 232 295 280 267 160 62 63 17
690.0 108 38 37 48 39 86 89 120 166 228
730.0 170 166 151 126 202 218 425 711 866 815
770.0 620 348 165 182 244 417 625 849 1157 1321
810.0 1491 1686 1728 1526 1126 659 392 254 149 138
850.0 106 105 126 137 219 292 383 481 563 465
890.0 404 294 209 183 171 216 243 253 258 226
930.0 189 148 136 83 110 104 108 113 114 141
970.0 145 179 210 302 365 407 425 374 302 229
1010.0 175 169 186 193 211 214 200 211 176 203
1050.0 186 175 188 163 179 194 237 289 419 611
1090.0 977 1579 2076 2301 2139 1850 1890 2586 3360 3491
1130.0 3008 1952 1058 701 715 948 1378 1903 2358 2869
1170.0 3065 3025 2773 2331 2053 2162 2713 3460 4321 4811
1210.0 4567 3744 2743 1791 1187 898 799 838 884 1069
1250.0 1397 1926 2603 3229 3913 4354 4467 4235 3391 2404
1290.0 1666 1190 844 679 663 797 1082 1434 1708 1722
1330.0 1478 1051 669 444 419 509 668 929 1209 1447
1370.0 1482 1336 1058 823 712 780 963 1041 1109 1034
1410.0 898 849 768 686 593 537 523 574 585 679
1450.0 803 913 1092 1143 1225 1264 1353 1514 1682 1812
1490.0 1932 2227 3027 4610 6268 6739 5882 3925 2229 1334
1530.0 973 821 691 570 442 372 309 308 260 253
1570.0 277 304 388 446 549 634 679 660 607 577
1610.0 583 590 540 466 389 300 220 176 137 119
1650.0 121 128 79 68 61 74 60 76 75 87
1690.0 57 67 67 83 60 48 69 84 81 82
1730.0 86 93 88 86 96 140 141 159 140 111
1770.0 112 67 62 42 56 44 52 35 36 53
1810.0 36 54 36 34 54 48 64 68 68 92
1850.0 90 73 92 65 73 90 64 77 73 69
1890.0 75 56 34 36 29 13 32 22 29 52
1930.0 31 21 18 22 28 14 13 27 14 14
1970.0 15 15 16 16 16 19 21 25 29 16
2010.0 15 36 50 45 53 44 37 42 37 33
2050.0 27 17 22 19 19 18 18 20 27 20
2090.0 19 18 14 15 22 10 22 18 14 20
2130.0 3 20 13 21 11 19 16 20 20 15
2170.0 21 21 21 21 20 21 21 21 9 4
2210.0 7 22 16 15 19 4 5 12 13 3
2250.0 22 21 29 29 24 43 32 32 32 24
2290.0 33 41 24 22 24 25 25 22 24 39
2330.0 23 44 24 68 53 44 73 104 217 162
2370.0 157 111 96 68 72 67 65 55 56 57
2410.0 39 47 53 60 70 47 49 48 54 48
2450.0 49 50 42 51 42 41 35 49 48 46
2490.0 46 43 61 52 52 36 61 46 45 64
2530.0 46 55 45 37 37 37 37 39 47 48
2570.0 56 40 38 50 38 50 38 50 40 48
2610.0 39 43 42 41 50 43 48 55 50 62
2650.0 50 61 61 68 53 70 61 44 54 54
2690.0 54 50 62 62 73 68 82 95 100 118
2730.0 101 109 119 118 141 135 133 125 111 82
2770.0 100 92 96 111 103 130 132 121 126 124
2810.0 142 163 173 178 210 218 240 275 311 379
2850.0 478 634 861 1186 1553 1953 2261 2433 2464 2360
2890.0 2287 2194 2214 2298 2498 2766 2976 3127 3099 3082
2930.0 3064 3074 3097 3156 3425 4024 5253 6883 8723 9850
2970.0 10000 8847 6819 4729 3088 2111 1461 1068 871 772
3010.0 750 768 843 937 1058 1099 1113 1055 947 871
3050.0 822 831 831 837 794 746 675 596 552 446
3090.0 401 316 276 257 208 200 182 192 170 182
3130.0 157 153 153 125 116 98 92 104 97 87
3170.0 104 92 90 112 85 108 106 90 105 93
3210.0 99 89 89 82 96 97 94 94 67 72
3250.0 61 64 75 75 66 67 76 56 75 45
3290.0 60 74 50 77 50 34 44 49 34 61
3330.0 62 49 75 44 65 60 63 53 65 72
3370.0 66 68 46 80 47 60 62 64 84 63
3410.0 59 40 67 43 51 46 31 67 14 47
3450.0 22 32 40 31 42 29 48 16 34 33
3490.0 33 35 24 33 18 13 2 14 3 29
3530.0 10 21 27 0 26 4 6 31 32 45
3570.0 41 39 22 28 7 26 28 12 29 16
3610.0 53 63 76 98 160 295 448 791 1269 2118
3650.0 3063 3410 3193 2415 1381 718 377 207 119 70
3690.0 60 43 27 45 17 36 37 20 20 17
3730.0 22 26 50 24 53 26 21 28 20 28
3770.0 41 40 28 34 26 25 42 51 85 47
3810.0 42 59 60 60 61 58 79 89 70 72
3850.0 66 73 69 60 71 79 70 54 70 77
3890.0 97 106 81 102 97 83 89 82 92 92
3930.0 93 101 111 110 108 110 14 21 23 23
##END=
