##TITLE=Phenol, 2-chloro-4-(1,1-dimethylethyl)-
##JCAMP-DX=4.24
##DATA TYPE=INFRARED SPECTRUM
##ORIGIN=Sadtler Research Labs Under US-EPA Contract
##OWNER=NIST Standard Reference Data Program
##CAS REGISTRY NO=98-28-2
##MOLFORM=C 10 H 13 Cl O
##XUNITS=1/CM
##YUNITS=ABSORBANCE
##XFACTOR=1.0
##YFACTOR=0.000119699
##DELTAX=4.0
##FIRSTX=450.0
##LASTX=3966.0
##FIRSTY=0.000000
##MAXX=3966
##MINX=450
##MAXY=1.19699
##MINY=0
##NPOINTS=880
##XYDATA=(X++(Y..Y))
450.0 0 113 175 160 160 148 148 142 158 204
490.0 249 299 299 419 547 791 1022 1124 1028 841
530.0 627 471 367 309 300 270 261 234 236 202
570.0 169 168 142 178 169 221 287 383 510 650
610.0 785 703 553 457 350 281 248 218 192 198
650.0 213 265 292 297 297 294 258 257 276 304
690.0 346 396 452 489 553 666 1065 1855 2550 2771
730.0 2404 1391 684 459 358 358 386 454 481 474
770.0 438 364 299 250 247 239 278 341 479 703
810.0 1155 1857 2550 2991 2459 1654 1016 609 427 375
850.0 373 452 559 736 981 1226 1456 1426 1189 939
890.0 668 466 341 289 265 258 248 245 242 234
930.0 225 212 202 184 173 147 126 114 117 121
970.0 119 123 128 127 132 138 148 165 191 221
1010.0 254 271 291 298 301 328 395 530 767 1084
1050.0 1279 1318 1151 801 557 448 442 488 525 531
1090.0 512 510 533 617 719 787 787 699 593 492
1130.0 426 427 486 643 891 1127 1250 1244 1262 1500
1170.0 1973 2643 3559 4423 5164 5689 5806 5712 5435 5157
1210.0 4787 4247 3484 2641 1885 1310 997 941 1052 1262
1250.0 1559 1939 2404 2967 3789 4707 5536 6389 6680 6384
1290.0 5171 3336 1869 1132 902 842 830 824 855 923
1330.0 1070 1209 1227 1154 980 853 870 1024 1293 1629
1370.0 1794 1725 1475 1181 958 914 1040 1202 1358 1351
1410.0 1152 947 717 634 621 652 671 705 742 773
1450.0 830 901 1009 1186 1401 1714 2171 2770 3259 3626
1490.0 3976 5046 6949 9454 10000 8622 5966 3268 1885 1131
1530.0 778 637 582 545 574 621 614 569 571 627
1570.0 738 925 1116 1206 1162 1006 868 862 1003 1193
1610.0 1316 1257 1011 721 498 421 364 341 337 305
1650.0 249 221 224 215 207 200 180 200 181 174
1690.0 204 219 195 202 218 235 219 190 219 237
1730.0 235 235 284 306 300 288 295 280 259 242
1770.0 202 167 172 158 159 147 145 147 138 160
1810.0 159 158 165 165 154 145 150 159 149 145
1850.0 159 169 170 175 178 183 217 240 253 247
1890.0 231 208 185 167 156 149 144 141 136 141
1930.0 144 140 139 128 130 133 129 126 128 128
1970.0 134 140 137 137 138 134 137 147 151 156
2010.0 160 150 140 135 130 126 125 121 118 117
2050.0 116 117 121 121 119 126 125 125 123 126
2090.0 130 136 141 144 142 137 128 121 116 114
2130.0 117 113 114 113 115 113 113 115 115 119
2170.0 117 115 113 114 113 113 115 113 114 113
2210.0 114 114 119 120 121 122 122 120 121 117
2250.0 118 116 116 116 116 117 117 117 121 124
2290.0 127 132 140 143 146 152 154 160 165 177
2330.0 171 160 152 140 142 141 154 148 134 129
2370.0 137 139 151 159 158 157 154 146 138 132
2410.0 128 127 130 137 140 148 150 148 143 141
2450.0 139 141 146 152 161 166 173 171 173 172
2490.0 170 166 163 163 160 160 160 163 166 171
2530.0 178 180 180 177 172 169 167 164 166 166
2570.0 167 165 162 161 159 160 161 161 161 161
2610.0 158 157 160 159 160 157 153 151 151 153
2650.0 154 156 160 169 174 179 178 175 171 168
2690.0 164 163 164 166 168 174 178 185 193 196
2730.0 195 191 187 189 189 191 198 202 204 202
2770.0 194 195 197 201 212 221 221 221 219 225
2810.0 232 245 254 258 268 274 286 298 318 345
2850.0 388 460 574 757 1013 1319 1607 1808 1869 1837
2890.0 1764 1696 1659 1698 1828 2034 2242 2344 2310 2173
2930.0 2054 2006 2048 2180 2435 2900 3740 5092 6841 8636
2970.0 9595 9094 7238 4790 2930 1858 1226 846 622 493
3010.0 425 379 351 334 341 356 382 417 475 550
3050.0 609 632 606 558 521 518 516 514 508 502
3090.0 490 474 441 390 336 289 259 240 227 215
3130.0 209 208 198 194 191 189 189 189 190 198
3170.0 202 212 226 233 236 228 219 215 208 209
3210.0 206 211 211 213 209 203 199 192 188 183
3250.0 181 177 177 179 175 170 176 174 171 170
3290.0 169 168 163 162 159 156 162 159 162 161
3330.0 159 158 154 155 153 148 145 140 132 134
3370.0 130 132 133 128 132 130 131 135 135 141
3410.0 137 135 136 137 137 134 133 128 131 124
3450.0 126 119 120 118 124 121 125 127 125 129
3490.0 128 129 120 127 127 122 119 117 125 142
3530.0 153 150 172 179 235 290 334 394 473 724
3570.0 1331 2915 5201 6057 5886 3767 1746 792 417 277
3610.0 224 193 178 170 155 185 186 203 301 438
3650.0 584 571 509 375 219 168 150 137 129 119
3690.0 132 115 119 125 121 129 130 120 124 127
3730.0 113 132 131 118 139 127 119 113 113 113
3770.0 117 113 113 114 113 113 113 119 122 115
3810.0 121 117 133 129 126 128 143 146 149 131
3850.0 142 167 136 127 145 146 137 130 140 147
3890.0 145 135 139 154 156 125 125 139 140 133
3930.0 121 132 119 127 134 142 139 136 114 118
##END=
