##TITLE=3-Cyclohexene-1-methanol, .alpha.,.alpha.4-trimethyl-
##JCAMP-DX=4.24
##DATA TYPE=INFRARED SPECTRUM
##ORIGIN=Sadtler Research Labs Under US-EPA Contract
##OWNER=NIST Standard Reference Data Program
##CAS REGISTRY NO=98-55-5
##MOLFORM=C 10 H 18 O
##XUNITS=1/CM
##YUNITS=ABSORBANCE
##XFACTOR=1.0
##YFACTOR=0.000084665
##DELTAX=4.0
##FIRSTX=450.0
##LASTX=3966.0
##FIRSTY=0.000000
##MAXX=3966
##MINX=450
##MAXY=0.84665
##MINY=0
##NPOINTS=880
##XYDATA=(X++(Y..Y))
450.0 0 297 371 448 374 472 468 452 455 546
490.0 549 565 530 492 453 370 417 362 358 355
530.0 401 415 439 454 412 433 409 408 381 402
570.0 400 366 357 329 372 353 371 344 352 347
610.0 368 351 360 386 399 426 446 458 434 413
650.0 381 386 386 365 388 385 371 375 381 371
690.0 372 376 373 382 378 389 392 388 385 396
730.0 393 391 384 382 395 405 419 420 438 482
770.0 545 635 659 713 786 864 958 1039 1057 874
810.0 751 641 596 642 739 896 951 949 865 713
850.0 601 534 504 500 504 504 521 543 595 656
890.0 736 837 977 1189 1471 1783 1987 2146 2191 2109
930.0 1999 1845 1720 1623 1544 1425 1307 1159 1013 896
970.0 848 829 815 818 793 780 773 773 778 786
1010.0 816 859 911 936 924 877 852 856 892 920
1050.0 937 930 925 956 999 1077 1146 1227 1307 1431
1090.0 1615 1843 2066 2221 2317 2314 2312 2289 2293 2262
1130.0 2228 2186 2187 2282 2411 2592 2714 2814 2855 2849
1170.0 2741 2556 2292 2000 1772 1600 1522 1477 1489 1514
1210.0 1583 1709 1851 1978 2022 1991 1873 1799 1734 1694
1250.0 1621 1550 1474 1391 1352 1343 1378 1405 1443 1456
1290.0 1472 1474 1476 1502 1516 1547 1542 1540 1481 1426
1330.0 1355 1283 1223 1155 1114 1124 1235 1475 1867 2359
1370.0 2828 3181 3396 3461 3259 2792 2182 1576 1151 937
1410.0 809 791 777 848 917 1127 1374 1669 1893 2013
1450.0 2108 2113 2104 2031 1903 1731 1467 1237 1008 809
1490.0 686 587 543 490 499 484 459 466 447 443
1530.0 409 421 406 409 390 391 389 393 388 379
1570.0 393 394 403 401 407 409 405 414 402 406
1610.0 391 390 381 386 373 386 384 407 408 420
1650.0 419 413 376 374 369 373 389 389 393 386
1690.0 371 365 367 360 362 363 369 364 358 348
1730.0 347 346 340 341 348 357 365 375 378 371
1770.0 366 357 334 331 327 332 322 323 321 315
1810.0 316 316 319 316 322 324 321 319 324 323
1850.0 321 320 318 318 322 321 317 315 312 313
1890.0 312 306 308 303 306 302 303 303 309 302
1930.0 304 306 310 313 315 316 312 311 308 304
1970.0 305 304 304 299 304 301 305 303 304 309
2010.0 305 304 304 305 301 303 300 302 302 303
2050.0 305 305 307 306 311 311 311 309 310 309
2090.0 309 307 304 303 303 301 298 301 301 302
2130.0 304 304 305 302 304 301 304 302 299 298
2170.0 300 300 298 301 302 303 304 307 304 312
2210.0 313 314 313 313 314 312 311 310 310 310
2250.0 311 312 312 314 314 316 314 317 317 319
2290.0 321 322 324 322 327 326 325 318 328 316
2330.0 318 311 313 318 320 320 335 329 332 329
2370.0 325 323 322 324 326 323 325 325 325 320
2410.0 321 319 318 317 318 318 315 321 317 323
2450.0 325 326 331 333 335 334 334 332 336 337
2490.0 338 337 332 331 333 332 333 333 334 337
2530.0 336 337 341 337 334 332 335 336 338 339
2570.0 341 344 346 349 357 361 365 371 368 372
2610.0 373 376 381 389 390 389 388 382 374 374
2650.0 377 381 382 392 399 411 414 417 420 420
2690.0 412 411 407 406 412 417 434 449 480 514
2730.0 566 607 625 617 587 550 519 508 496 497
2770.0 494 503 509 520 531 542 559 585 626 678
2810.0 742 808 895 1008 1180 1474 1952 2657 3308 3764
2850.0 4027 4004 4023 4242 4538 4818 5081 5204 5330 5589
2890.0 5856 6105 6384 6734 7172 7501 7741 8295 8819 9382
2930.0 9836 9784 9211 8427 7674 7039 6694 6614 7048 7939
2970.0 9089 9871 10000 9289 7720 6006 4507 3395 2667 2282
3010.0 2132 2098 2031 1872 1609 1334 1129 1004 951 937
3050.0 931 911 864 796 715 660 622 598 585 581
3090.0 564 549 534 510 490 471 466 451 441 430
3130.0 426 419 412 410 401 398 395 392 386 383
3170.0 381 384 385 383 383 379 378 378 377 372
3210.0 370 368 365 365 358 354 348 347 342 339
3250.0 334 328 326 324 324 318 320 318 320 325
3290.0 327 326 320 320 321 319 321 318 319 327
3330.0 325 328 328 337 336 330 328 326 326 327
3370.0 331 324 331 332 330 338 333 323 331 329
3410.0 327 323 333 336 331 332 340 333 336 329
3450.0 336 326 333 326 327 327 316 319 317 312
3490.0 314 311 309 311 312 309 308 311 308 311
3530.0 310 304 304 306 312 310 307 311 306 315
3570.0 314 313 317 315 318 331 326 348 353 380
3610.0 397 414 443 462 536 644 830 980 1125 1123
3650.0 1002 815 645 523 446 391 364 344 345 337
3690.0 332 324 321 318 309 328 313 311 318 309
3730.0 314 314 324 295 334 300 318 321 316 317
3770.0 314 309 314 317 321 327 317 339 325 344
3810.0 324 331 321 345 342 330 341 335 341 339
3850.0 359 335 349 351 358 355 350 354 344 359
3890.0 337 357 327 337 333 336 332 341 334 328
3930.0 343 329 332 335 329 321 326 325 316 327
##END=
