##TITLE=Phenol, p-tert-butyl-
##JCAMP-DX=4.24
##DATA TYPE=INFRARED SPECTRUM
##ORIGIN=Sadtler Research Labs Under US-EPA Contract
##OWNER=NIST Standard Reference Data Program
##CAS REGISTRY NO=98-54-4
##MOLFORM=C 10 H 14 O
##XUNITS=1/CM
##YUNITS=ABSORBANCE
##XFACTOR=1.0
##YFACTOR=0.000089633
##DELTAX=4.0
##FIRSTX=450.0
##LASTX=3966.0
##FIRSTY=0.031641
##MAXX=3966
##MINX=450
##MAXY=0.89633
##MINY=0
##NPOINTS=880
##XYDATA=(X++(Y..Y))
450.0 353 256 247 262 371 394 437 429 407 417
490.0 454 486 486 545 528 541 498 464 508 599
530.0 770 978 1195 1408 1655 1514 1279 1109 892 714
570.0 614 514 426 399 338 319 291 293 279 266
610.0 283 262 277 271 281 291 309 340 357 387
650.0 457 499 552 512 480 330 283 257 245 223
690.0 224 220 213 219 231 277 264 256 262 263
730.0 271 272 248 238 227 226 211 218 218 229
770.0 224 246 261 297 351 417 534 719 1025 1324
810.0 1633 2010 2201 2252 2395 2308 1836 1496 1214 937
850.0 706 536 433 316 283 255 257 245 251 253
890.0 254 274 284 310 334 365 372 372 353 348
930.0 325 313 320 320 322 304 291 266 266 257
970.0 252 238 244 241 235 234 227 237 250 349
1010.0 441 466 459 390 269 200 148 122 107 97
1050.0 97 85 71 60 41 27 22 36 64 125
1090.0 208 339 488 647 821 909 935 954 908 834
1130.0 803 703 582 512 525 601 846 1481 3119 6294
1170.0 9178 10000 9786 6871 4164 2990 2582 2398 2271 2026
1210.0 1745 1409 1165 1038 992 995 994 1018 1143 1609
1250.0 2665 4285 5505 5735 4990 3169 1622 961 771 679
1290.0 650 581 540 460 431 429 493 629 830 989
1330.0 1049 1033 866 835 848 860 937 1012 1150 1335
1370.0 1421 1287 1134 874 692 670 716 724 740 690
1410.0 539 624 520 793 815 891 741 660 535 474
1450.0 506 531 649 767 987 1014 967 1018 999 867
1490.0 787 981 1059 2175 3283 5859 6392 6486 5047 2766
1530.0 1276 781 489 405 262 355 273 247 261 320
1570.0 328 368 423 536 721 921 1126 1350 1403 1475
1610.0 1508 1652 1468 1283 970 697 489 341 335 219
1650.0 155 135 156 162 153 109 95 116 62 52
1690.0 91 116 44 19 67 108 65 0 111 124
1730.0 86 40 115 115 115 85 127 129 101 124
1770.0 78 85 115 99 120 126 139 171 171 233
1810.0 230 202 203 164 126 108 112 134 105 86
1850.0 135 178 186 216 202 185 225 207 195 172
1890.0 144 127 130 122 112 96 96 80 66 78
1930.0 81 70 75 43 49 61 58 55 62 44
1970.0 62 67 76 78 90 66 66 75 68 65
2010.0 64 64 59 75 74 75 68 60 50 58
2050.0 58 70 83 81 88 94 91 82 72 62
2090.0 47 53 52 55 61 65 55 52 48 43
2130.0 40 38 41 35 35 29 32 27 30 32
2170.0 32 32 30 32 30 33 27 32 27 31
2210.0 25 22 29 27 28 25 30 28 25 30
2250.0 28 27 31 35 38 43 48 55 54 62
2290.0 61 62 64 65 70 68 79 76 85 81
2330.0 89 86 80 116 106 92 115 103 123 113
2370.0 119 105 91 85 77 72 73 70 69 68
2410.0 74 81 101 124 148 169 168 158 129 99
2450.0 86 83 76 72 74 70 69 67 65 65
2490.0 68 63 67 72 77 87 90 88 85 78
2530.0 67 64 63 64 62 64 66 63 71 71
2570.0 75 74 76 75 75 77 81 85 80 82
2610.0 77 81 74 80 79 80 79 73 80 78
2650.0 87 85 88 89 90 89 94 91 88 96
2690.0 92 92 89 90 95 103 111 115 126 124
2730.0 127 120 117 116 119 123 127 129 126 133
2770.0 133 125 127 126 129 131 137 127 135 133
2810.0 151 156 170 177 184 189 195 214 231 266
2850.0 309 386 506 688 921 1178 1409 1580 1649 1622
2890.0 1573 1501 1464 1497 1657 1882 2058 2107 2022 1864
2930.0 1719 1691 1749 1910 2203 2807 3813 5185 6677 7840
2970.0 8157 7303 5810 3947 2525 1640 1121 834 714 685
3010.0 709 730 741 762 818 937 1041 1077 1039 904
3050.0 754 669 661 678 707 709 692 653 600 544
3090.0 464 407 363 343 323 327 317 304 290 262
3130.0 244 230 215 195 188 171 155 158 153 162
3170.0 157 173 169 171 172 161 155 156 162 165
3210.0 156 152 154 148 154 156 154 152 145 147
3250.0 143 145 144 138 133 140 135 135 134 131
3290.0 125 128 132 131 124 119 129 127 123 123
3330.0 113 131 131 137 135 140 151 156 152 148
3370.0 151 145 144 144 147 145 147 141 140 135
3410.0 134 146 139 135 149 139 143 142 134 125
3450.0 136 146 130 127 133 127 142 135 110 117
3490.0 129 132 128 114 91 126 117 145 110 72
3530.0 101 117 120 123 79 85 133 99 131 30
3570.0 73 121 127 140 79 92 98 112 123 131
3610.0 73 116 121 162 246 207 449 707 1303 2173
3650.0 3259 3527 3327 2480 1332 461 327 152 204 138
3690.0 108 128 142 123 111 94 47 107 92 59
3730.0 99 64 50 68 79 54 59 126 99 96
3770.0 105 129 128 118 139 145 134 124 95 127
3810.0 143 127 128 74 141 146 134 100 102 124
3850.0 147 64 129 169 159 123 143 179 97 153
3890.0 150 183 139 113 126 200 187 154 138 166
3930.0 172 137 173 159 154 143 200 200 194 169
##END=
