##TITLE=Benzene, 1-chloro-4-(trifluoromethyl)-
##JCAMP-DX=4.24
##DATA TYPE=INFRARED SPECTRUM
##ORIGIN=Sadtler Research Labs Under US-EPA Contract
##OWNER=NIST Standard Reference Data Program
##CAS REGISTRY NO=98-56-6
##MOLFORM=C 7 H 4 Cl F 3
##XUNITS=1/CM
##YUNITS=ABSORBANCE
##XFACTOR=1.0
##YFACTOR=0.000146918
##DELTAX=4.0
##FIRSTX=450.0
##LASTX=3966.0
##FIRSTY=0.056123
##MAXX=3966
##MINX=450
##MAXY=1.46918
##MINY=0
##NPOINTS=880
##XYDATA=(X++(Y..Y))
450.0 382 149 72 131 125 118 145 132 178 148
490.0 193 368 784 1075 1166 929 347 89 77 66
530.0 63 80 73 117 79 115 129 93 107 105
570.0 143 137 156 165 173 207 200 218 169 165
610.0 115 115 101 81 75 11 50 55 69 58
650.0 80 50 49 28 42 36 30 41 13 50
690.0 48 48 60 73 67 63 72 81 95 80
730.0 89 55 93 65 62 46 40 49 44 67
770.0 96 231 339 382 297 84 102 111 116 136
810.0 179 253 404 594 837 895 1342 1158 936 856
850.0 564 363 213 122 89 68 75 51 66 54
890.0 56 48 53 52 54 54 50 46 45 48
930.0 35 49 49 53 52 60 55 52 56 49
970.0 47 42 60 49 67 60 74 63 127 226
1010.0 617 1426 1584 1461 771 131 112 72 97 78
1050.0 115 187 529 1464 2523 3065 2658 1512 831 821
1090.0 1198 2254 3085 3283 2231 1120 825 788 795 885
1130.0 1105 1534 2145 3106 4147 5388 6003 5629 4994 4607
1170.0 4523 4764 4463 3211 2408 1646 942 614 437 329
1210.0 305 285 314 364 389 333 237 141 104 98
1250.0 89 100 99 120 138 187 253 381 507 542
1290.0 490 372 347 409 632 1093 2044 4008 7285 10000
1330.0 9367 6697 2993 1569 1127 692 363 252 261 264
1370.0 252 251 195 166 190 219 293 376 421 426
1410.0 415 371 381 249 205 127 142 113 88 80
1450.0 90 89 128 78 59 55 121 108 72 155
1490.0 278 418 546 525 426 261 158 158 178 109
1530.0 110 90 118 161 133 85 106 181 168 188
1570.0 245 269 245 214 160 170 181 266 421 781
1610.0 1272 1451 1315 769 299 94 96 103 87 111
1650.0 165 166 120 103 111 104 122 56 100 107
1690.0 60 44 111 105 75 44 71 120 51 31
1730.0 63 117 71 66 87 102 69 67 66 53
1770.0 94 127 114 132 108 95 74 58 71 41
1810.0 46 42 25 33 49 60 48 31 46 54
1850.0 33 18 26 21 30 56 29 27 31 41
1890.0 53 59 65 74 87 87 94 86 85 53
1930.0 38 30 26 38 32 23 25 22 17 26
1970.0 17 17 14 16 14 24 23 15 15 14
2010.0 12 14 15 12 8 11 11 18 15 11
2050.0 10 10 6 12 20 15 14 12 13 10
2090.0 13 11 18 24 30 34 28 17 10 7
2130.0 8 9 9 5 3 3 5 3 4 4
2170.0 9 6 9 6 6 8 7 13 12 13
2210.0 17 23 22 23 20 18 23 18 19 17
2250.0 15 13 11 14 16 22 25 31 36 40
2290.0 36 36 31 34 33 33 33 29 34 23
2330.0 33 34 22 45 41 26 35 28 48 52
2370.0 43 41 35 36 28 22 21 21 18 16
2410.0 17 15 12 12 8 9 8 7 5 6
2450.0 6 8 10 9 8 10 14 14 14 12
2490.0 14 13 12 9 10 12 12 9 8 11
2530.0 9 11 14 14 12 15 18 23 26 24
2570.0 21 17 14 13 11 17 15 14 11 12
2610.0 7 8 5 0 8 7 11 11 17 21
2650.0 22 17 13 4 7 8 8 14 11 14
2690.0 10 10 8 6 11 7 3 9 4 5
2730.0 7 9 6 8 9 8 10 9 7 12
2770.0 16 17 12 7 14 12 10 10 10 15
2810.0 16 15 17 17 16 17 14 15 12 12
2850.0 16 14 10 7 11 11 15 14 12 14
2890.0 15 19 19 21 21 13 17 18 23 28
2930.0 34 33 34 32 28 20 12 13 12 10
2970.0 11 10 15 14 16 4 7 8 10 10
3010.0 10 18 14 3 13 17 15 19 24 23
3050.0 23 28 34 29 32 40 33 27 29 37
3090.0 27 32 29 34 38 36 42 47 36 27
3130.0 21 14 15 13 2 6 7 15 13 6
3170.0 21 11 11 17 15 11 9 5 6 0
3210.0 10 8 21 13 7 14 17 17 10 6
3250.0 17 15 6 14 2 13 12 15 12 20
3290.0 19 15 4 10 11 12 18 12 9 9
3330.0 8 15 17 5 18 14 10 13 18 14
3370.0 14 24 28 16 14 14 15 14 14 7
3410.0 14 22 30 12 6 11 18 3 27 5
3450.0 36 29 5 1 11 11 14 27 19 7
3490.0 7 20 21 13 18 21 9 14 11 16
3530.0 20 15 10 6 12 18 16 19 17 15
3570.0 16 13 15 31 25 1 12 10 10 18
3610.0 13 22 18 15 17 16 12 16 14 27
3650.0 17 8 11 14 10 18 16 17 35 21
3690.0 28 14 15 18 21 33 10 24 16 26
3730.0 11 16 36 9 19 26 24 16 19 4
3770.0 9 18 25 24 18 13 8 35 22 27
3810.0 16 10 20 7 10 18 29 25 23 26
3850.0 18 10 17 15 19 18 20 28 35 29
3890.0 19 9 30 23 24 11 32 34 32 28
3930.0 17 11 31 31 33 31 19 35 7 25
##END=
