##TITLE=4-tert-Butyltoluene
##JCAMP-DX=4.24
##DATA TYPE=INFRARED SPECTRUM
##ORIGIN=Sadtler Research Labs Under US-EPA Contract
##OWNER=NIST Standard Reference Data Program
##CAS REGISTRY NO=98-51-1
##MOLFORM=C 11 H 16
##XUNITS=1/CM
##YUNITS=ABSORBANCE
##XFACTOR=1.0
##YFACTOR=0.000082413
##DELTAX=4.0
##FIRSTX=450.0
##LASTX=3966.0
##FIRSTY=0.004121
##MAXX=3966
##MINX=450
##MAXY=0.82413
##MINY=0
##NPOINTS=880
##XYDATA=(X++(Y..Y))
450.0 50 58 42 56 56 60 38 75 78 16
490.0 3 30 47 26 17 71 155 220 314 494
530.0 643 983 1055 1205 1192 898 701 405 251 168
570.0 131 74 46 70 67 52 45 47 30 43
610.0 48 41 46 50 68 76 69 78 54 59
650.0 36 39 35 44 27 27 35 84 46 53
690.0 67 98 133 175 216 230 256 281 324 273
730.0 262 176 118 93 88 74 65 66 57 77
770.0 101 125 156 213 265 349 496 695 1008 1357
810.0 1683 2033 2014 1485 1138 797 475 291 223 166
850.0 146 99 84 75 72 52 59 64 57 76
890.0 77 92 97 98 94 84 80 81 89 109
930.0 104 116 110 97 91 85 70 66 66 77
970.0 76 47 55 74 68 73 68 79 87 133
1010.0 257 495 605 642 562 362 224 186 172 172
1050.0 166 161 147 135 127 113 113 112 121 142
1090.0 170 227 323 513 714 814 801 633 416 328
1130.0 272 234 204 167 137 118 112 105 105 93
1170.0 92 109 122 151 260 477 608 661 641 426
1210.0 301 239 217 258 301 319 296 251 194 170
1250.0 219 354 573 893 1182 1247 1109 743 420 271
1290.0 197 154 145 143 139 128 114 98 97 105
1330.0 106 126 124 169 230 357 526 779 1072 1330
1370.0 1425 1305 1074 829 658 665 766 789 781 656
1410.0 483 431 400 405 395 405 378 386 408 461
1450.0 546 665 809 935 1030 1101 1135 1182 1203 1138
1490.0 1001 847 754 866 1202 1781 2245 2324 1969 1347
1530.0 717 433 310 217 175 150 148 142 114 118
1570.0 142 131 139 123 134 126 131 120 131 138
1610.0 144 145 121 119 102 141 146 166 170 172
1650.0 132 127 80 81 69 63 37 49 42 36
1690.0 42 65 39 42 34 49 53 45 47 63
1730.0 50 43 42 54 63 70 77 78 82 92
1770.0 98 126 160 182 175 139 101 62 44 45
1810.0 42 41 44 37 33 38 38 46 49 44
1850.0 54 65 64 75 77 74 101 120 143 160
1890.0 176 179 178 167 136 105 85 72 54 56
1930.0 51 45 49 39 41 45 41 44 39 30
1970.0 38 34 34 32 28 27 32 36 38 36
2010.0 39 32 35 32 33 27 26 31 26 21
2050.0 23 16 22 14 0 8 7 19 20 24
2090.0 23 24 32 27 23 20 21 19 18 18
2130.0 19 25 23 30 23 23 28 24 25 24
2170.0 30 28 35 29 35 29 28 33 28 26
2210.0 22 28 27 27 27 27 34 27 27 32
2250.0 26 22 26 27 27 20 24 25 32 31
2290.0 32 44 36 42 43 50 44 59 65 63
2330.0 59 36 30 31 5 48 70 74 38 0
2370.0 0 0 0 13 32 40 36 36 35 29
2410.0 29 27 24 22 29 19 17 17 17 17
2450.0 17 22 17 17 17 24 21 19 16 15
2490.0 23 15 16 16 9 15 14 14 21 14
2530.0 15 10 15 11 14 18 26 25 32 38
2570.0 31 26 19 16 17 21 32 34 32 26
2610.0 25 24 19 25 24 26 23 23 30 30
2650.0 33 39 41 48 36 24 18 11 6 6
2690.0 11 12 16 29 35 51 63 70 81 82
2730.0 83 107 120 130 142 127 94 79 67 62
2770.0 53 54 58 71 84 85 87 94 89 114
2810.0 132 150 170 187 194 215 243 263 299 352
2850.0 437 554 749 1069 1484 1975 2443 2764 2855 2780
2890.0 2602 2393 2274 2306 2528 2858 3140 3290 3347 3388
2930.0 3479 3576 3543 3482 3496 3867 4874 6393 8067 9489
2970.0 10000 9156 7418 5332 3665 2586 1944 1570 1365 1281
3010.0 1254 1296 1454 1742 2065 2224 2112 1787 1355 1064
3050.0 963 961 956 973 953 914 850 787 733 693
3090.0 663 650 620 560 487 413 327 241 200 170
3130.0 154 147 147 135 128 113 115 112 97 110
3170.0 111 91 98 88 73 83 77 79 94 87
3210.0 85 75 81 93 86 81 83 83 84 84
3250.0 84 69 77 88 71 58 51 51 41 54
3290.0 61 52 47 39 47 45 41 55 34 34
3330.0 28 30 39 33 28 36 32 28 32 24
3370.0 35 43 23 30 29 41 33 44 35 46
3410.0 30 27 42 37 24 34 18 11 23 22
3450.0 10 5 26 21 25 50 47 39 25 35
3490.0 25 19 29 18 19 12 17 36 38 19
3530.0 30 19 27 25 6 12 19 30 28 30
3570.0 46 19 19 36 26 29 30 36 36 44
3610.0 55 47 54 50 53 48 17 23 39 51
3650.0 64 41 29 42 69 67 72 68 53 59
3690.0 61 46 56 48 31 35 38 46 46 62
3730.0 57 67 49 64 57 33 1 23 13 31
3770.0 28 36 38 43 42 39 66 49 58 52
3810.0 41 42 29 40 39 46 52 49 42 54
3850.0 62 46 30 31 36 50 40 50 55 51
3890.0 53 50 54 55 48 44 42 45 42 32
3930.0 46 48 56 49 44 37 29 29 31 41
##END=
