##TITLE=Benzenemethanamine, .alpha.-methyl-
##JCAMP-DX=4.24
##DATA TYPE=INFRARED SPECTRUM
##ORIGIN=Sadtler Research Labs Under US-EPA Contract
##OWNER=NIST Standard Reference Data Program
##CAS REGISTRY NO=98-84-0
##MOLFORM=C 8 H 11 N
##XUNITS=1/CM
##YUNITS=ABSORBANCE
##XFACTOR=1.0
##YFACTOR=0.000047626
##DELTAX=4.0
##FIRSTX=450.0
##LASTX=3966.0
##FIRSTY=0.003381
##MAXX=3966
##MINX=450
##MAXY=0.47626
##MINY=0
##NPOINTS=880
##XYDATA=(X++(Y..Y))
450.0 71 0 335 251 693 540 540 810 530 593
490.0 709 287 846 662 650 846 1046 1058 1342 1494
530.0 1776 2075 1941 1953 1537 1103 1072 1056 1020 994
570.0 1179 1250 1451 1550 1871 1567 1671 1645 1023 935
610.0 992 625 595 667 871 603 570 498 551 632
650.0 648 598 743 921 1165 1654 1969 2611 3364 4815
690.0 6161 7724 10000 9066 7729 6482 5400 4695 3954 3949
730.0 4463 4851 5898 6693 7530 7347 7662 7871 7339 6842
770.0 5938 5508 5088 4983 5048 5279 5684 5898 5934 6000
810.0 5800 5810 5421 4747 4004 3568 3178 2767 2569 2310
850.0 1829 1656 1468 1058 1096 915 925 883 791 759
890.0 771 922 814 833 1029 1074 1063 840 494 571
930.0 516 379 283 330 298 247 256 156 265 247
970.0 223 319 343 428 389 545 472 662 806 978
1010.0 1246 1569 2134 2461 2511 2300 1996 1588 1316 1294
1050.0 1314 1300 1226 1278 1205 1306 1308 1290 1317 1266
1090.0 1413 1576 1732 1872 1900 1955 1746 1411 1081 860
1130.0 637 484 460 394 383 359 364 423 444 539
1170.0 651 720 766 809 744 646 586 550 552 545
1210.0 574 567 564 662 757 797 755 790 729 616
1250.0 566 523 487 532 560 683 797 910 976 1033
1290.0 1103 1201 1357 1464 1526 1545 1627 1734 1737 1704
1330.0 1720 1561 1497 1312 1280 1416 1692 2035 2533 2994
1370.0 3231 3419 3293 2686 2256 1712 1213 866 656 561
1410.0 538 456 506 488 553 716 911 1283 1706 2176
1450.0 2632 2676 2626 2371 1922 1411 1147 1117 1403 1749
1490.0 2153 2266 2274 1961 1456 938 765 631 621 606
1530.0 600 600 549 561 571 570 537 504 503 598
1570.0 658 752 866 1010 1164 1424 1717 2071 2466 2735
1610.0 2968 3113 3044 2979 2705 2359 2007 1561 1312 1015
1650.0 818 680 542 551 478 434 375 294 259 185
1690.0 160 133 98 85 106 96 112 109 129 164
1730.0 167 209 189 227 231 228 201 168 143 106
1770.0 123 98 125 164 223 292 368 424 454 399
1810.0 336 261 185 159 142 107 91 76 102 107
1850.0 154 174 225 254 288 339 360 388 386 360
1890.0 322 272 199 157 121 110 112 130 171 200
1930.0 258 324 380 415 437 441 425 357 281 226
1970.0 150 85 63 49 47 53 47 36 37 27
2010.0 22 22 21 24 23 20 16 19 29 18
2050.0 15 18 15 22 20 14 20 14 32 30
2090.0 18 21 19 21 25 19 20 18 18 16
2130.0 25 16 17 18 23 24 19 18 19 13
2170.0 9 10 15 21 18 15 15 11 11 7
2210.0 9 6 3 15 15 16 20 27 19 26
2250.0 32 43 38 45 46 49 57 57 57 58
2290.0 50 51 35 40 55 61 67 72 78 67
2330.0 55 64 60 76 65 64 49 41 40 59
2370.0 47 44 48 57 52 48 58 58 61 64
2410.0 69 64 76 71 64 81 83 83 87 96
2450.0 91 103 109 104 111 119 120 117 123 122
2490.0 113 130 120 124 123 115 112 108 114 117
2530.0 121 126 125 129 139 139 152 159 173 176
2570.0 185 198 213 230 231 232 238 246 254 235
2610.0 241 241 252 252 245 257 259 254 250 247
2650.0 230 229 225 230 218 218 222 218 220 227
2690.0 225 233 229 238 237 237 261 270 296 295
2730.0 302 306 297 288 281 270 283 283 281 302
2770.0 310 319 335 346 369 401 456 515 595 694
2810.0 785 884 954 1004 1026 1042 1099 1183 1336 1554
2850.0 1836 2131 2414 2648 2867 3068 3190 3224 3164 3024
2890.0 2856 2722 2655 2660 2680 2678 2663 2675 2807 3049
2930.0 3246 3335 3240 3003 2727 2543 2795 3795 5345 6645
2970.0 7526 7922 7765 6589 5243 4314 3358 2504 1844 1514
3010.0 1495 1730 2199 2894 3708 4386 4849 4992 4726 4101
3050.0 3486 3045 3057 3586 4306 4882 5144 5070 4655 3864
3090.0 3090 2644 2287 1919 1575 1258 976 754 548 361
3130.0 228 149 108 80 74 72 78 71 83 89
3170.0 97 108 97 86 65 75 61 65 57 58
3210.0 38 43 48 43 57 42 48 47 15 29
3250.0 3 22 15 18 15 13 19 23 10 33
3290.0 41 35 30 30 40 42 56 54 79 144
3330.0 194 237 253 250 223 172 122 82 65 40
3370.0 42 43 43 30 20 65 53 60 53 75
3410.0 65 84 75 68 60 55 54 58 72 75
3450.0 60 68 79 77 56 72 81 81 61 76
3490.0 81 85 55 76 58 66 81 61 58 74
3530.0 63 55 56 55 62 67 68 65 64 65
3570.0 70 68 69 62 86 71 74 58 96 79
3610.0 102 80 108 109 94 90 109 119 137 126
3650.0 109 132 149 182 115 106 74 96 107 100
3690.0 89 80 118 107 88 84 126 114 100 142
3730.0 94 70 97 79 85 64 108 80 100 101
3770.0 104 105 135 103 110 106 102 134 139 105
3810.0 137 114 106 116 99 133 126 96 91 100
3850.0 92 68 136 101 62 103 125 100 152 90
3890.0 86 84 107 190 79 104 149 135 73 101
3930.0 121 122 113 180 135 143 75 102 149 150
##END=
