##TITLE=Benzenemethanol, .alpha.-methyl-
##JCAMP-DX=4.24
##DATA TYPE=INFRARED SPECTRUM
##ORIGIN=Sadtler Research Labs Under US-EPA Contract
##OWNER=NIST Standard Reference Data Program
##CAS REGISTRY NO=98-85-1
##MOLFORM=C 8 H 10 O
##XUNITS=1/CM
##YUNITS=ABSORBANCE
##XFACTOR=1.0
##YFACTOR=0.000069208
##DELTAX=4.0
##FIRSTX=450.0
##LASTX=3966.0
##FIRSTY=0.000000
##MAXX=3966
##MINX=450
##MAXY=0.69208
##MINY=0
##NPOINTS=880
##XYDATA=(X++(Y..Y))
450.0 0 410 304 373 733 336 791 706 943 643
490.0 801 688 668 707 702 835 866 1246 1402 1792
530.0 1945 2148 2082 1743 1433 1042 816 544 540 449
570.0 523 553 575 563 585 748 963 1292 1403 1473
610.0 1402 1208 840 613 567 524 514 439 461 430
650.0 456 500 560 692 730 1093 1443 2180 3157 4496
690.0 6277 7287 10000 8284 7085 5865 4581 3390 2562 2126
730.0 1957 1954 2111 2557 3150 3988 4602 5472 5644 4764
770.0 3783 2959 2062 1416 959 720 592 504 443 399
810.0 360 326 316 298 311 298 323 341 332 365
850.0 379 419 436 502 573 691 841 1068 1432 1918
890.0 2530 3142 3602 3872 3804 3534 2890 2224 1684 1261
930.0 954 769 654 621 612 619 636 670 720 793
970.0 927 1125 1433 1842 2356 2953 3493 3960 4254 4337
1010.0 4281 4114 4114 4191 4123 3780 3708 3534 3385 3486
1050.0 3911 4365 4908 5511 6184 6978 7426 7746 7773 7607
1090.0 7230 6757 6174 5568 4874 3986 3238 2641 2167 1743
1130.0 1467 1281 1198 1168 1176 1227 1317 1483 1697 1979
1170.0 2230 2405 2500 2491 2428 2367 2356 2364 2376 2310
1210.0 2202 2047 1945 1905 1964 2138 2399 2831 3405 4099
1250.0 4589 4771 4703 4344 3821 3368 3212 3140 3143 3090
1290.0 3102 3082 3019 2979 2921 2875 2758 2717 2715 2732
1330.0 2695 2660 2646 2719 2985 3470 4100 4566 4920 5055
1370.0 5139 5119 5128 4956 4528 3974 3235 2591 2020 1689
1410.0 1391 1271 1166 1192 1160 1313 1535 1908 2412 2940
1450.0 3417 3412 3430 3107 2505 1872 1466 1225 1359 1710
1490.0 2053 2171 2129 1924 1580 934 728 640 622 595
1530.0 551 579 516 557 473 455 394 425 391 366
1570.0 385 393 423 468 527 666 796 981 1009 1055
1610.0 950 789 635 489 395 350 340 355 331 348
1650.0 373 397 401 419 461 462 500 429 426 405
1690.0 357 354 397 417 404 392 402 415 391 374
1730.0 403 450 474 484 508 496 485 441 403 365
1770.0 367 365 347 365 419 502 628 713 755 728
1810.0 680 562 452 392 372 351 317 300 303 318
1850.0 330 361 401 459 510 572 604 642 690 680
1890.0 653 591 533 449 395 367 363 365 389 419
1930.0 472 543 617 656 686 725 745 687 608 536
1970.0 469 375 327 308 308 306 305 292 286 278
2010.0 265 258 256 253 239 245 237 235 235 235
2050.0 235 232 236 241 243 241 244 246 248 248
2090.0 253 255 251 251 250 252 248 246 245 242
2130.0 249 246 250 249 253 249 252 253 256 254
2170.0 253 256 256 260 259 265 260 263 261 259
2210.0 261 264 263 268 270 271 272 274 280 283
2250.0 290 296 296 301 303 305 307 311 310 309
2290.0 306 304 303 296 309 320 326 329 336 337
2330.0 340 334 333 350 343 328 312 310 326 330
2370.0 325 323 326 317 318 307 310 309 307 300
2410.0 302 300 300 305 304 308 311 317 319 325
2450.0 324 320 320 316 312 310 311 307 307 305
2490.0 306 307 306 314 313 307 302 304 300 299
2530.0 300 297 297 301 309 310 318 326 331 332
2570.0 339 341 352 364 372 390 403 415 420 429
2610.0 433 430 420 420 415 408 404 394 383 372
2650.0 363 359 353 358 361 364 365 369 368 372
2690.0 371 374 369 371 369 374 374 378 384 388
2730.0 392 399 401 409 413 419 419 423 424 420
2770.0 422 428 437 446 465 489 514 537 576 613
2810.0 651 676 703 724 748 777 811 856 912 980
2850.0 1075 1217 1430 1742 2198 2772 3401 3959 4366 4567
2890.0 4562 4370 4081 3759 3439 3149 2909 2771 2730 2821
2930.0 2990 3141 3185 3079 2828 2532 2350 2393 2749 3376
2970.0 4387 5809 7608 9029 9117 8532 7243 5151 3204 2178
3010.0 1851 1873 2187 2720 3501 4300 4919 5298 5317 4932
3050.0 4341 3771 3549 3863 4530 5220 5591 5638 5364 4677
3090.0 3784 3235 2897 2525 2157 1794 1506 1236 1011 785
3130.0 617 501 439 392 365 365 363 366 379 395
3170.0 392 397 401 394 385 374 370 362 356 354
3210.0 343 336 337 349 342 338 327 322 308 300
3250.0 284 283 275 276 275 275 276 273 277 273
3290.0 280 275 276 274 272 268 262 265 259 267
3330.0 263 278 270 282 277 287 295 297 308 306
3370.0 304 302 301 293 290 281 282 280 281 282
3410.0 286 297 288 298 306 305 288 295 290 287
3450.0 296 289 306 303 308 300 300 287 275 272
3490.0 266 272 260 260 259 273 277 284 280 275
3530.0 279 262 272 260 262 266 272 261 259 276
3570.0 276 291 280 298 277 309 325 310 344 362
3610.0 405 434 533 640 803 1049 1471 1849 2368 2854
3650.0 3268 3099 2783 2323 1789 1313 875 683 540 469
3690.0 429 414 360 340 308 302 276 281 257 254
3730.0 275 268 265 238 286 234 284 240 254 261
3770.0 250 272 261 294 251 266 246 277 260 298
3810.0 236 264 262 300 277 285 292 297 270 272
3850.0 258 277 287 257 258 278 275 294 275 296
3890.0 253 289 240 282 238 268 261 257 257 256
3930.0 275 236 265 251 251 230 245 232 232 232
##END=
