##TITLE=Benzene, (1-methylethyl)-
##JCAMP-DX=4.24
##DATA TYPE=INFRARED SPECTRUM
##ORIGIN=Sadtler Research Labs Under US-EPA Contract
##OWNER=NIST Standard Reference Data Program
##CAS REGISTRY NO=98-82-8
##MOLFORM=C 9 H 12
##XUNITS=1/CM
##YUNITS=ABSORBANCE
##XFACTOR=1.0
##YFACTOR=0.000090274
##DELTAX=4.0
##FIRSTX=450.0
##LASTX=3966.0
##FIRSTY=0.005687
##MAXX=3966
##MINX=450
##MAXY=0.90274
##MINY=0
##NPOINTS=880
##XYDATA=(X++(Y..Y))
450.0 63 76 49 38 30 44 51 71 85 95
490.0 76 135 204 294 307 393 463 523 642 676
530.0 727 768 716 660 497 394 335 269 221 159
570.0 149 171 128 181 206 166 126 89 61 12
610.0 41 46 34 49 62 0 87 84 78 62
650.0 72 99 126 203 296 475 680 1132 1656 2397
690.0 3062 3548 4239 3329 2713 2012 1362 851 540 430
730.0 429 597 785 1082 1514 1919 2237 2547 2368 1833
770.0 1390 932 545 298 174 131 87 62 43 52
810.0 32 46 36 41 21 16 16 29 29 29
850.0 47 55 58 57 81 88 114 170 188 223
890.0 228 227 208 190 184 165 160 148 139 136
930.0 130 128 134 128 136 124 126 119 92 71
970.0 63 58 50 55 67 79 91 96 110 143
1010.0 219 334 608 882 961 971 929 757 561 509
1050.0 519 537 533 459 468 521 596 640 601 528
1090.0 439 338 303 286 275 257 219 165 143 133
1130.0 145 154 164 155 156 129 123 117 129 140
1170.0 138 147 149 147 146 130 113 110 126 154
1210.0 144 150 144 131 114 134 154 155 177 215
1250.0 289 391 461 501 529 515 411 327 337 363
1290.0 387 404 423 428 436 414 439 451 439 401
1330.0 323 251 227 267 371 507 642 746 828 855
1370.0 935 856 848 864 844 761 695 562 382 284
1410.0 220 216 223 245 271 341 448 626 826 1058
1450.0 1233 1328 1443 1413 1321 1202 1099 1041 1082 1251
1490.0 1468 1555 1522 1362 1042 639 374 257 219 189
1530.0 161 140 127 117 103 93 78 82 87 91
1570.0 102 122 169 211 296 430 597 771 904 908
1610.0 805 619 433 212 94 74 57 63 58 64
1650.0 72 116 129 135 125 129 117 113 102 117
1690.0 140 207 298 369 377 389 382 311 213 182
1730.0 163 169 161 150 155 121 100 94 79 69
1770.0 87 82 102 121 168 220 236 248 230 183
1810.0 133 89 78 55 51 43 35 35 41 67
1850.0 88 106 122 145 155 187 185 173 156 147
1890.0 107 75 54 47 45 42 46 63 85 119
1930.0 152 180 195 212 224 215 192 151 124 86
1970.0 51 25 24 14 18 19 23 13 13 13
2010.0 12 7 13 7 12 1 18 19 22 16
2050.0 9 12 16 8 6 6 6 23 29 33
2090.0 26 26 29 10 11 6 6 6 1 0
2130.0 11 6 5 7 7 7 7 4 11 5
2170.0 10 15 4 6 10 5 10 10 13 9
2210.0 15 7 17 15 20 17 22 10 16 22
2250.0 21 26 37 35 29 33 33 32 26 38
2290.0 28 32 32 45 46 60 65 71 64 58
2330.0 59 59 34 54 40 51 50 40 53 26
2370.0 6 33 18 20 33 30 27 27 28 39
2410.0 28 38 32 26 21 28 28 26 26 28
2450.0 16 12 23 22 28 39 33 36 39 36
2490.0 34 37 42 39 39 28 23 22 26 27
2530.0 30 24 28 31 34 35 37 34 34 32
2570.0 28 33 41 45 62 63 68 74 73 64
2610.0 60 60 50 33 33 34 27 32 25 16
2650.0 20 23 33 35 48 54 50 55 49 49
2690.0 55 51 50 51 49 50 61 75 82 87
2730.0 98 88 109 110 103 115 116 114 119 114
2770.0 107 103 103 99 92 104 113 137 154 169
2810.0 197 205 208 209 225 211 228 244 279 323
2850.0 365 439 535 687 920 1277 1720 2110 2370 2499
2890.0 2527 2494 2467 2436 2414 2347 2228 2152 2181 2308
2930.0 2517 2843 3082 3146 3156 3294 3821 5093 7098 8878
2970.0 10000 9882 8256 5764 3626 2189 1416 1039 867 813
3010.0 842 963 1185 1549 2019 2456 2738 2841 2711 2348
3050.0 1906 1608 1608 1858 2239 2521 2675 2626 2428 2016
3090.0 1683 1488 1300 1109 912 743 603 474 365 263
3130.0 191 138 127 116 103 113 103 117 114 146
3170.0 145 134 126 124 127 127 130 125 105 102
3210.0 101 86 92 92 67 77 57 54 47 28
3250.0 32 27 47 57 60 49 63 70 64 47
3290.0 44 24 26 21 18 9 15 7 21 20
3330.0 36 31 49 28 29 35 24 47 12 26
3370.0 22 51 20 37 37 36 30 42 22 49
3410.0 21 31 37 34 27 25 40 25 35 47
3450.0 31 42 43 20 35 21 43 30 23 46
3490.0 36 39 38 29 30 36 53 33 39 43
3530.0 55 41 58 47 35 34 32 30 59 44
3570.0 56 38 38 33 43 40 47 43 42 41
3610.0 35 59 50 51 53 66 61 69 66 89
3650.0 78 66 74 62 54 61 66 56 64 67
3690.0 48 54 30 43 52 44 50 36 56 47
3730.0 59 53 58 52 59 44 52 43 52 41
3770.0 61 52 57 46 49 52 52 46 62 50
3810.0 59 50 71 63 78 73 67 63 58 62
3850.0 52 66 69 62 59 68 60 47 44 37
3890.0 34 35 42 46 50 49 66 56 46 37
3930.0 46 44 41 49 56 60 53 54 63 68
##END=
