##TITLE=Acetophenone
##JCAMP-DX=4.24
##DATA TYPE=INFRARED SPECTRUM
##ORIGIN=Sadtler Research Labs Under US-EPA Contract
##OWNER=NIST Standard Reference Data Program
##CAS REGISTRY NO=98-86-2
##MOLFORM=C 8 H 8 O
##XUNITS=1/CM
##YUNITS=ABSORBANCE
##XFACTOR=1.0
##YFACTOR=0.000063797
##DELTAX=4.0
##FIRSTX=450.0
##LASTX=3966.0
##FIRSTY=0.083574
##MAXX=3966
##MINX=450
##MAXY=0.63797
##MINY=0
##NPOINTS=880
##XYDATA=(X++(Y..Y))
450.0 1310 590 286 402 167 257 295 182 344 53
490.0 252 47 472 222 215 232 158 232 146 311
530.0 138 262 210 243 106 209 280 197 298 245
570.0 634 813 1862 2547 2881 3162 2818 1777 868 672
610.0 440 439 244 311 195 172 133 144 174 122
650.0 142 97 191 212 365 660 908 1330 1568 1976
690.0 2806 2469 1585 1706 1161 847 501 455 395 225
730.0 379 376 839 1071 1506 1652 2344 3292 1876 1575
770.0 1233 886 433 264 132 192 85 22 118 53
810.0 94 20 93 2 41 50 57 53 49 92
850.0 20 87 33 84 23 78 56 58 86 102
890.0 141 122 217 172 201 196 207 221 237 285
930.0 287 446 672 1097 1349 1468 1470 1360 959 550
970.0 387 242 238 183 188 147 183 187 184 247
1010.0 295 454 618 753 702 629 552 318 160 119
1050.0 157 146 214 229 366 402 482 497 497 455
1090.0 377 371 258 247 192 200 126 136 123 101
1130.0 107 85 108 80 138 143 188 200 264 344
1170.0 510 823 876 912 838 775 463 300 275 289
1210.0 326 354 445 517 769 1039 1362 1608 2108 3069
1250.0 4899 7531 9421 10000 9942 8618 4263 1461 743 571
1290.0 553 547 607 676 732 634 549 458 349 282
1330.0 253 296 338 528 826 1452 2360 2999 3220 3401
1370.0 3151 2128 1300 836 583 430 365 309 315 335
1410.0 340 403 375 518 557 682 743 995 1251 1352
1450.0 1256 1169 1074 755 463 308 204 172 200 165
1490.0 137 175 133 159 121 104 109 138 129 175
1530.0 177 210 201 157 190 192 181 139 198 224
1570.0 260 358 458 556 633 760 856 877 848 845
1610.0 798 634 408 319 238 217 156 143 179 206
1650.0 212 302 404 501 526 553 612 754 969 1487
1690.0 2520 4284 6820 8686 9209 9217 8981 6284 3571 1940
1730.0 1085 665 524 511 446 478 479 460 360 312
1770.0 228 157 141 100 104 79 108 120 165 214
1810.0 216 206 188 153 97 89 86 117 84 83
1850.0 99 102 86 67 75 50 101 118 141 151
1890.0 170 188 181 189 162 154 114 111 80 75
1930.0 84 87 106 98 143 161 183 175 199 191
1970.0 181 172 160 163 143 137 117 130 108 101
2010.0 92 91 85 70 78 66 69 49 65 54
2050.0 64 58 47 43 16 15 1 13 16 39
2090.0 36 38 51 51 51 46 53 37 40 29
2130.0 35 27 29 37 21 37 33 41 29 36
2170.0 39 27 37 40 46 41 56 45 56 58
2210.0 61 58 51 59 48 55 44 52 36 47
2250.0 52 51 50 43 60 45 63 55 63 47
2290.0 51 41 25 23 13 9 0 22 0 18
2330.0 14 56 55 55 92 48 1 1 63 170
2370.0 228 257 223 174 112 100 64 69 48 53
2410.0 50 51 53 52 73 59 66 63 74 67
2450.0 60 60 57 51 49 56 52 58 54 52
2490.0 58 58 70 64 79 85 103 88 94 97
2530.0 93 78 75 83 75 86 83 97 86 98
2570.0 86 71 93 74 85 82 113 112 113 128
2610.0 136 131 131 142 120 133 117 119 95 110
2650.0 108 100 114 103 95 46 41 19 21 32
2690.0 46 54 63 83 75 78 75 85 78 74
2730.0 69 74 83 74 96 89 94 86 84 75
2770.0 96 82 76 86 85 105 79 90 93 87
2810.0 95 97 96 82 115 104 117 121 140 142
2850.0 164 172 185 188 180 187 172 177 163 166
2890.0 151 153 169 155 157 159 197 210 223 250
2930.0 291 309 316 319 301 299 284 285 309 335
2970.0 357 397 426 389 357 322 329 314 356 470
3010.0 583 671 702 770 749 772 797 879 938 943
3050.0 943 948 956 1016 1294 1505 1640 1623 1632 1524
3090.0 1212 1039 1061 1004 811 608 495 377 299 220
3130.0 172 157 154 148 160 137 147 150 156 140
3170.0 127 126 115 109 92 90 83 106 110 115
3210.0 82 84 87 73 68 73 93 75 94 87
3250.0 86 73 65 76 71 85 65 69 58 81
3290.0 65 72 74 52 89 88 81 53 76 59
3330.0 55 56 84 76 48 72 70 83 59 98
3370.0 76 129 141 154 210 217 224 205 236 179
3410.0 113 103 71 71 54 54 45 47 39 42
3450.0 42 44 66 58 60 44 44 50 46 40
3490.0 50 46 55 45 49 34 39 48 25 61
3530.0 22 26 72 47 61 35 55 53 35 19
3570.0 56 30 39 39 27 69 26 70 21 24
3610.0 52 56 50 52 59 45 68 74 73 46
3650.0 50 52 50 48 71 7 59 50 51 37
3690.0 42 33 59 30 46 48 79 38 56 17
3730.0 69 92 61 53 72 73 37 54 51 50
3770.0 54 24 74 24 36 62 60 47 59 84
3810.0 56 68 68 121 47 63 38 76 64 93
3850.0 56 36 82 16 40 63 62 70 55 79
3890.0 11 87 16 39 45 110 87 37 1 43
3930.0 34 98 132 46 17 63 15 25 17 1
##END=
