##TITLE=.alpha.-Methylstyrene
##JCAMP-DX=4.24
##DATA TYPE=INFRARED SPECTRUM
##ORIGIN=Sadtler Research Labs Under US-EPA Contract
##OWNER=NIST Standard Reference Data Program
##CAS REGISTRY NO=98-83-9
##MOLFORM=C 9 H 10
##XUNITS=1/CM
##YUNITS=ABSORBANCE
##XFACTOR=1.0
##YFACTOR=0.000081857
##DELTAX=4.0
##FIRSTX=450.0
##LASTX=3966.0
##FIRSTY=0.008268
##MAXX=3966
##MINX=450
##MAXY=0.81857
##MINY=0
##NPOINTS=880
##XYDATA=(X++(Y..Y))
450.0 101 149 130 183 270 308 377 475 591 642
490.0 711 722 714 720 696 790 958 1203 1267 1323
530.0 1231 1228 945 951 881 802 730 620 498 365
570.0 215 151 109 152 95 83 59 2 57 75
610.0 90 64 47 35 72 68 92 149 145 164
650.0 195 299 410 581 899 1502 1848 2707 3844 5093
690.0 6381 7549 8766 10000 7705 5971 4660 3285 2076 1255
730.0 840 699 717 864 1055 1453 2059 2886 3661 4406
770.0 5202 6437 4556 3390 2582 1705 950 435 283 186
810.0 147 153 152 138 153 172 172 175 190 220
850.0 270 335 460 642 901 1321 1952 2810 3835 4870
890.0 5787 7612 6763 5508 4647 3703 2630 1766 1235 878
930.0 637 485 400 309 235 213 198 165 139 120
970.0 120 94 106 101 136 191 271 363 414 451
1010.0 572 763 1117 1458 1475 1405 1270 893 466 306
1050.0 264 290 332 400 498 541 589 585 571 514
1090.0 421 369 319 331 389 506 590 604 553 468
1130.0 291 133 61 45 13 18 23 23 23 21
1170.0 22 68 98 106 110 105 96 54 29 24
1210.0 29 53 86 112 143 187 195 204 196 190
1250.0 181 187 220 228 264 300 315 352 447 641
1290.0 909 1232 1495 1747 1841 1649 1301 1014 681 393
1330.0 242 203 214 211 198 268 331 470 675 1011
1370.0 1474 1943 2153 2208 2203 1769 1238 922 779 733
1410.0 766 776 904 1019 1245 1501 1909 2253 2508 2712
1450.0 2821 2836 2625 2377 2040 1733 1425 1260 1382 2019
1490.0 2778 3013 2976 2686 2181 1034 567 445 447 435
1530.0 471 449 442 411 410 377 377 446 516 654
1570.0 805 933 956 1096 1193 1300 1509 1768 1828 1793
1610.0 1694 1616 1552 1715 2119 2379 2482 2349 2243 1817
1650.0 1287 886 682 554 472 410 442 391 415 347
1690.0 302 249 195 126 124 111 126 134 147 160
1730.0 218 293 299 325 344 352 305 265 230 205
1770.0 247 281 385 561 834 1073 1165 1188 1143 920
1810.0 643 462 349 292 226 182 147 105 120 129
1850.0 131 153 190 252 304 332 353 421 448 424
1890.0 353 289 229 136 73 73 102 114 162 212
1930.0 290 360 401 428 490 523 483 400 329 259
1970.0 155 68 56 62 48 46 39 43 37 29
2010.0 20 28 35 20 16 17 5 0 5 14
2050.0 12 17 23 12 29 17 24 29 18 22
2090.0 21 27 26 24 12 28 14 25 20 29
2130.0 28 24 23 22 24 22 29 32 28 21
2170.0 31 35 41 23 17 17 28 26 11 13
2210.0 17 13 21 18 22 30 22 28 17 28
2250.0 25 29 33 30 35 28 37 39 35 29
2290.0 36 36 39 52 66 83 108 95 99 82
2330.0 90 81 90 91 93 82 75 66 108 36
2370.0 79 72 59 33 11 21 16 29 23 23
2410.0 30 41 49 40 48 54 48 45 36 34
2450.0 41 35 35 35 23 25 31 32 30 37
2490.0 32 31 35 24 30 17 29 18 12 23
2530.0 16 15 1 9 11 13 12 8 6 12
2570.0 6 19 31 23 30 46 42 53 51 56
2610.0 55 55 49 43 55 39 49 50 37 46
2650.0 39 33 37 35 39 28 28 16 23 32
2690.0 21 28 37 49 46 32 55 58 66 71
2730.0 102 107 103 117 122 123 102 81 82 87
2770.0 87 92 91 97 92 86 107 123 154 156
2810.0 164 187 199 211 226 258 282 312 343 410
2850.0 477 565 694 827 968 1059 1112 1124 1136 1137
2890.0 1125 1156 1192 1242 1310 1426 1575 1816 2138 2470
2930.0 2669 2773 2889 2897 2786 2714 2823 2889 2682 2838
2970.0 3446 4529 5135 5247 5010 4618 3418 2506 2164 2119
3010.0 2178 2300 2516 2816 3219 3617 4041 4290 4327 4238
3050.0 4071 4066 4590 5470 6232 6569 6740 6864 6851 6986
3090.0 6962 6936 6279 5335 3681 2451 1769 1340 929 640
3130.0 472 400 332 316 280 281 273 232 200 165
3170.0 122 126 112 85 93 77 74 73 64 65
3210.0 71 60 59 53 41 55 54 58 51 38
3250.0 36 50 42 35 44 43 27 43 57 41
3290.0 31 34 34 10 24 37 40 35 17 34
3330.0 35 30 35 12 15 42 36 42 34 7
3370.0 33 60 35 13 12 31 4 41 19 41
3410.0 22 23 5 31 38 43 50 39 39 12
3450.0 37 64 72 36 37 23 27 38 52 25
3490.0 36 24 64 55 57 41 42 59 33 19
3530.0 33 29 25 26 26 35 35 20 33 26
3570.0 6 0 16 26 36 34 19 35 66 53
3610.0 61 24 42 21 52 1 55 56 75 68
3650.0 51 67 62 70 24 49 55 45 27 21
3690.0 25 42 76 51 27 33 59 13 82 37
3730.0 35 50 53 38 32 46 43 53 49 40
3770.0 27 53 80 89 88 72 70 83 81 70
3810.0 44 58 52 58 68 65 54 44 41 50
3850.0 56 46 65 60 36 34 47 37 55 49
3890.0 67 81 67 55 45 33 45 72 86 67
3930.0 74 100 99 73 57 42 46 70 73 71
##END=
