##TITLE=Cyclohexanecarboxylic acid
##JCAMP-DX=4.24
##DATA TYPE=INFRARED SPECTRUM
##ORIGIN=Sadtler Research Labs Under US-EPA Contract
##OWNER=NIST Standard Reference Data Program
##CAS REGISTRY NO=98-89-5
##MOLFORM=C 7 H 12 O 2
##XUNITS=1/CM
##YUNITS=ABSORBANCE
##XFACTOR=1.0
##YFACTOR=0.000104654
##DELTAX=4.0
##FIRSTX=450.0
##LASTX=3966.0
##FIRSTY=0.038931
##MAXX=3966
##MINX=450
##MAXY=1.04654
##MINY=0
##NPOINTS=880
##XYDATA=(X++(Y..Y))
450.0 372 693 616 501 593 655 650 706 737 756
490.0 731 884 756 779 730 817 788 696 736 827
530.0 862 992 957 1176 1176 1179 1435 1545 1503 1724
570.0 1720 1658 1623 1536 1482 1349 1226 1026 1013 1022
610.0 955 924 946 939 1106 1251 1480 1593 1469 1244
650.0 1072 683 479 346 370 320 239 236 206 206
690.0 220 293 294 358 463 478 441 548 583 604
730.0 622 560 570 510 443 294 333 279 248 214
770.0 174 170 141 144 123 84 92 72 49 66
810.0 52 57 25 42 35 92 76 51 66 70
850.0 62 32 68 83 132 143 179 220 281 311
890.0 320 343 311 257 255 211 187 164 182 134
930.0 110 84 73 62 50 30 31 18 2 4
970.0 19 51 62 96 154 219 266 339 402 482
1010.0 533 580 637 705 744 791 757 720 663 619
1050.0 568 585 674 781 924 1085 1286 1533 1812 2200
1090.0 2695 3379 4183 4905 5470 5822 5743 5332 4535 3973
1130.0 3554 3310 3228 3245 3283 3225 3108 2861 2607 2365
1170.0 2182 1982 1730 1487 1259 1029 862 741 624 529
1210.0 453 420 401 398 427 446 461 485 509 521
1250.0 523 549 578 577 582 578 533 514 492 511
1290.0 550 613 657 689 707 689 676 671 690 745
1330.0 815 847 873 858 840 760 692 630 593 602
1370.0 628 697 765 803 821 775 673 581 470 407
1410.0 349 319 288 282 289 296 364 487 681 894
1450.0 1098 1259 1296 1163 924 692 481 315 212 146
1490.0 98 63 57 41 35 36 16 21 22 31
1530.0 21 16 16 3 17 25 28 18 18 26
1570.0 22 16 7 9 32 14 8 13 12 7
1610.0 4 20 10 21 29 31 32 31 27 42
1650.0 41 55 67 54 65 67 67 67 78 93
1690.0 106 114 144 181 229 285 380 523 700 929
1730.0 1180 1462 1885 2291 2868 3638 4659 6065 7405 8557
1770.0 9302 9187 8279 6878 5269 3964 2964 2297 1776 1349
1810.0 1034 773 582 440 324 265 208 162 127 93
1850.0 95 73 61 65 57 56 56 61 58 56
1890.0 54 54 44 42 41 43 41 44 44 45
1930.0 45 48 54 53 49 50 46 45 41 34
1970.0 30 28 30 24 26 28 31 21 22 22
2010.0 29 31 36 36 31 32 31 31 26 33
2050.0 26 16 18 25 22 20 16 18 17 17
2090.0 17 15 17 17 20 18 16 14 16 22
2130.0 24 18 27 24 21 29 28 31 34 36
2170.0 37 38 39 46 44 44 43 49 50 49
2210.0 47 48 49 49 46 44 41 40 39 40
2250.0 40 33 28 32 34 26 37 42 41 50
2290.0 50 56 69 79 79 86 81 71 74 70
2330.0 71 62 73 76 109 88 112 80 103 82
2370.0 66 65 78 71 63 37 33 24 26 27
2410.0 27 23 24 26 20 23 24 20 21 22
2450.0 18 18 22 25 20 19 23 26 26 23
2490.0 24 24 24 19 17 14 12 5 10 10
2530.0 1 10 16 18 16 10 9 10 15 20
2570.0 17 17 28 29 27 22 29 32 35 36
2610.0 41 36 39 44 38 46 58 59 59 65
2650.0 75 86 100 108 117 128 120 109 99 90
2690.0 67 64 56 56 54 57 48 48 43 40
2730.0 37 36 33 32 23 18 18 15 19 22
2770.0 27 32 42 60 80 96 111 124 139 142
2810.0 145 152 159 180 191 206 240 301 410 605
2850.0 954 1474 2106 2678 3059 3153 2910 2465 1968 1556
2890.0 1283 1138 1135 1230 1461 1769 2208 2755 3450 4458
2930.0 5854 7457 9073 9863 10000 9350 7794 5834 4115 2775
2970.0 1831 1192 781 514 353 266 198 157 141 110
3010.0 91 83 80 77 79 90 86 92 88 89
3050.0 88 84 81 72 70 53 55 60 47 54
3090.0 61 61 58 61 61 73 70 76 73 71
3130.0 68 62 60 61 48 48 49 50 54 54
3170.0 53 55 49 51 54 55 53 55 52 52
3210.0 48 42 40 35 46 40 39 35 32 27
3250.0 28 25 31 31 39 36 35 29 16 31
3290.0 35 37 39 37 28 22 27 35 32 35
3330.0 33 24 30 29 27 36 29 35 44 38
3370.0 39 45 44 41 31 25 19 12 8 0
3410.0 19 32 28 37 48 50 52 59 59 55
3450.0 57 69 58 52 59 62 57 61 59 53
3490.0 63 77 81 91 86 90 100 116 116 108
3530.0 126 121 121 143 149 187 289 531 1148 2195
3570.0 3119 3334 3441 3011 2165 1002 401 218 129 93
3610.0 82 71 69 63 62 75 75 78 58 59
3650.0 47 59 65 48 54 47 43 46 60 58
3690.0 56 70 58 73 65 71 56 68 82 61
3730.0 88 85 100 165 162 193 184 174 135 100
3770.0 79 56 68 70 76 71 63 77 83 76
3810.0 86 58 75 84 83 85 102 100 97 106
3850.0 88 68 85 79 103 99 75 71 98 81
3890.0 72 94 104 88 74 88 98 75 51 75
3930.0 86 69 61 94 81 68 44 89 103 67
##END=
