##TITLE=Benzene, nitro-
##JCAMP-DX=4.24
##DATA TYPE=INFRARED SPECTRUM
##ORIGIN=Sadtler Research Labs Under US-EPA Contract
##OWNER=NIST Standard Reference Data Program
##CAS REGISTRY NO=98-95-3
##MOLFORM=C 6 H 5 N O 2
##XUNITS=1/CM
##YUNITS=ABSORBANCE
##XFACTOR=1.0
##YFACTOR=0.000153995
##DELTAX=4.0
##FIRSTX=450.0
##LASTX=3966.0
##FIRSTY=0.012166
##MAXX=3966
##MINX=450
##MAXY=1.53995
##MINY=0
##NPOINTS=880
##XYDATA=(X++(Y..Y))
450.0 79 82 99 102 76 92 78 113 31 80
490.0 66 80 58 58 126 93 122 118 119 86
530.0 91 72 102 3 63 89 66 91 47 75
570.0 71 80 75 68 97 36 179 119 82 91
610.0 57 83 75 74 82 107 82 85 64 88
650.0 111 138 224 313 474 775 1069 1558 2132 2459
690.0 3202 3069 3518 5018 4374 2946 2612 1932 1249 659
730.0 323 183 113 91 81 90 96 102 129 162
770.0 271 383 535 608 748 1079 844 487 512 332
810.0 237 148 107 94 85 144 203 564 1285 1903
850.0 1831 2009 1993 1308 538 281 167 112 84 69
890.0 68 70 75 67 75 87 118 134 164 188
930.0 240 255 197 182 171 152 113 87 70 53
970.0 39 35 40 28 34 52 44 43 61 91
1010.0 210 419 554 505 512 453 277 107 84 107
1050.0 157 226 294 342 350 347 355 329 298 279
1090.0 257 262 281 318 332 338 318 308 248 171
1130.0 123 76 62 60 64 64 92 96 134 282
1170.0 383 377 381 368 279 142 85 75 71 72
1210.0 71 79 93 106 121 149 177 198 208 207
1250.0 200 172 143 124 120 120 120 138 177 237
1290.0 316 386 423 436 479 496 398 366 427 509
1330.0 762 1346 2563 4495 6664 8076 8744 8633 7223 4509
1370.0 2556 1586 1036 746 617 463 362 314 290 268
1410.0 255 208 166 117 92 81 83 90 91 102
1450.0 114 139 173 204 281 467 788 971 1031 1046
1490.0 1134 891 631 546 539 601 766 1154 1883 3097
1530.0 4851 7126 9369 10000 9458 9746 9160 6512 4081 2639
1570.0 1781 1272 988 876 865 923 1035 1186 1298 1302
1610.0 1219 1304 1346 1010 823 760 562 365 247 179
1650.0 146 136 126 127 117 104 108 84 87 71
1690.0 59 49 61 58 60 66 82 103 92 89
1730.0 93 100 93 95 109 120 122 121 123 123
1770.0 125 119 97 90 93 116 146 175 191 177
1810.0 155 123 83 51 42 41 32 26 26 26
1850.0 26 20 20 24 27 33 30 38 44 61
1890.0 77 92 99 103 114 125 123 111 98 78
1930.0 65 50 49 62 82 97 111 116 124 137
1970.0 134 116 97 79 60 43 31 27 24 27
2010.0 23 23 22 17 19 16 14 13 7 9
2050.0 7 13 4 6 6 3 1 0 0 2
2090.0 3 8 9 12 12 14 15 17 17 16
2130.0 17 16 14 17 18 18 16 16 16 13
2170.0 11 12 13 16 15 17 20 22 23 23
2210.0 23 23 24 22 25 28 29 29 28 28
2250.0 24 26 25 28 26 30 31 31 28 24
2290.0 21 18 22 25 23 33 41 51 56 55
2330.0 64 50 45 59 52 34 27 28 49 52
2370.0 62 61 63 62 62 53 50 50 42 34
2410.0 31 31 30 30 28 31 31 35 38 41
2450.0 47 51 59 62 61 60 52 41 37 30
2490.0 23 21 16 14 17 15 16 14 13 17
2530.0 17 14 14 14 15 12 12 16 17 18
2570.0 20 18 24 27 30 35 42 37 38 38
2610.0 37 40 42 40 40 37 38 42 40 39
2650.0 47 47 40 41 33 35 33 30 37 53
2690.0 65 75 80 87 86 77 68 54 47 43
2730.0 40 37 27 28 25 24 21 26 28 28
2770.0 29 37 33 31 36 32 34 36 36 43
2810.0 42 47 47 50 51 53 49 52 48 50
2850.0 52 57 66 81 106 138 176 209 234 246
2890.0 246 245 216 168 140 112 97 96 83 92
2930.0 93 90 99 103 106 95 94 80 75 76
2970.0 64 58 57 50 54 54 46 54 59 42
3010.0 46 40 51 63 70 81 93 109 135 179
3050.0 218 262 314 388 482 591 665 847 1084 1083
3090.0 978 845 623 363 167 94 70 55 50 45
3130.0 38 36 31 32 31 32 28 24 26 31
3170.0 35 29 20 27 28 35 35 34 33 41
3210.0 39 43 43 51 39 29 39 46 43 24
3250.0 17 31 29 16 19 11 19 20 20 24
3290.0 35 37 34 25 30 20 28 20 36 33
3330.0 20 36 24 28 32 32 30 30 34 36
3370.0 33 36 42 32 23 29 30 36 23 39
3410.0 33 35 34 28 33 37 26 37 24 28
3450.0 32 21 37 39 33 31 29 32 34 31
3490.0 29 42 35 23 24 23 28 28 34 31
3530.0 32 26 35 44 30 23 38 33 41 15
3570.0 36 35 38 15 24 34 49 34 46 30
3610.0 31 37 35 42 37 36 34 61 42 33
3650.0 27 36 26 37 46 45 40 56 43 34
3690.0 43 36 52 46 54 63 56 48 59 56
3730.0 47 57 65 65 46 62 67 58 54 54
3770.0 69 50 69 63 68 66 74 54 32 59
3810.0 48 44 32 35 51 79 45 64 50 23
3850.0 28 58 50 42 40 41 71 21 40 51
3890.0 70 70 55 30 56 22 82 70 63 63
3930.0 78 61 48 58 26 60 46 68 58 84
##END=
