##TITLE=Benzene, 1-methyl-3-nitro-
##JCAMP-DX=4.24
##DATA TYPE=INFRARED SPECTRUM
##ORIGIN=Sadtler Research Labs Under US-EPA Contract
##OWNER=NIST Standard Reference Data Program
##CAS REGISTRY NO=99-08-1
##MOLFORM=C 7 H 7 N O 2
##XUNITS=1/CM
##YUNITS=ABSORBANCE
##XFACTOR=1.0
##YFACTOR=0.000075677
##DELTAX=4.0
##FIRSTX=450.0
##LASTX=3966.0
##FIRSTY=0.004768
##MAXX=3966
##MINX=450
##MAXY=0.75677
##MINY=0
##NPOINTS=880
##XYDATA=(X++(Y..Y))
450.0 63 58 81 103 116 131 147 158 159 145
490.0 144 133 94 68 81 52 31 57 33 47
530.0 34 26 42 50 36 40 41 41 29 35
570.0 33 30 21 14 34 28 28 1 31 30
610.0 30 38 24 30 29 31 37 34 61 100
650.0 147 251 371 586 825 990 980 868 618 361
690.0 222 137 117 168 309 613 1088 1532 1870 2990
730.0 2353 1622 1335 857 418 204 131 94 93 121
770.0 149 195 283 441 709 1358 2590 3368 3547 2737
810.0 2040 820 274 115 77 77 103 89 96 95
850.0 85 81 93 102 121 159 227 274 328 369
890.0 355 382 460 507 512 529 453 338 315 284
930.0 194 159 126 93 72 65 69 64 60 57
970.0 56 55 57 59 58 59 65 72 79 79
1010.0 78 76 68 61 65 69 83 102 121 155
1050.0 175 189 215 256 316 402 493 545 585 668
1090.0 764 820 849 803 652 446 267 153 93 66
1130.0 63 67 73 82 76 82 87 95 93 92
1170.0 87 83 72 68 71 78 80 86 93 113
1210.0 105 112 106 99 92 86 84 84 78 91
1250.0 91 97 117 144 185 234 302 383 502 625
1290.0 694 741 745 680 610 547 507 510 586 709
1330.0 963 1397 2094 3092 4650 6886 8613 9091 8427 6441
1370.0 3643 1903 1110 777 618 543 505 432 371 333
1410.0 311 268 262 242 253 263 312 324 350 376
1450.0 385 383 370 396 398 481 633 801 909 1010
1490.0 1046 1017 934 882 869 900 1022 1313 1912 2931
1530.0 4594 6677 8853 9992 10000 9927 8659 6723 5287 4533
1570.0 3520 2858 2150 1766 1532 1397 1279 1110 919 752
1610.0 597 462 362 302 249 209 199 135 152 149
1650.0 160 112 129 127 132 113 134 101 113 66
1690.0 68 76 64 34 57 79 104 107 110 106
1730.0 99 87 58 52 66 60 67 73 80 92
1770.0 103 87 90 88 94 96 104 121 134 127
1810.0 116 98 78 55 38 36 36 33 46 50
1850.0 56 63 79 72 70 46 42 32 46 59
1890.0 81 101 105 99 81 55 42 23 27 28
1930.0 25 34 49 73 84 90 89 85 71 48
1970.0 32 31 25 24 21 28 25 21 16 25
2010.0 19 20 14 13 18 12 10 7 8 4
2050.0 4 4 4 12 13 11 11 11 12 12
2090.0 12 9 12 11 11 10 7 10 12 10
2130.0 11 17 17 12 13 11 14 10 18 17
2170.0 24 24 24 23 23 17 17 17 16 12
2210.0 11 11 7 13 3 5 5 5 12 12
2250.0 12 17 25 25 25 26 18 23 20 22
2290.0 30 33 30 37 41 38 45 44 55 61
2330.0 62 62 62 58 58 54 51 44 41 36
2370.0 28 23 31 39 35 35 31 25 24 18
2410.0 18 18 18 18 20 27 30 37 43 52
2450.0 49 50 51 43 30 29 23 18 18 11
2490.0 11 11 12 12 12 5 5 5 1 0
2530.0 0 1 1 1 1 1 1 5 12 18
2570.0 26 32 38 39 39 31 31 32 27 33
2610.0 33 25 26 20 19 19 20 21 21 23
2650.0 26 22 28 20 26 26 27 34 34 40
2690.0 40 47 54 53 50 52 48 35 28 28
2730.0 27 21 28 36 48 55 57 58 44 37
2770.0 36 35 30 35 43 43 48 55 56 56
2810.0 56 60 66 68 75 87 94 102 115 129
2850.0 142 157 186 234 284 350 410 461 492 499
2890.0 474 447 421 400 409 427 449 488 562 661
2930.0 783 851 885 860 781 672 578 480 420 362
2970.0 318 280 253 245 239 258 280 313 347 374
3010.0 398 411 404 424 453 510 582 623 623 575
3050.0 500 413 366 376 433 527 604 617 615 558
3090.0 419 337 283 234 187 153 113 81 60 41
3130.0 36 22 22 25 14 17 19 12 12 19
3170.0 20 18 13 15 19 20 16 19 21 25
3210.0 21 27 20 20 21 19 28 25 21 28
3250.0 29 19 27 21 28 28 22 15 15 16
3290.0 18 18 23 24 28 17 25 16 17 23
3330.0 18 24 17 26 17 25 25 21 23 22
3370.0 24 18 25 26 19 25 19 27 24 23
3410.0 20 24 22 21 20 33 27 20 21 23
3450.0 23 37 33 28 26 21 25 34 24 23
3490.0 23 23 17 19 25 21 27 27 25 23
3530.0 14 24 30 25 29 34 33 25 30 28
3570.0 17 27 25 26 30 30 15 30 33 36
3610.0 32 23 22 29 35 17 21 26 28 32
3650.0 0 27 31 30 31 29 32 17 29 30
3690.0 26 31 31 32 39 35 28 34 37 41
3730.0 37 41 29 22 6 24 4 22 35 34
3770.0 37 40 41 36 31 35 30 19 19 17
3810.0 22 27 19 18 29 21 22 29 25 17
3850.0 12 21 14 12 10 8 7 11 25 21
3890.0 29 27 33 28 20 19 26 26 27 24
3930.0 23 23 18 24 18 24 34 38 31 31
##END=
