##TITLE=Benzoic acid, 3-methyl-
##JCAMP-DX=4.24
##DATA TYPE=INFRARED SPECTRUM
##ORIGIN=Sadtler Research Labs Under US-EPA Contract
##OWNER=NIST Standard Reference Data Program
##CAS REGISTRY NO=99-04-7
##MOLFORM=C 8 H 8 O 2
##XUNITS=1/CM
##YUNITS=ABSORBANCE
##XFACTOR=1.0
##YFACTOR=0.000193597
##DELTAX=4.0
##FIRSTX=450.0
##LASTX=3966.0
##FIRSTY=0.008325
##MAXX=3966
##MINX=450
##MAXY=1.93597
##MINY=0
##NPOINTS=880
##XYDATA=(X++(Y..Y))
450.0 43 47 202 0 171 149 83 208 143 233
490.0 262 212 308 245 236 216 215 285 304 386
530.0 393 472 610 603 863 806 740 803 1017 1192
570.0 1484 1762 2150 2030 1750 1359 992 665 421 290
610.0 245 245 272 448 1028 1737 2051 1984 1809 1276
650.0 550 218 146 138 132 154 138 159 179 211
690.0 183 157 130 116 180 266 391 788 984 1232
730.0 1516 1848 1977 2624 3397 2874 1907 1672 1071 636
770.0 392 284 266 230 186 180 158 175 138 151
810.0 155 127 135 100 89 110 88 99 93 94
850.0 92 110 124 128 145 185 197 232 236 248
890.0 224 184 165 152 122 127 136 153 150 155
930.0 148 122 128 112 118 121 120 122 116 114
970.0 130 136 152 164 173 186 182 183 165 155
1010.0 156 165 173 176 183 210 227 277 334 433
1050.0 569 799 1188 1680 2197 2344 2387 2507 2311 2303
1090.0 2571 2561 2534 2213 1525 1043 854 768 772 850
1130.0 946 1086 1323 1709 2363 3344 4664 5960 6203 6152
1170.0 5300 3751 2489 1484 823 501 379 336 353 414
1210.0 511 621 720 772 750 707 613 489 411 395
1250.0 435 498 574 642 677 682 666 640 627 641
1290.0 673 735 821 960 1222 1581 1827 1877 1793 1524
1330.0 1093 807 767 883 1193 1641 2002 2123 2049 1707
1370.0 1207 828 648 563 532 502 464 416 372 350
1410.0 355 366 431 439 471 513 580 637 670 666
1450.0 628 543 449 345 317 326 378 399 435 488
1490.0 491 451 406 317 276 233 189 177 180 167
1530.0 174 170 177 188 180 158 164 187 168 172
1570.0 193 229 286 388 480 551 569 559 524 463
1610.0 418 403 364 301 253 187 171 142 119 121
1650.0 126 140 120 124 143 145 156 138 163 182
1690.0 202 260 371 463 582 671 713 720 646 608
1730.0 589 722 1041 1687 3020 5232 8007 10000 9881 9614
1770.0 7875 4575 2516 1399 800 536 426 380 407 416
1810.0 470 509 480 408 316 243 164 106 96 87
1850.0 76 66 78 91 97 115 105 94 94 89
1890.0 90 93 94 101 88 80 68 56 63 58
1930.0 75 89 99 115 117 114 104 93 81 75
1970.0 62 55 43 46 41 41 35 30 34 34
2010.0 30 28 33 37 40 39 47 50 51 41
2050.0 42 39 29 30 26 22 27 21 23 24
2090.0 26 26 25 28 27 27 29 22 23 27
2130.0 28 33 37 41 35 33 33 25 28 25
2170.0 26 27 27 30 29 31 34 31 24 23
2210.0 21 25 22 24 24 28 29 27 32 30
2250.0 26 30 28 24 29 27 28 28 24 24
2290.0 23 27 23 27 24 22 23 20 29 23
2330.0 22 25 23 20 20 20 27 27 20 21
2370.0 27 26 28 30 34 37 40 36 34 30
2410.0 30 32 36 35 34 37 37 37 39 38
2450.0 37 38 36 37 38 35 34 35 38 37
2490.0 38 39 36 32 29 30 32 30 29 29
2530.0 31 30 28 28 29 30 30 31 34 33
2570.0 33 34 33 35 34 35 35 36 36 38
2610.0 38 36 34 31 29 29 32 32 33 34
2650.0 34 35 33 32 32 30 34 30 27 26
2690.0 28 26 25 23 28 28 29 27 28 32
2730.0 31 35 40 49 51 53 53 51 43 41
2770.0 36 35 35 34 36 35 35 39 40 42
2810.0 43 48 55 60 66 68 76 84 92 102
2850.0 114 134 151 179 211 250 285 308 317 313
2890.0 294 275 268 267 282 306 340 386 459 551
2930.0 632 670 663 624 556 463 388 337 292 258
2970.0 232 215 201 205 216 238 265 289 313 335
3010.0 353 366 377 396 426 463 484 499 504 498
3050.0 484 492 505 506 506 494 460 414 374 330
3090.0 278 244 225 205 191 176 166 144 121 98
3130.0 78 68 61 57 57 50 52 51 52 52
3170.0 49 53 51 50 53 50 50 53 49 51
3210.0 52 51 43 48 48 47 43 45 47 46
3250.0 42 41 48 45 41 42 39 42 40 45
3290.0 38 33 36 40 45 47 42 39 40 40
3330.0 45 40 42 41 42 50 48 51 49 55
3370.0 54 52 52 49 45 53 50 47 32 33
3410.0 32 27 26 35 43 51 49 51 51 57
3450.0 52 50 49 43 42 45 49 51 55 63
3490.0 81 91 107 119 119 116 98 77 62 59
3530.0 55 56 46 53 55 60 70 91 140 245
3570.0 541 1200 2392 3436 3550 3345 2602 1248 375 127
3610.0 75 43 52 41 41 50 47 43 30 41
3650.0 42 25 27 26 26 22 24 28 32 30
3690.0 32 29 26 22 21 25 30 30 27 34
3730.0 37 34 28 29 42 62 68 91 90 67
3770.0 68 40 29 22 23 28 20 22 28 20
3810.0 31 29 34 23 26 26 23 36 36 45
3850.0 33 42 37 29 28 41 51 48 50 48
3890.0 53 43 55 68 59 47 53 53 71 50
3930.0 45 52 45 41 49 58 52 62 70 45
##END=
