##TITLE=Benzoic acid, 3-hydroxy-
##JCAMP-DX=4.24
##DATA TYPE=INFRARED SPECTRUM
##ORIGIN=Sadtler Research Labs Under US-EPA Contract
##OWNER=NIST Standard Reference Data Program
##CAS REGISTRY NO=99-06-9
##MOLFORM=C 7 H 6 O 3
##XUNITS=1/CM
##YUNITS=ABSORBANCE
##XFACTOR=1.0
##YFACTOR=0.000065305
##DELTAX=4.0
##FIRSTX=450.0
##LASTX=3966.0
##FIRSTY=0.004963
##MAXX=3966
##MINX=450
##MAXY=0.65305
##MINY=0
##NPOINTS=880
##XYDATA=(X++(Y..Y))
450.0 76 249 172 311 192 205 234 249 178 200
490.0 255 195 310 300 378 344 349 304 225 265
530.0 224 268 235 321 317 410 454 521 616 673
570.0 862 1061 1332 1393 1616 1586 1337 1111 877 655
610.0 410 336 260 524 1066 1557 1620 1610 1315 854
650.0 373 189 157 118 165 164 210 244 224 149
690.0 148 81 53 58 55 126 252 576 953 1225
730.0 1398 1605 1592 1586 1732 2180 2872 2680 1908 1596
770.0 1187 807 494 313 225 156 143 139 100 85
810.0 66 35 36 7 9 5 10 8 20 39
850.0 47 74 88 123 160 222 244 288 335 360
890.0 468 662 958 1232 1385 1446 1328 1012 661 407
930.0 205 136 85 85 72 69 47 49 54 43
970.0 52 47 52 46 85 141 212 226 234 236
1010.0 175 108 65 72 74 122 166 234 359 570
1050.0 888 1271 1498 1632 1817 1856 1852 2103 2409 2556
1090.0 2509 2272 1838 1332 957 771 695 697 759 885
1130.0 1092 1400 1830 2423 3153 4047 4799 5543 6130 6457
1170.0 6342 6018 5577 4989 4448 4018 3673 3270 2882 2357
1210.0 1784 1301 1014 846 773 729 753 833 1000 1246
1250.0 1459 1618 1771 1822 1677 1495 1342 1222 1146 1180
1290.0 1341 1622 1971 2212 2326 2414 2323 2118 2050 2199
1330.0 2317 2319 2266 2081 1804 1574 1537 1647 1758 1727
1370.0 1590 1319 979 652 476 372 338 293 248 220
1410.0 217 217 293 346 428 560 811 1052 1386 1675
1450.0 1964 2053 2002 1790 1484 1165 965 812 756 704
1490.0 691 611 591 502 428 395 320 251 196 182
1530.0 154 136 167 176 197 180 236 211 285 298
1570.0 429 476 698 1034 1254 1698 1838 2233 2072 2067
1610.0 1723 1297 942 591 466 207 198 96 119 69
1650.0 153 82 152 128 137 167 140 189 190 226
1690.0 236 300 322 449 527 570 611 591 617 553
1730.0 649 743 1091 1646 2899 4752 7645 9442 9732 10000
1770.0 8844 5390 2548 1458 783 598 438 489 393 457
1810.0 462 520 490 404 330 217 182 109 112 73
1850.0 84 63 66 69 71 90 54 82 61 63
1890.0 48 53 35 27 36 28 35 32 59 42
1930.0 65 74 86 78 76 69 41 41 24 33
1970.0 15 29 25 26 28 28 33 16 25 12
2010.0 16 6 17 8 7 12 8 16 13 27
2050.0 21 30 35 48 46 44 45 37 43 35
2090.0 39 21 27 24 21 25 22 26 15 23
2130.0 15 13 10 14 15 15 23 24 27 23
2170.0 30 17 18 16 16 12 15 18 6 14
2210.0 12 19 15 20 15 13 19 18 20 12
2250.0 19 9 13 9 7 6 8 18 16 21
2290.0 21 25 32 35 38 45 41 29 42 28
2330.0 37 17 38 23 45 54 4 4 18 39
2370.0 37 59 53 62 48 40 31 26 35 35
2410.0 39 36 44 40 45 42 46 42 43 47
2450.0 38 44 38 43 37 41 43 35 43 46
2490.0 53 50 55 58 60 56 52 54 38 43
2530.0 32 30 20 25 25 29 31 23 28 22
2570.0 20 15 14 12 16 13 13 21 21 22
2610.0 15 23 16 28 25 35 31 27 25 21
2650.0 25 22 26 25 26 21 24 24 27 18
2690.0 18 23 12 16 10 10 7 10 8 7
2730.0 10 6 14 8 16 20 19 19 20 20
2770.0 22 24 17 22 17 19 20 12 12 17
2810.0 15 14 18 20 16 19 22 18 20 27
2850.0 31 31 30 26 19 23 22 16 22 22
2890.0 28 31 25 36 46 40 50 43 37 46
2930.0 43 48 46 47 48 44 53 58 54 48
2970.0 44 41 46 48 49 53 67 70 73 82
3010.0 93 120 148 175 202 217 213 222 227 241
3050.0 260 279 295 307 312 312 307 293 281 274
3090.0 242 206 183 159 129 114 98 86 66 52
3130.0 53 44 36 30 29 29 30 30 24 20
3170.0 24 22 24 32 25 24 6 20 22 24
3210.0 20 17 26 23 22 18 32 32 23 28
3250.0 22 32 26 26 31 33 29 35 21 28
3290.0 33 31 24 28 31 22 27 36 35 39
3330.0 38 44 42 54 46 61 52 48 61 47
3370.0 48 51 43 44 42 35 38 49 44 35
3410.0 38 51 40 50 48 58 49 64 39 42
3450.0 49 38 39 38 59 27 32 19 59 37
3490.0 36 63 63 93 69 80 73 46 47 41
3530.0 25 23 42 25 48 29 77 52 151 315
3570.0 697 1545 2623 3369 3312 3086 2426 1142 348 137
3610.0 72 85 93 101 169 272 490 774 1314 1786
3650.0 2132 1990 1935 1396 806 300 175 41 62 59
3690.0 4 47 27 49 19 27 44 44 36 76
3730.0 28 32 44 59 3 61 72 38 65 31
3770.0 61 42 53 58 40 38 46 0 51 10
3810.0 69 3 47 76 16 38 55 62 69 60
3850.0 24 42 37 51 65 63 65 43 59 10
3890.0 68 17 83 41 117 46 72 40 65 71
3930.0 40 80 69 74 41 65 33 95 75 81
##END=
