##TITLE=Ethanone, 1-(3-aminophenyl)-
##JCAMP-DX=4.24
##DATA TYPE=INFRARED SPECTRUM
##ORIGIN=Sadtler Research Labs Under US-EPA Contract
##OWNER=NIST Standard Reference Data Program
##CAS REGISTRY NO=99-03-6
##MOLFORM=C 8 H 9 N O
##XUNITS=1/CM
##YUNITS=ABSORBANCE
##XFACTOR=1.0
##YFACTOR=0.000029129
##DELTAX=4.0
##FIRSTX=450.0
##LASTX=3966.0
##FIRSTY=0.008040
##MAXX=3966
##MINX=450
##MAXY=0.29129
##MINY=0
##NPOINTS=880
##XYDATA=(X++(Y..Y))
450.0 276 401 262 608 439 800 590 829 670 687
490.0 861 693 755 745 768 624 671 611 680 618
530.0 613 634 580 605 543 559 517 637 592 702
570.0 837 995 1247 1569 1723 1515 1588 1491 1148 912
610.0 724 457 347 258 339 385 523 713 857 1213
650.0 1477 1873 2138 2449 2671 2987 3129 3214 3508 3779
690.0 3422 2924 2599 2167 1585 1145 769 682 535 456
730.0 418 375 421 410 506 501 613 778 1040 1401
770.0 1883 2419 2517 2392 2377 2044 1550 1294 1077 948
810.0 769 633 519 465 397 326 330 310 361 381
850.0 467 586 722 848 1055 1372 1527 1586 1552 1358
890.0 1022 727 592 456 317 174 121 17 38 18
930.0 70 126 194 318 429 516 543 588 562 508
970.0 452 435 380 342 337 331 330 313 341 265
1010.0 248 233 282 318 384 422 429 450 449 454
1050.0 474 524 593 671 789 889 962 968 962 873
1090.0 807 744 705 630 586 548 487 452 380 344
1130.0 263 205 156 131 113 118 141 153 209 214
1170.0 268 283 341 380 451 588 792 1134 1659 2527
1210.0 3634 4769 5441 5637 5125 4045 2509 1291 777 629
1250.0 679 805 1085 1481 1968 2463 3209 4353 5720 6947
1290.0 7893 8370 8351 7970 6973 5913 4983 3754 2397 1643
1330.0 1284 1016 909 982 1344 2112 2970 3547 3703 3539
1370.0 2729 1689 1007 675 489 458 417 444 447 485
1410.0 500 565 636 724 851 1034 1322 1761 2412 3090
1450.0 3523 3688 3432 2808 1868 1346 1109 1095 1317 1431
1490.0 1439 1334 1210 815 645 421 318 287 252 339
1530.0 257 350 341 405 416 508 603 617 826 921
1570.0 1323 1557 2145 2641 3035 3414 3643 4005 3848 4038
1610.0 4314 5084 5760 6232 6402 5771 5238 3676 2902 1954
1650.0 1731 1491 1329 1309 1341 1311 1217 1589 1771 2740
1690.0 3963 6182 8392 9641 10000 9482 7773 4794 2534 1744
1730.0 947 935 759 915 838 916 775 625 520 384
1770.0 366 165 227 155 149 110 120 116 75 100
1810.0 74 106 67 134 100 119 112 107 128 91
1850.0 122 77 97 70 113 57 71 72 52 66
1890.0 53 78 43 86 70 108 99 116 117 103
1930.0 111 81 86 64 96 53 55 49 54 45
1970.0 34 55 30 49 30 54 32 50 31 26
2010.0 24 23 38 8 32 19 39 30 48 48
2050.0 35 53 40 46 36 49 35 40 37 47
2090.0 39 33 46 36 43 29 36 15 23 22
2130.0 12 22 8 21 15 26 24 37 27 40
2170.0 43 41 38 37 47 31 38 25 25 24
2210.0 14 15 16 25 10 32 23 37 35 37
2250.0 46 41 57 54 68 60 87 104 111 115
2290.0 135 157 160 189 196 220 193 197 202 165
2330.0 161 169 149 169 210 178 268 191 212 123
2370.0 98 90 111 136 112 73 47 61 43 59
2410.0 47 45 47 33 44 40 49 33 45 34
2450.0 45 42 36 47 43 55 51 67 43 54
2490.0 57 53 53 55 63 59 63 47 66 59
2530.0 69 57 49 52 38 44 44 47 51 72
2570.0 74 96 94 104 111 109 117 109 100 94
2610.0 108 90 101 106 106 111 118 113 92 94
2650.0 92 83 73 80 86 77 83 77 72 63
2690.0 66 63 55 55 51 55 37 51 43 55
2730.0 47 61 67 72 76 69 79 69 87 70
2770.0 79 87 72 67 73 80 63 75 73 75
2810.0 73 77 69 71 96 97 97 111 127 120
2850.0 130 136 159 154 164 183 169 173 177 202
2890.0 196 225 226 228 254 252 274 284 311 343
2930.0 403 408 414 398 367 345 340 364 406 478
2970.0 512 532 489 445 411 400 415 443 545 683
3010.0 848 1004 1117 1161 1173 1148 1147 1163 1193 1347
3050.0 1487 1599 1589 1580 1451 1254 1124 1049 1005 954
3090.0 885 795 709 599 489 400 344 298 240 196
3130.0 175 152 135 137 112 128 121 98 112 96
3170.0 100 100 92 82 107 100 104 112 106 135
3210.0 141 157 161 160 167 153 158 141 113 112
3250.0 99 89 87 70 91 112 80 76 79 92
3290.0 66 80 78 80 101 106 92 92 88 91
3330.0 102 81 108 99 102 110 122 139 120 153
3370.0 173 197 230 300 332 434 482 557 674 697
3410.0 844 855 842 809 735 593 465 362 268 242
3450.0 196 203 189 208 229 231 270 324 415 432
3490.0 502 567 630 640 594 558 471 420 324 258
3530.0 208 200 159 156 115 95 86 105 124 75
3570.0 86 109 139 94 112 103 82 99 81 108
3610.0 69 98 62 38 98 11 34 84 89 89
3650.0 24 33 75 36 105 53 115 0 110 56
3690.0 67 74 92 86 72 81 64 88 102 100
3730.0 126 74 89 71 41 32 12 35 46 89
3770.0 97 100 75 69 91 82 63 95 68 15
3810.0 103 60 100 6 84 72 57 60 76 60
3850.0 126 112 67 113 93 143 90 114 59 96
3890.0 122 124 122 60 74 143 81 98 144 84
3930.0 140 131 105 119 123 150 149 113 121 106
##END=
