##TITLE=Benzoic acid, 3-methyl-, methyl ester
##JCAMP-DX=4.24
##DATA TYPE=INFRARED SPECTRUM
##ORIGIN=Sadtler Research Labs Under US-EPA Contract
##OWNER=NIST Standard Reference Data Program
##CAS REGISTRY NO=99-36-5
##MOLFORM=C 9 H 10 O 2
##XUNITS=1/CM
##YUNITS=ABSORBANCE
##XFACTOR=1.0
##YFACTOR=0.000056290
##DELTAX=4.0
##FIRSTX=450.0
##LASTX=3966.0
##FIRSTY=0.000000
##MAXX=3966
##MINX=450
##MAXY=0.5629
##MINY=0
##NPOINTS=880
##XYDATA=(X++(Y..Y))
450.0 0 62 222 45 95 137 171 233 224 217
490.0 175 175 154 191 171 146 116 179 180 140
530.0 181 137 179 122 132 98 136 114 119 88
570.0 75 148 99 90 105 153 149 97 110 120
610.0 101 94 114 128 139 105 119 122 111 117
650.0 121 151 130 201 262 314 326 403 392 338
690.0 262 236 208 169 150 139 151 162 207 320
730.0 499 900 1266 1773 2413 1800 1341 1032 571 369
770.0 272 304 465 537 500 492 343 265 260 233
810.0 256 219 185 170 154 152 153 168 163 191
850.0 192 215 242 310 350 345 356 287 236 234
890.0 233 223 206 202 207 193 194 205 198 207
930.0 190 179 160 144 147 154 155 164 193 214
970.0 251 296 334 350 357 387 453 571 711 759
1010.0 690 533 352 245 208 193 180 173 188 210
1050.0 234 250 281 312 383 511 753 1103 1400 1572
1090.0 1667 1747 1945 2312 2617 2557 2171 1560 988 667
1130.0 524 435 407 380 366 355 370 407 441 461
1170.0 478 527 639 951 1545 2493 3912 5492 6400 6044
1210.0 4877 3043 1578 1002 826 756 718 681 643 645
1250.0 664 742 861 1142 1722 2856 4824 7209 9402 10000
1290.0 8887 6543 4564 3460 2610 1800 1096 729 586 525
1330.0 484 431 399 370 368 353 327 306 284 270
1370.0 275 274 302 310 341 339 322 286 300 293
1410.0 305 334 350 425 493 722 1073 1534 1843 1826
1450.0 1407 987 658 561 520 472 452 445 474 493
1490.0 481 455 400 326 257 217 204 193 191 202
1530.0 199 201 209 202 203 222 218 209 233 237
1570.0 243 253 309 383 462 549 557 565 501 464
1610.0 447 430 416 373 351 270 271 220 228 200
1650.0 208 183 218 210 219 227 186 206 177 216
1690.0 248 321 376 447 472 431 420 430 632 884
1730.0 1596 2605 4836 6843 7441 7202 6080 3142 1591 832
1770.0 519 392 363 399 414 451 444 380 291 264
1810.0 212 196 181 169 165 139 128 124 114 109
1850.0 118 127 121 130 133 146 150 160 154 149
1890.0 143 153 159 148 144 127 108 99 100 100
1930.0 108 111 118 124 140 153 153 151 143 144
1970.0 145 143 147 148 140 128 119 112 112 107
2010.0 102 99 100 96 93 101 97 96 92 103
2050.0 105 118 131 141 144 144 150 140 133 127
2090.0 126 122 121 114 109 108 108 103 99 99
2130.0 96 96 96 103 103 105 108 107 104 98
2170.0 104 99 103 99 100 95 89 91 87 87
2210.0 86 85 85 86 85 82 83 79 84 82
2250.0 86 86 90 83 88 88 85 83 78 71
2290.0 70 68 61 61 60 56 62 59 66 77
2330.0 72 78 78 65 71 78 58 69 75 62
2370.0 69 76 80 78 79 86 95 94 96 96
2410.0 91 87 90 89 89 88 92 94 86 89
2450.0 84 94 85 90 86 91 93 93 89 91
2490.0 92 92 97 90 88 86 89 92 87 83
2530.0 81 87 88 83 81 84 89 90 99 95
2570.0 99 104 98 103 103 99 104 102 99 96
2610.0 106 105 96 97 101 96 93 88 91 94
2650.0 92 94 93 88 93 88 88 87 89 89
2690.0 92 90 92 96 87 97 98 94 105 96
2730.0 105 109 110 115 120 117 119 112 108 107
2770.0 102 99 100 101 100 96 100 102 100 106
2810.0 111 111 110 122 130 142 154 191 247 322
2850.0 375 384 371 331 316 344 382 402 419 424
2890.0 418 417 429 445 472 510 544 586 639 706
2930.0 778 816 832 813 791 861 1109 1456 1559 1469
2970.0 1158 715 486 430 441 495 563 626 669 672
3010.0 655 631 619 644 695 726 751 733 674 625
3050.0 597 584 592 580 569 547 507 481 443 405
3090.0 357 316 298 272 246 234 216 192 171 150
3130.0 143 133 117 110 108 112 107 109 107 110
3170.0 107 107 107 106 108 107 103 104 105 102
3210.0 96 89 94 101 105 88 88 79 95 95
3250.0 90 85 87 91 84 87 89 91 88 89
3290.0 91 86 90 92 101 92 90 98 94 87
3330.0 95 94 90 95 95 90 91 98 100 88
3370.0 92 99 92 96 88 91 86 88 91 95
3410.0 95 86 80 89 89 88 85 93 85 77
3450.0 87 83 104 107 134 127 123 131 109 90
3490.0 87 80 55 75 63 68 102 95 97 72
3530.0 85 88 84 79 91 79 91 87 82 92
3570.0 89 92 76 88 67 86 85 73 104 90
3610.0 99 92 99 84 74 90 90 103 93 95
3650.0 94 85 108 73 91 74 86 82 97 107
3690.0 85 109 78 101 94 93 109 108 93 114
3730.0 92 100 86 117 70 97 81 86 99 102
3770.0 94 93 90 100 92 91 110 87 107 59
3810.0 101 81 100 104 89 111 93 90 106 118
3850.0 76 104 104 87 111 95 100 63 94 86
3890.0 128 97 110 85 109 110 113 91 84 95
3930.0 109 105 90 105 90 99 102 110 117 111
##END=
