##TITLE=Benzene, 1,2-dichloro-4-nitro-
##JCAMP-DX=4.24
##DATA TYPE=INFRARED SPECTRUM
##ORIGIN=Sadtler Research Labs Under US-EPA Contract
##OWNER=NIST Standard Reference Data Program
##CAS REGISTRY NO=99-54-7
##MOLFORM=C 6 H 3 Cl 2 N O 2
##XUNITS=1/CM
##YUNITS=ABSORBANCE
##XFACTOR=1.0
##YFACTOR=0.000059656
##DELTAX=4.0
##FIRSTX=450.0
##LASTX=3966.0
##FIRSTY=0.065204
##MAXX=3966
##MINX=450
##MAXY=0.59656
##MINY=0
##NPOINTS=880
##XYDATA=(X++(Y..Y))
450.0 1093 577 385 0 253 62 203 256 283 207
490.0 286 60 398 371 266 325 310 329 492 664
530.0 577 497 384 388 440 611 831 1043 1091 1033
570.0 871 721 690 688 541 390 294 397 400 206
610.0 208 303 289 168 223 297 244 150 356 276
650.0 274 265 371 352 503 1010 1053 845 671 469
690.0 293 274 291 165 257 235 294 443 550 778
730.0 846 1302 1739 1713 1088 845 659 493 957 1599
770.0 2273 2330 2106 1269 706 453 359 449 229 253
810.0 291 456 750 933 1226 1129 913 710 507 381
850.0 369 291 341 412 491 759 981 1668 2304 2645
890.0 2559 2202 1790 1457 1001 715 526 324 243 195
930.0 226 217 237 217 192 217 216 219 244 227
970.0 247 198 176 202 199 214 226 238 226 245
1010.0 300 323 424 706 1119 1767 2086 2093 1858 1240
1050.0 705 401 347 262 283 230 256 229 261 285
1090.0 329 240 337 380 468 517 601 761 779 750
1130.0 908 1000 1357 1943 2512 2810 2545 1932 1158 560
1170.0 356 319 235 252 262 247 255 229 246 254
1210.0 201 209 225 261 251 274 444 702 834 891
1250.0 828 729 680 730 715 706 704 640 551 414
1290.0 293 271 243 308 331 415 476 529 694 985
1330.0 1660 2908 4928 7493 9668 10000 8455 5639 3187 2084
1370.0 1890 1769 1645 1477 1224 1049 846 717 681 696
1410.0 816 839 881 786 735 760 740 826 1046 1406
1450.0 2155 2796 3032 2828 2156 1359 941 780 716 678
1490.0 732 822 966 1173 1316 1589 1956 2040 2337 2573
1530.0 3215 4504 6197 8093 9020 8889 7560 5401 3521 2611
1570.0 1977 1708 1712 1714 1786 1831 1842 1794 1496 1193
1610.0 847 492 320 246 297 274 326 338 351 418
1650.0 323 309 274 283 186 163 132 136 136 100
1690.0 134 132 95 56 116 124 130 116 117 163
1730.0 116 114 79 90 101 92 90 104 111 132
1770.0 152 159 205 201 204 183 175 165 170 127
1810.0 118 98 88 101 85 84 92 83 83 52
1850.0 79 70 74 86 69 85 67 79 86 96
1890.0 101 119 144 162 170 176 152 129 109 80
1930.0 66 56 61 60 54 54 50 55 51 53
1970.0 51 48 49 50 50 64 49 49 48 49
2010.0 50 44 49 44 46 49 44 45 40 39
2050.0 39 40 42 36 40 33 35 39 33 36
2090.0 36 27 30 31 32 34 27 37 44 36
2130.0 32 29 38 27 30 31 30 28 31 24
2170.0 25 24 23 25 21 23 24 24 19 20
2210.0 23 22 30 34 26 30 32 33 35 30
2250.0 40 39 44 44 51 54 46 58 60 58
2290.0 66 69 73 76 77 81 70 65 72 68
2330.0 30 54 43 74 58 86 24 36 31 52
2370.0 36 52 57 68 60 45 38 28 39 44
2410.0 46 45 51 59 60 59 59 61 64 61
2450.0 61 60 60 58 49 58 58 59 59 59
2490.0 68 65 67 64 60 62 59 67 67 64
2530.0 71 74 84 97 103 113 126 119 107 83
2570.0 63 51 46 45 45 49 48 45 57 57
2610.0 52 53 51 52 51 50 50 51 50 52
2650.0 52 68 67 69 72 82 92 111 112 122
2690.0 130 131 121 118 107 92 85 82 77 76
2730.0 74 79 64 64 57 57 57 58 59 52
2770.0 59 64 56 56 63 68 70 74 69 76
2810.0 72 74 79 87 84 91 96 105 110 117
2850.0 131 123 134 136 130 149 162 169 183 194
2890.0 195 183 165 154 139 137 130 133 133 134
2930.0 131 121 125 128 122 108 112 104 102 84
2970.0 83 84 79 74 78 75 85 74 84 70
3010.0 80 78 84 80 84 86 88 81 72 56
3050.0 63 73 77 80 79 101 125 166 228 290
3090.0 367 427 443 439 391 304 254 178 134 100
3130.0 76 87 81 70 74 68 78 71 83 78
3170.0 87 79 79 83 80 84 81 82 71 75
3210.0 67 65 57 63 71 64 66 61 72 66
3250.0 66 63 53 76 70 73 78 54 60 74
3290.0 71 63 74 63 56 65 71 78 66 68
3330.0 66 68 69 76 66 71 63 56 64 66
3370.0 67 65 76 71 65 69 63 60 69 66
3410.0 58 73 78 64 75 60 73 78 60 61
3450.0 65 70 80 74 88 75 53 57 76 81
3490.0 76 72 83 73 84 62 76 80 81 84
3530.0 71 70 77 56 74 93 78 88 84 88
3570.0 78 75 63 80 79 76 73 78 56 73
3610.0 77 71 73 60 66 54 74 83 92 55
3650.0 89 43 107 94 69 59 31 50 96 113
3690.0 39 64 97 100 104 70 53 117 98 104
3730.0 85 80 86 59 90 46 84 55 110 127
3770.0 127 111 108 99 130 112 119 81 97 44
3810.0 106 57 97 62 70 85 76 78 132 134
3850.0 102 34 107 111 132 123 128 87 136 114
3890.0 94 133 124 108 104 132 99 129 103 131
3930.0 124 155 121 80 70 134 101 117 102 92
##END=
