##TITLE=Benzenamine, 2-methyl-4-nitro-
##JCAMP-DX=4.24
##DATA TYPE=INFRARED SPECTRUM
##ORIGIN=Sadtler Research Labs Under US-EPA Contract
##OWNER=NIST Standard Reference Data Program
##CAS REGISTRY NO=99-52-5
##MOLFORM=C 7 H 8 N 2 O 2
##XUNITS=1/CM
##YUNITS=ABSORBANCE
##XFACTOR=1.0
##YFACTOR=0.000069022
##DELTAX=4.0
##FIRSTX=450.0
##LASTX=3966.0
##FIRSTY=0.003727
##MAXX=3966
##MINX=450
##MAXY=0.69022
##MINY=0
##NPOINTS=880
##XYDATA=(X++(Y..Y))
450.0 54 83 286 76 446 177 289 183 248 159
490.0 143 228 131 155 128 198 129 228 226 306
530.0 396 462 480 417 385 344 319 270 297 261
570.0 259 419 312 224 305 399 438 410 428 460
610.0 463 467 476 481 521 571 713 858 892 812
650.0 687 454 306 272 290 387 363 420 468 521
690.0 564 580 626 652 682 655 675 684 722 757
730.0 819 910 1004 1162 1249 1187 1006 901 694 516
770.0 355 238 176 165 149 138 130 154 236 471
810.0 1032 1475 1712 1843 1403 880 627 451 340 263
850.0 219 193 147 139 124 130 130 148 189 261
890.0 340 420 502 569 498 397 393 434 502 532
930.0 505 430 266 114 53 35 36 32 22 26
970.0 31 28 41 46 78 107 139 144 142 114
1010.0 77 49 33 19 8 16 14 38 42 71
1050.0 112 147 177 185 191 169 165 171 222 316
1090.0 536 893 1137 1163 1102 757 364 175 109 96
1130.0 88 121 199 380 556 551 566 475 243 102
1170.0 55 36 33 29 27 29 29 42 43 43
1210.0 41 36 30 37 52 67 91 98 113 122
1250.0 147 193 257 366 524 722 980 1382 2016 2812
1290.0 3425 3517 3199 2380 1392 793 652 755 1045 1415
1330.0 1900 2621 3902 5984 8286 9682 10000 8182 5258 2466
1370.0 1085 569 390 308 255 235 220 218 190 192
1410.0 220 218 311 302 325 322 357 337 322 380
1450.0 469 573 688 694 709 725 826 845 942 1218
1490.0 1766 2395 2735 2735 2716 2329 2312 2727 3800 4526
1530.0 5385 5258 5189 4393 3524 2800 2229 2082 1681 1447
1570.0 1103 1113 1226 1571 1882 2227 2250 2199 1889 1604
1610.0 1617 1828 2432 3008 3703 3644 3592 2723 2120 1309
1650.0 930 712 380 336 220 245 153 151 159 156
1690.0 107 107 180 126 142 94 136 141 100 77
1730.0 103 153 109 119 113 143 95 96 90 70
1770.0 91 65 51 47 56 57 89 70 77 47
1810.0 41 34 13 18 8 25 6 0 12 31
1850.0 17 2 13 8 32 47 45 49 65 76
1890.0 82 72 51 38 22 23 14 24 26 15
1930.0 16 16 19 24 29 7 11 8 6 9
1970.0 10 12 7 17 16 30 26 27 23 22
2010.0 21 25 41 40 48 50 52 44 42 33
2050.0 28 30 22 27 25 28 16 20 21 22
2090.0 21 22 23 19 21 22 23 13 20 17
2130.0 13 13 14 14 11 17 13 16 10 16
2170.0 13 9 16 12 14 15 22 19 22 24
2210.0 22 23 19 26 17 18 19 21 21 29
2250.0 26 29 32 32 41 38 49 44 48 42
2290.0 41 38 40 36 34 45 41 42 36 42
2330.0 35 48 44 51 55 52 61 53 64 48
2370.0 45 52 46 54 48 45 41 44 32 27
2410.0 19 19 22 14 20 20 28 33 42 45
2450.0 52 49 47 34 27 27 19 18 14 14
2490.0 10 10 15 10 13 13 19 19 20 20
2530.0 23 25 27 43 38 43 54 51 45 40
2570.0 30 21 22 19 23 26 26 22 23 25
2610.0 27 28 29 43 50 58 66 79 88 98
2650.0 101 94 78 69 49 38 38 31 29 26
2690.0 32 30 29 33 30 32 28 34 32 40
2730.0 36 45 52 61 64 69 67 57 49 40
2770.0 38 38 42 42 43 50 48 57 58 60
2810.0 63 73 81 78 86 90 99 104 119 129
2850.0 147 163 190 228 274 316 350 361 360 347
2890.0 332 330 336 346 363 387 400 414 442 467
2930.0 502 527 536 523 487 429 355 298 247 218
2970.0 212 211 231 258 275 282 267 249 198 154
3010.0 129 112 107 118 141 180 230 264 277 275
3050.0 252 211 179 177 188 193 186 178 151 104
3090.0 88 77 78 71 64 69 65 63 54 54
3130.0 43 43 41 33 32 32 30 21 27 22
3170.0 26 26 36 32 36 43 52 58 63 79
3210.0 83 84 84 79 71 61 51 40 34 43
3250.0 30 24 29 23 25 35 15 13 9 20
3290.0 26 27 20 27 23 26 21 22 26 18
3330.0 25 21 32 25 19 26 24 26 24 31
3370.0 33 37 44 60 56 62 84 105 138 197
3410.0 293 418 601 729 769 738 664 548 451 350
3450.0 262 181 111 99 84 80 69 83 95 112
3490.0 150 185 233 297 358 369 389 371 352 307
3530.0 279 245 216 184 142 102 67 51 45 36
3570.0 40 29 29 23 36 21 22 22 25 23
3610.0 27 18 32 25 19 31 17 20 19 16
3650.0 27 13 23 12 21 19 27 35 9 27
3690.0 23 35 16 26 13 18 23 30 28 36
3730.0 44 33 25 37 38 30 35 17 32 38
3770.0 43 46 35 42 29 45 37 27 52 46
3810.0 34 31 47 42 56 46 41 50 36 47
3850.0 40 63 37 40 43 42 43 62 60 37
3890.0 60 30 52 70 48 38 22 10 30 23
3930.0 31 62 26 45 23 43 40 26 22 36
##END=
