##TITLE=Benzenamine, 2-methyl-5-nitro-
##JCAMP-DX=4.24
##DATA TYPE=INFRARED SPECTRUM
##ORIGIN=Sadtler Research Labs Under US-EPA Contract
##OWNER=NIST Standard Reference Data Program
##CAS REGISTRY NO=99-55-8
##MOLFORM=C 7 H 8 N 2 O 2
##XUNITS=1/CM
##YUNITS=ABSORBANCE
##XFACTOR=1.0
##YFACTOR=0.000107050
##DELTAX=4.0
##FIRSTX=450.0
##LASTX=3966.0
##FIRSTY=0.041000
##MAXX=3966
##MINX=450
##MAXY=1.0705
##MINY=0
##NPOINTS=880
##XYDATA=(X++(Y..Y))
450.0 383 407 357 433 372 378 374 355 305 278
490.0 266 260 261 274 256 284 281 299 348 427
530.0 508 563 543 549 473 437 402 374 349 346
570.0 366 375 385 400 448 459 486 491 513 518
610.0 526 531 520 538 546 614 713 882 874 802
650.0 674 437 269 227 267 335 338 383 427 471
690.0 542 567 607 629 650 627 651 681 707 745
730.0 789 892 974 1116 1227 1160 993 861 692 504
770.0 354 229 172 139 126 144 130 163 241 499
810.0 1045 1497 1726 1866 1411 894 649 461 349 280
850.0 239 193 161 150 131 128 127 145 179 254
890.0 328 408 483 543 490 392 381 412 487 517
930.0 500 419 251 113 50 42 25 34 17 25
970.0 21 21 28 38 72 108 140 153 163 146
1010.0 128 125 122 130 124 128 103 95 80 91
1050.0 118 162 190 205 213 199 198 204 258 347
1090.0 559 908 1149 1167 1105 764 365 181 110 94
1130.0 87 115 194 374 557 548 566 470 249 108
1170.0 64 39 36 36 31 32 36 47 44 47
1210.0 38 35 31 38 55 65 85 91 105 109
1250.0 138 182 258 377 527 719 965 1344 1957 2739
1290.0 3351 3465 3147 2353 1377 769 629 714 998 1343
1330.0 1818 2514 3748 5806 8096 9402 10000 7972 5174 2395
1370.0 1063 559 378 303 246 230 216 212 182 183
1410.0 207 203 295 288 313 306 333 321 302 361
1450.0 449 549 666 662 679 689 801 804 898 1153
1490.0 1700 2323 2665 2676 2694 2245 2245 2609 3716 4347
1530.0 5354 5131 5128 4256 3450 2766 2169 2106 1624 1432
1570.0 1062 1084 1173 1525 1819 2189 2205 2183 1874 1580
1610.0 1594 1789 2396 2920 3735 3556 3596 2652 2116 1290
1650.0 900 750 351 344 211 260 154 152 169 166
1690.0 118 106 193 129 163 104 144 155 114 89
1730.0 103 164 111 119 112 148 102 103 102 74
1770.0 92 68 52 42 54 58 90 69 81 51
1810.0 39 36 6 20 11 32 4 4 15 34
1850.0 18 0 13 11 35 47 44 48 68 78
1890.0 86 74 50 42 22 24 16 25 29 17
1930.0 21 17 22 25 28 11 17 12 14 17
1970.0 13 16 13 19 18 34 27 26 23 25
2010.0 25 30 44 40 52 47 48 43 44 37
2050.0 29 32 26 29 25 28 22 25 25 23
2090.0 24 21 27 22 25 24 29 21 22 19
2130.0 18 20 18 23 16 21 18 19 17 18
2170.0 17 18 21 18 22 20 27 24 26 29
2210.0 29 28 27 31 26 29 28 29 27 34
2250.0 36 36 39 39 48 46 58 60 62 61
2290.0 64 60 59 67 64 68 61 67 66 65
2330.0 62 66 61 69 85 76 88 72 86 70
2370.0 74 68 68 74 63 53 41 39 33 33
2410.0 26 24 24 24 30 26 35 40 47 56
2450.0 59 56 51 43 35 35 27 26 23 22
2490.0 17 20 21 19 22 21 27 20 27 27
2530.0 30 35 36 43 43 54 56 57 48 46
2570.0 37 32 30 26 31 28 30 26 29 25
2610.0 31 33 42 48 54 66 71 85 91 107
2650.0 106 101 90 73 58 41 41 41 38 33
2690.0 39 38 36 39 40 41 36 38 39 38
2730.0 39 46 52 60 68 70 69 62 54 41
2770.0 41 40 44 43 47 53 51 57 56 62
2810.0 66 73 78 83 90 93 103 110 125 133
2850.0 148 168 196 226 271 318 350 365 362 347
2890.0 332 328 332 345 361 383 403 417 440 466
2930.0 497 520 533 522 487 430 355 300 258 234
2970.0 219 219 238 267 288 289 279 249 204 154
3010.0 129 118 114 123 148 186 232 274 286 286
3050.0 259 216 182 182 193 200 191 183 152 111
3090.0 95 83 77 75 73 75 67 71 57 59
3130.0 47 48 39 39 34 33 37 29 32 29
3170.0 34 32 35 40 42 53 52 62 71 78
3210.0 83 90 86 79 71 66 62 51 50 47
3250.0 38 32 38 26 32 36 25 23 25 29
3290.0 29 33 27 31 34 31 26 30 32 26
3330.0 28 28 35 27 32 32 29 35 27 37
3370.0 39 41 44 50 55 73 87 105 142 189
3410.0 283 421 594 721 771 748 672 559 459 373
3450.0 273 183 117 101 83 76 86 89 91 107
3490.0 144 184 244 300 354 375 387 370 342 304
3530.0 272 250 204 183 150 110 80 58 48 44
3570.0 46 46 44 26 37 25 32 22 32 32
3610.0 24 24 34 32 27 29 26 21 29 36
3650.0 44 29 39 31 28 44 28 59 17 35
3690.0 39 45 40 46 26 42 40 30 36 28
3730.0 42 39 48 39 54 23 44 40 35 52
3770.0 42 43 34 64 30 30 38 45 55 41
3810.0 46 54 57 57 50 46 43 51 56 38
3850.0 57 78 43 55 53 53 60 65 60 75
3890.0 62 45 57 65 52 41 50 63 50 55
3930.0 36 63 40 48 47 52 43 43 53 35
##END=
