##TITLE=Benzene, 1,2-dimethyl-4-nitro-
##JCAMP-DX=4.24
##DATA TYPE=INFRARED SPECTRUM
##ORIGIN=Sadtler Research Labs Under US-EPA Contract
##OWNER=NIST Standard Reference Data Program
##CAS REGISTRY NO=99-51-4
##MOLFORM=C 8 H 9 N O 2
##XUNITS=1/CM
##YUNITS=ABSORBANCE
##XFACTOR=1.0
##YFACTOR=0.000140515
##DELTAX=4.0
##FIRSTX=450.0
##LASTX=3966.0
##FIRSTY=0.018689
##MAXX=3966
##MINX=450
##MAXY=1.40515
##MINY=0
##NPOINTS=880
##XYDATA=(X++(Y..Y))
450.0 133 87 60 85 18 45 40 78 77 170
490.0 92 14 70 92 72 93 95 119 179 215
530.0 178 207 185 143 72 61 71 68 81 83
570.0 39 79 56 38 50 47 88 60 59 28
610.0 39 50 50 68 105 235 324 331 320 239
650.0 133 68 57 59 46 34 49 39 89 74
690.0 61 82 55 86 62 83 76 200 320 574
730.0 861 1131 1790 1394 887 826 419 225 108 108
770.0 75 91 105 117 142 139 193 498 1390 2417
810.0 2687 2781 2246 1292 1044 847 580 451 299 186
850.0 137 87 91 77 101 116 161 227 321 422
890.0 519 642 617 481 384 357 379 452 486 491
930.0 398 256 156 127 125 118 120 108 95 92
970.0 89 99 102 127 155 197 260 295 305 292
1010.0 261 230 222 232 236 216 185 162 137 117
1050.0 98 93 88 88 94 111 144 218 342 583
1090.0 896 1040 1031 860 509 250 155 131 142 162
1130.0 216 280 323 332 317 276 209 158 136 135
1170.0 139 150 145 132 119 103 90 91 89 97
1210.0 106 117 133 139 135 129 117 107 128 158
1250.0 203 245 284 313 420 558 639 689 686 599
1290.0 578 577 562 553 503 450 464 551 728 1010
1330.0 1377 1800 2379 3403 5235 7685 9532 10000 8538 5556
1370.0 2823 1354 831 682 673 658 595 540 433 359
1410.0 328 314 308 317 327 359 394 451 523 639
1450.0 741 818 868 841 824 841 892 1003 1198 1460
1490.0 1633 1617 1485 1284 1141 1204 1545 2271 3452 5073
1530.0 6929 8174 8382 7884 6920 5280 4242 3644 3216 2890
1570.0 2425 1990 1727 1631 1597 1533 1379 1236 1067 878
1610.0 722 598 489 387 292 231 198 191 183 195
1650.0 202 215 194 186 161 133 123 103 101 104
1690.0 92 87 101 98 95 97 105 106 92 82
1730.0 79 86 71 62 58 61 61 74 88 107
1770.0 131 154 159 164 149 132 104 83 64 48
1810.0 42 41 37 37 38 38 37 38 45 45
1850.0 46 43 40 37 36 38 39 43 51 61
1890.0 76 88 104 114 114 104 97 78 60 47
1930.0 40 38 38 35 35 35 31 34 31 31
1970.0 30 27 27 27 28 31 31 29 29 30
2010.0 31 34 38 38 36 30 30 30 26 24
2050.0 26 31 31 27 26 29 31 32 26 27
2090.0 27 25 21 20 18 16 16 16 17 20
2130.0 20 20 22 22 17 16 12 11 10 8
2170.0 9 11 11 11 14 14 16 14 15 13
2210.0 15 17 19 19 17 16 19 15 20 17
2250.0 19 20 18 23 30 34 44 45 42 38
2290.0 38 34 30 33 39 37 44 49 46 49
2330.0 46 38 44 43 3 53 56 59 33 4
2370.0 0 0 0 0 6 13 19 21 24 28
2410.0 29 26 27 23 24 26 26 28 33 39
2450.0 42 44 41 37 34 32 34 31 32 31
2490.0 36 35 38 37 36 35 34 33 32 31
2530.0 37 39 35 35 30 26 25 25 28 30
2570.0 37 37 40 45 45 43 42 42 38 29
2610.0 23 23 21 18 17 14 13 13 3 0
2650.0 3 7 10 14 17 25 27 30 34 38
2690.0 46 42 47 49 47 47 44 37 35 39
2730.0 43 47 57 71 80 83 79 77 73 72
2770.0 72 73 72 74 68 64 65 70 69 76
2810.0 81 82 89 100 104 112 123 133 156 183
2850.0 214 259 311 375 446 525 594 661 703 712
2890.0 691 663 623 597 581 572 565 590 665 812
2930.0 1049 1280 1393 1399 1299 1130 1022 989 939 870
2970.0 843 840 874 901 890 855 761 622 499 388
3010.0 328 282 269 278 312 375 445 493 500 499
3050.0 479 427 401 407 414 418 388 347 283 225
3090.0 189 175 158 150 144 130 109 94 78 79
3130.0 55 48 47 39 34 33 25 31 30 25
3170.0 35 27 29 23 23 24 29 24 19 29
3210.0 29 22 25 30 24 24 27 22 23 20
3250.0 21 27 21 21 20 26 21 22 17 20
3290.0 24 22 24 22 25 30 25 19 27 26
3330.0 22 23 15 23 27 30 17 18 20 26
3370.0 34 23 26 23 26 31 32 36 21 18
3410.0 31 33 27 21 28 13 37 32 35 18
3450.0 18 25 31 21 33 37 28 21 13 20
3490.0 26 33 27 28 25 33 28 24 28 34
3530.0 15 17 24 28 24 20 26 13 20 24
3570.0 24 12 16 25 22 30 24 30 23 18
3610.0 12 23 22 18 30 27 22 2 24 13
3650.0 20 22 11 3 22 35 23 10 14 13
3690.0 9 3 16 15 17 10 10 20 16 15
3730.0 13 0 13 12 16 3 14 4 2 4
3770.0 14 7 24 18 5 27 2 17 22 22
3810.0 8 25 24 21 12 12 8 21 16 23
3850.0 13 29 36 24 26 20 29 2 23 48
3890.0 38 50 22 32 21 40 39 37 39 28
3930.0 44 17 53 48 59 49 57 46 27 52
##END=
