##TITLE=Benzene, 1,3-bis(1-methylethyl)-
##JCAMP-DX=4.24
##DATA TYPE=INFRARED SPECTRUM
##ORIGIN=Sadtler Research Labs Under US-EPA Contract
##OWNER=NIST Standard Reference Data Program
##CAS REGISTRY NO=99-62-7
##MOLFORM=C 12 H 18
##XUNITS=1/CM
##YUNITS=ABSORBANCE
##XFACTOR=1.0
##YFACTOR=0.000129242
##DELTAX=4.0
##FIRSTX=450.0
##LASTX=3966.0
##FIRSTY=0.017060
##MAXX=3966
##MINX=450
##MAXY=1.29242
##MINY=0
##NPOINTS=880
##XYDATA=(X++(Y..Y))
450.0 132 76 114 150 123 223 255 250 206 165
490.0 103 101 38 47 47 40 58 59 57 61
530.0 53 42 33 26 56 58 67 58 71 55
570.0 65 71 55 63 84 69 76 71 44 52
610.0 31 33 18 7 18 16 19 4 11 9
650.0 23 22 32 22 16 42 48 64 74 155
690.0 250 508 903 1296 1713 1414 897 569 251 136
730.0 73 76 60 69 100 107 128 109 103 93
770.0 93 144 277 479 759 1095 1179 919 661 397
810.0 242 189 149 120 87 67 57 53 51 48
850.0 53 58 59 64 78 89 120 177 245 344
890.0 391 354 293 245 228 263 320 394 433 407
930.0 333 262 213 194 206 215 225 203 173 136
970.0 116 100 92 79 75 74 77 82 88 97
1010.0 93 102 102 109 100 140 172 172 218 343
1050.0 461 514 474 384 314 309 335 386 433 467
1090.0 464 423 383 356 332 291 256 222 205 192
1130.0 187 188 190 194 203 217 230 251 279 316
1170.0 343 367 391 442 514 545 541 485 410 347
1210.0 284 223 187 171 176 184 196 220 260 328
1250.0 423 522 604 628 609 551 477 410 371 345
1290.0 327 316 334 411 550 706 755 684 547 440
1330.0 370 335 329 343 379 442 520 620 737 844
1370.0 903 766 684 701 738 730 628 418 288 245
1410.0 230 257 294 381 449 547 616 647 677 670
1450.0 719 746 897 1041 1133 1138 1042 970 968 1101
1490.0 1079 944 623 308 221 138 105 88 78 73
1530.0 63 75 65 72 65 67 67 68 90 94
1570.0 133 156 231 321 408 570 721 947 1021 1106
1610.0 987 744 484 261 180 120 112 87 78 61
1650.0 69 55 71 72 83 94 92 114 129 168
1690.0 196 261 362 512 550 522 375 223 134 116
1730.0 110 119 132 144 162 124 102 92 100 102
1770.0 114 110 106 102 97 95 92 82 66 53
1810.0 39 33 28 25 24 24 19 21 22 34
1850.0 45 70 97 106 93 72 40 29 23 18
1890.0 18 16 18 14 15 19 18 29 44 62
1930.0 70 72 62 46 29 16 11 7 6 4
1970.0 6 4 3 3 4 2 4 3 4 4
2010.0 4 2 3 2 2 5 3 3 2 3
2050.0 2 5 6 3 4 3 5 2 4 1
2090.0 1 0 2 4 3 2 2 4 1 2
2130.0 1 2 0 1 0 0 3 2 4 4
2170.0 6 5 5 7 7 10 7 6 5 4
2210.0 3 4 5 4 6 6 6 9 8 9
2250.0 11 10 12 13 14 12 12 13 11 11
2290.0 11 12 11 10 11 7 8 6 9 11
2330.0 14 9 11 15 18 26 18 23 20 11
2370.0 14 16 17 17 16 15 17 14 14 13
2410.0 14 12 13 11 10 12 10 8 10 8
2450.0 8 9 11 16 20 20 22 21 19 18
2490.0 21 18 16 16 15 16 13 13 11 13
2530.0 13 13 15 16 15 14 16 17 17 19
2570.0 24 28 34 38 47 54 57 62 64 62
2610.0 54 46 39 32 31 29 29 29 29 30
2650.0 31 33 32 30 34 32 32 32 28 31
2690.0 29 29 32 35 38 44 50 61 75 87
2730.0 100 100 99 93 90 91 87 90 98 103
2770.0 101 90 90 86 79 84 91 103 122 131
2810.0 149 162 176 179 182 186 194 202 229 273
2850.0 329 404 500 625 814 1108 1562 2008 2258 2240
2890.0 2075 1985 2031 2120 2145 2094 1983 1902 1881 1994
2930.0 2230 2561 2871 2981 2923 2825 2977 3983 6307 8635
2970.0 10000 9047 6396 4117 2520 1710 1286 1021 844 724
3010.0 660 666 719 786 886 987 1023 997 930 890
3050.0 878 894 934 967 978 942 848 719 579 468
3090.0 383 333 312 297 284 251 216 169 132 108
3130.0 91 85 75 74 70 72 71 72 75 79
3170.0 87 89 92 97 99 100 97 93 88 84
3210.0 81 75 70 66 57 52 49 44 38 36
3250.0 31 28 27 23 23 21 24 23 25 21
3290.0 22 22 18 19 20 19 18 14 17 16
3330.0 15 14 16 14 12 13 12 15 13 14
3370.0 13 13 16 19 17 23 25 22 20 14
3410.0 13 12 16 9 15 14 21 21 20 16
3450.0 13 10 11 9 10 7 8 9 9 4
3490.0 11 13 12 10 9 14 16 9 10 10
3530.0 15 10 15 5 9 6 13 6 8 11
3570.0 13 13 11 12 9 18 13 10 16 7
3610.0 21 13 30 26 36 56 62 79 63 68
3650.0 58 48 51 27 34 20 29 15 19 12
3690.0 13 21 18 20 14 13 22 23 17 22
3730.0 16 26 21 25 3 22 22 13 24 7
3770.0 10 11 12 16 13 12 14 14 23 15
3810.0 21 8 15 12 26 20 25 20 18 19
3850.0 12 17 15 14 8 6 22 19 16 13
3890.0 21 16 19 17 26 7 11 16 20 12
3930.0 16 18 19 15 19 22 16 20 13 21
##END=
