##TITLE=Phenol, 4-(1-methylpropyl)-
##JCAMP-DX=4.24
##DATA TYPE=INFRARED SPECTRUM
##ORIGIN=Sadtler Research Labs Under US-EPA Contract
##OWNER=NIST Standard Reference Data Program
##CAS REGISTRY NO=99-71-8
##MOLFORM=C 10 H 14 O
##XUNITS=1/CM
##YUNITS=ABSORBANCE
##XFACTOR=1.0
##YFACTOR=0.000052686
##DELTAX=4.0
##FIRSTX=450.0
##LASTX=3966.0
##FIRSTY=0.014699
##MAXX=3966
##MINX=450
##MAXY=0.52686
##MINY=0
##NPOINTS=880
##XYDATA=(X++(Y..Y))
450.0 279 327 368 315 330 335 254 216 289 223
490.0 279 338 264 331 421 417 584 593 594 780
530.0 929 980 1176 1143 1040 949 624 624 488 259
570.0 355 291 116 246 137 155 224 108 107 85
610.0 27 115 192 74 134 141 54 217 156 92
650.0 242 37 97 127 105 195 205 266 337 549
690.0 478 517 474 204 254 113 165 238 163 276
730.0 303 236 232 192 172 261 141 118 266 225
770.0 278 387 359 430 505 577 678 871 933 1066
810.0 1212 1380 1844 2129 2406 2560 2275 1693 1280 724
850.0 470 435 316 316 291 161 190 221 122 142
890.0 127 126 166 89 127 177 149 153 172 126
930.0 166 125 95 105 131 147 196 169 173 176
970.0 160 153 171 135 189 202 212 331 329 411
1010.0 478 444 402 390 250 195 181 108 169 214
1050.0 195 289 338 367 397 388 341 404 411 466
1090.0 616 722 828 870 712 658 691 637 708 732
1130.0 722 738 677 669 742 847 1097 1770 3367 6613
1170.0 9455 9728 10000 6834 4337 3120 2403 1889 1626 1363
1210.0 1183 1093 974 923 980 1023 1205 1504 2017 2938
1250.0 4031 4776 5058 4273 2977 1775 1027 756 639 549
1290.0 534 583 530 553 583 656 852 954 1016 1052
1330.0 955 927 968 969 977 917 764 671 563 493
1370.0 578 658 740 834 788 672 519 365 299 292
1410.0 278 323 413 490 676 866 996 1116 1046 964
1450.0 999 1097 1236 1277 1204 1088 953 781 709 681
1490.0 729 990 1481 2521 4350 6100 6474 5875 4088 2061
1530.0 1021 599 459 388 314 306 289 261 269 259
1570.0 280 350 417 545 773 1004 1304 1529 1670 1803
1610.0 1901 1883 1707 1341 911 590 380 312 281 223
1650.0 203 211 143 162 153 139 147 139 117 148
1690.0 120 117 129 108 112 108 77 116 96 81
1730.0 103 115 99 137 131 129 129 89 65 71
1770.0 41 58 67 49 53 54 36 52 45 44
1810.0 54 44 40 54 51 59 83 71 87 114
1850.0 92 122 135 144 173 181 161 173 138 108
1890.0 111 79 83 80 60 68 59 40 49 47
1930.0 42 52 40 34 62 43 47 42 33 49
1970.0 49 41 62 48 44 66 56 45 63 46
2010.0 46 62 44 42 51 43 46 50 32 49
2050.0 38 38 65 56 50 73 63 63 73 65
2090.0 66 69 40 51 40 31 45 32 24 38
2130.0 17 27 37 14 17 33 13 24 30 13
2170.0 20 14 11 31 22 11 30 10 22 34
2210.0 8 24 23 14 21 30 17 27 17 18
2250.0 29 26 24 39 23 33 61 37 44 41
2290.0 39 58 68 59 73 72 74 73 64 68
2330.0 106 59 108 117 98 119 107 68 115 102
2370.0 59 87 70 68 65 55 50 63 53 73
2410.0 82 85 126 144 153 173 146 120 116 77
2450.0 63 76 46 55 55 42 60 63 45 64
2490.0 56 50 76 69 75 76 56 58 67 37
2530.0 53 45 34 45 39 46 56 42 39 60
2570.0 49 62 59 50 64 66 61 70 77 71
2610.0 79 72 61 62 51 53 63 48 56 69
2650.0 46 54 63 42 70 64 53 83 80 68
2690.0 84 69 75 85 68 81 84 73 92 105
2730.0 84 116 123 108 135 116 109 126 109 112
2770.0 124 110 124 136 117 147 145 137 159 157
2810.0 166 196 180 191 231 214 252 272 282 336
2850.0 410 493 708 970 1265 1607 1920 2247 2554 2630
2890.0 2544 2306 1959 1763 1741 1797 2116 2486 2872 3293
2930.0 3538 3582 3567 3292 2989 2812 2904 3562 4615 5763
2970.0 6779 6642 5533 4137 2575 1494 1029 822 809 951
3010.0 1103 1292 1393 1359 1311 1288 1270 1275 1212 1074
3050.0 961 832 761 761 699 671 663 581 530 464
3090.0 378 342 327 282 302 273 246 263 219 200
3130.0 201 158 150 146 112 129 113 92 102 91
3170.0 82 96 90 68 98 78 70 85 66 74
3210.0 76 47 65 53 30 59 47 15 49 39
3250.0 22 56 41 27 48 30 39 47 18 52
3290.0 41 14 40 16 32 50 12 27 50 22
3330.0 42 49 32 55 72 44 82 85 43 98
3370.0 80 48 90 51 64 73 52 75 76 53
3410.0 67 75 54 70 75 52 84 53 55 77
3450.0 49 46 61 18 50 50 38 60 51 37
3490.0 77 37 29 77 52 37 69 41 44 43
3530.0 28 48 59 20 60 28 42 50 47 51
3570.0 75 61 62 72 41 78 80 61 91 99
3610.0 81 144 131 143 219 291 459 842 1429 2356
3650.0 3309 3563 3268 2449 1281 650 335 181 139 105
3690.0 97 106 77 54 66 36 56 62 41 52
3730.0 62 60 95 65 50 59 41 29 48 28
3770.0 22 29 17 41 47 34 45 37 36 47
3810.0 43 21 49 39 26 61 49 69 92 63
3850.0 77 92 63 78 81 72 102 89 81 104
3890.0 73 82 92 82 88 103 82 120 103 83
3930.0 106 109 82 106 90 98 0 8 8 8
##END=
