##TITLE=Phenol, 4-(1-methylethyl)-
##JCAMP-DX=4.24
##DATA TYPE=INFRARED SPECTRUM
##ORIGIN=Sadtler Research Labs Under US-EPA Contract
##OWNER=NIST Standard Reference Data Program
##CAS REGISTRY NO=99-89-8
##MOLFORM=C 9 H 12 O
##XUNITS=1/CM
##YUNITS=ABSORBANCE
##XFACTOR=1.0
##YFACTOR=0.000061154
##DELTAX=4.0
##FIRSTX=450.0
##LASTX=3966.0
##FIRSTY=0.003914
##MAXX=3966
##MINX=450
##MAXY=0.61154
##MINY=0
##NPOINTS=880
##XYDATA=(X++(Y..Y))
450.0 64 142 146 77 164 124 198 175 184 192
490.0 219 207 224 257 267 311 316 409 508 711
530.0 855 995 1059 1068 1004 900 826 713 569 386
570.0 338 212 152 99 61 71 40 37 20 8
610.0 17 3 20 16 13 11 25 62 60 51
650.0 42 27 19 7 22 39 63 93 186 271
690.0 392 453 463 405 298 168 79 63 55 65
730.0 59 39 51 48 29 17 31 24 42 54
770.0 74 86 108 146 197 295 408 575 770 947
810.0 1167 1471 1808 2179 2637 2758 2332 1944 1377 835
850.0 484 271 166 117 96 79 57 55 52 34
890.0 41 33 17 9 10 22 43 57 58 70
930.0 70 66 62 67 65 61 49 46 40 32
970.0 28 33 28 31 34 43 36 49 93 177
1010.0 255 270 269 249 184 161 143 160 206 305
1050.0 429 502 536 532 460 391 377 396 438 515
1090.0 629 761 829 831 801 712 657 685 703 700
1130.0 684 595 522 496 520 603 823 1454 3198 6356
1170.0 8899 9714 10000 8120 4906 3139 2274 1653 1280 1093
1210.0 1015 975 931 894 881 881 936 1119 1566 2485
1250.0 3793 4821 5060 4736 3531 1868 954 691 575 502
1290.0 425 360 344 379 489 634 771 823 877 891
1330.0 908 965 1011 1069 1033 928 795 651 542 547
1370.0 557 534 560 613 598 563 513 397 335 303
1410.0 280 336 296 448 573 802 873 919 894 762
1450.0 611 576 616 706 750 755 677 634 640 544
1490.0 565 841 1354 2465 4061 5729 6173 5823 4675 2692
1530.0 1267 660 414 272 224 239 199 127 168 164
1570.0 179 203 298 363 579 783 1046 1270 1514 1673
1610.0 1698 1699 1463 1219 829 593 380 291 241 213
1650.0 105 146 135 113 111 92 45 107 23 54
1690.0 51 84 30 58 48 89 71 34 97 114
1730.0 100 52 124 112 113 88 113 84 76 82
1770.0 46 46 51 48 30 44 19 25 9 46
1810.0 33 36 55 40 53 40 71 76 87 74
1850.0 109 135 145 157 164 153 176 175 152 128
1890.0 102 88 77 72 64 51 43 38 23 35
1930.0 45 44 48 38 43 57 58 54 49 37
1970.0 37 39 40 45 50 34 44 58 63 63
2010.0 62 49 38 38 43 37 37 32 27 33
2050.0 39 38 44 46 46 56 61 61 74 64
2090.0 61 58 44 38 25 18 10 12 14 11
2130.0 10 13 9 5 5 1 6 7 1 5
2170.0 2 6 3 9 7 8 6 6 5 5
2210.0 8 8 7 9 10 13 15 12 13 13
2250.0 17 24 25 31 32 40 38 40 43 44
2290.0 48 51 59 61 65 68 67 66 65 65
2330.0 72 80 74 110 106 97 98 86 64 46
2370.0 49 45 43 44 32 29 24 30 35 36
2410.0 47 56 78 101 124 135 129 113 79 58
2450.0 45 41 35 33 31 34 41 41 40 36
2490.0 42 37 47 50 56 58 58 54 46 42
2530.0 37 34 29 26 27 24 30 28 27 28
2570.0 29 28 34 43 48 54 65 70 71 74
2610.0 61 58 48 40 34 38 33 34 40 40
2650.0 39 38 33 34 35 34 36 46 42 43
2690.0 41 40 39 41 42 43 51 60 72 71
2730.0 76 71 72 76 76 70 71 73 93 90
2770.0 90 87 91 83 83 82 83 88 91 99
2810.0 107 109 117 119 128 134 139 153 179 216
2850.0 257 309 388 502 660 880 1166 1405 1561 1610
2890.0 1578 1517 1467 1450 1448 1453 1457 1456 1484 1551
2930.0 1669 1850 1997 2072 2076 2177 2559 3512 4896 5863
2970.0 6362 5947 4464 2989 1847 1168 864 736 743 853
3010.0 1016 1169 1245 1264 1213 1140 1110 1096 1051 966
3050.0 846 751 690 650 622 597 548 505 449 387
3090.0 333 300 270 257 252 241 229 213 202 192
3130.0 173 160 148 125 111 98 96 95 94 96
3170.0 97 87 85 92 95 88 89 88 85 78
3210.0 77 71 62 61 52 55 55 54 45 45
3250.0 44 42 47 44 30 34 41 36 24 30
3290.0 29 24 27 28 24 33 36 34 34 34
3330.0 29 33 40 42 62 55 62 72 78 67
3370.0 62 60 61 64 67 63 56 57 70 65
3410.0 57 54 62 56 55 62 64 62 53 40
3450.0 30 31 32 34 31 30 41 37 33 25
3490.0 36 45 26 24 21 24 18 19 31 3
3530.0 17 30 20 27 13 22 28 10 38 13
3570.0 6 33 26 39 18 20 39 28 60 46
3610.0 45 52 87 114 170 266 426 758 1370 2316
3650.0 3194 3337 3137 2517 1404 562 256 153 87 84
3690.0 50 48 13 21 37 26 5 25 0 1
3730.0 20 11 1 21 29 7 26 1 21 16
3770.0 8 22 16 18 7 25 19 17 28 44
3810.0 12 36 23 29 21 39 28 29 24 52
3850.0 41 51 50 50 53 40 41 51 41 49
3890.0 29 62 43 44 22 52 48 36 53 41
3930.0 46 35 61 50 57 50 58 60 32 37
##END=
