##TITLE=Benzene, 1-methyl-4-(1-methylethyl)-
##JCAMP-DX=4.24
##DATA TYPE=INFRARED SPECTRUM
##ORIGIN=Sadtler Research Labs Under US-EPA Contract
##OWNER=NIST Standard Reference Data Program
##CAS REGISTRY NO=99-87-6
##MOLFORM=C 10 H 14
##XUNITS=1/CM
##YUNITS=ABSORBANCE
##XFACTOR=1.0
##YFACTOR=0.000120398
##DELTAX=4.0
##FIRSTX=450.0
##LASTX=3966.0
##FIRSTY=0.000000
##MAXX=3966
##MINX=450
##MAXY=1.20398
##MINY=0
##NPOINTS=880
##XYDATA=(X++(Y..Y))
450.0 0 92 168 80 185 123 162 181 179 171
490.0 235 176 303 310 240 402 357 491 601 820
530.0 938 1035 1090 962 962 806 733 537 466 380
570.0 276 227 207 201 142 193 147 146 105 139
610.0 109 140 146 142 155 120 148 153 166 110
650.0 142 97 107 122 97 150 137 154 109 142
690.0 133 146 148 177 226 266 351 404 467 398
730.0 386 283 216 198 171 170 152 179 159 177
770.0 189 211 238 273 316 412 608 871 1328 1806
810.0 2262 2765 2558 2093 1605 1084 680 485 364 311
850.0 249 230 217 199 210 200 203 201 219 223
890.0 249 247 252 233 222 230 217 220 217 239
930.0 230 237 238 237 233 232 231 214 225 216
970.0 229 236 265 273 272 287 268 255 237 262
1010.0 359 623 729 740 714 527 365 368 430 553
1050.0 735 919 1009 1002 877 691 539 469 432 418
1090.0 416 440 494 575 655 674 665 590 506 442
1130.0 410 384 381 369 347 334 306 303 310 327
1170.0 335 335 341 360 372 365 376 369 399 428
1210.0 455 458 410 358 352 362 360 355 326 301
1250.0 289 314 344 385 425 443 428 403 384 338
1290.0 334 397 552 653 687 647 487 398 397 402
1330.0 411 430 460 514 583 627 684 716 747 843
1370.0 908 910 949 995 954 905 793 645 564 552
1410.0 556 595 612 645 662 674 667 657 697 736
1450.0 820 937 1081 1223 1305 1332 1208 1079 905 740
1490.0 631 617 674 885 1348 2051 2543 2527 2247 1545
1530.0 822 514 392 321 273 243 221 191 195 192
1570.0 195 196 203 198 210 196 197 190 203 214
1610.0 220 228 214 229 224 258 265 296 297 294
1650.0 251 224 198 169 152 139 123 136 128 141
1690.0 169 209 226 254 258 266 255 234 245 245
1730.0 212 180 198 201 220 218 230 219 212 207
1770.0 195 210 244 266 256 238 191 145 112 109
1810.0 100 98 97 87 91 84 95 93 98 89
1850.0 101 111 119 124 130 145 176 208 244 282
1890.0 300 299 282 243 198 159 138 121 114 109
1930.0 107 98 96 88 82 87 86 86 85 84
1970.0 82 83 81 81 86 81 83 89 90 90
2010.0 93 93 91 95 93 92 92 89 83 85
2050.0 90 88 91 95 95 94 90 82 76 73
2090.0 69 71 75 79 80 83 78 82 81 79
2130.0 81 80 80 77 80 77 83 80 83 86
2170.0 85 88 90 91 94 94 94 96 94 90
2210.0 89 91 89 91 96 96 95 97 98 100
2250.0 105 105 104 110 109 110 109 111 112 113
2290.0 115 111 112 106 103 99 95 78 72 74
2330.0 69 74 80 74 109 97 69 69 72 138
2370.0 168 178 181 165 149 129 124 118 121 121
2410.0 123 119 118 123 119 123 121 123 124 127
2450.0 127 126 128 133 136 132 136 135 133 134
2490.0 134 136 134 132 129 132 129 131 129 129
2530.0 131 130 132 131 133 130 135 140 135 139
2570.0 141 153 160 165 183 193 203 209 204 197
2610.0 185 177 167 157 154 145 141 141 144 144
2650.0 143 146 141 136 136 135 141 139 148 152
2690.0 158 154 165 171 175 185 196 219 230 241
2730.0 253 267 284 293 297 284 253 237 229 225
2770.0 221 212 206 205 212 213 226 239 251 265
2810.0 293 312 328 348 357 385 405 444 502 579
2850.0 679 807 968 1229 1592 2056 2667 3166 3458 3495
2890.0 3328 3108 2934 2872 2869 2927 3016 3131 3404 3821
2930.0 4298 4708 4898 4769 4383 4085 4183 5228 7333 9052
2970.0 10000 9505 7250 5118 3555 2663 2265 2080 2021 2029
3010.0 2060 2170 2468 2827 2988 2946 2708 2180 1778 1624
3050.0 1558 1536 1494 1427 1307 1171 1024 896 818 755
3090.0 730 706 662 600 538 464 393 353 315 306
3130.0 296 294 287 268 265 250 224 212 212 205
3170.0 200 198 188 182 188 183 183 186 179 189
3210.0 178 178 170 159 148 148 147 127 126 121
3250.0 128 129 133 129 120 112 103 100 95 114
3290.0 101 95 109 103 91 103 112 114 101 94
3330.0 97 92 97 93 96 103 100 108 104 97
3370.0 81 88 89 100 101 100 100 90 92 92
3410.0 95 94 100 94 106 99 89 96 95 102
3450.0 97 94 96 76 82 88 83 81 103 101
3490.0 107 95 94 103 108 102 97 94 89 88
3530.0 95 97 85 101 101 94 92 88 97 101
3570.0 110 104 109 107 113 101 106 97 107 108
3610.0 117 113 104 93 109 116 122 132 141 135
3650.0 125 150 135 137 148 133 114 121 123 124
3690.0 109 118 116 130 132 121 135 98 117 105
3730.0 91 109 122 109 107 112 97 102 113 111
3770.0 116 124 113 86 117 115 105 101 109 115
3810.0 136 127 126 124 137 131 127 122 142 145
3850.0 125 116 117 134 117 124 119 115 137 129
3890.0 127 140 118 119 106 118 115 128 132 141
3930.0 129 116 120 126 102 104 129 164 118 111
##END=
