##TITLE=Benzene, 1-methyl-4-nitro-
##JCAMP-DX=4.24
##DATA TYPE=INFRARED SPECTRUM
##ORIGIN=Sadtler Research Labs Under US-EPA Contract
##OWNER=NIST Standard Reference Data Program
##CAS REGISTRY NO=99-99-0
##MOLFORM=C 7 H 7 N O 2
##XUNITS=1/CM
##YUNITS=ABSORBANCE
##XFACTOR=1.0
##YFACTOR=0.000194980
##DELTAX=4.0
##FIRSTX=450.0
##LASTX=3966.0
##FIRSTY=0.014234
##MAXX=3966
##MINX=450
##MAXY=1.9498
##MINY=0
##NPOINTS=880
##XYDATA=(X++(Y..Y))
450.0 73 51 13 82 78 65 85 70 98 97
490.0 151 100 99 77 60 26 10 23 3 27
530.0 13 28 21 33 30 23 26 8 23 6
570.0 36 30 33 18 55 49 53 91 167 323
610.0 433 487 459 416 193 65 43 24 42 18
650.0 18 17 48 70 106 167 200 256 250 170
690.0 158 123 84 75 78 121 226 417 668 888
730.0 1066 1778 1643 1190 1078 858 578 331 173 131
770.0 117 247 462 596 560 598 392 185 156 261
810.0 385 502 708 905 1073 1275 1764 1643 1300 1511
850.0 2038 2317 2054 2114 1526 541 151 94 80 72
890.0 69 52 46 36 50 36 39 36 40 48
930.0 56 88 90 113 116 136 130 116 92 79
970.0 63 49 45 32 41 31 40 38 63 112
1010.0 242 388 382 381 332 206 100 112 126 136
1050.0 143 139 140 123 129 118 126 121 137 153
1090.0 200 294 450 655 816 844 749 629 405 215
1130.0 118 72 60 37 36 17 30 23 51 110
1170.0 273 468 511 529 517 337 199 203 214 242
1210.0 242 230 199 165 176 175 191 166 159 129
1250.0 118 111 117 150 174 227 244 301 324 375
1290.0 386 376 391 438 507 563 661 725 798 880
1330.0 1177 1944 3503 5784 7968 8937 10000 8986 6414 4312
1370.0 2660 1525 1006 768 646 564 474 398 332 327
1410.0 371 326 415 326 285 226 259 253 230 265
1450.0 347 471 665 726 791 804 870 744 762 902
1490.0 1168 1298 1437 1482 1614 1832 2185 2988 4227 5360
1530.0 8035 7415 9179 7220 8344 6634 4414 3786 2427 2075
1570.0 1690 1735 1540 1557 1537 1795 2047 2624 2701 2683
1610.0 2320 1574 1237 825 682 408 349 299 228 278
1650.0 304 344 290 265 247 237 240 123 192 164
1690.0 127 99 204 176 150 102 117 177 80 67
1730.0 85 159 80 89 100 124 97 78 89 62
1770.0 119 134 136 167 188 196 201 157 133 72
1810.0 52 49 19 36 37 49 27 14 36 54
1850.0 36 8 23 18 39 63 30 31 35 50
1890.0 65 81 83 108 129 152 163 170 170 131
1930.0 107 75 54 51 46 30 35 40 38 48
1970.0 38 32 19 19 17 32 28 13 14 8
2010.0 9 9 19 8 9 8 4 8 10 9
2050.0 0 4 0 4 5 5 3 2 5 4
2090.0 9 3 10 3 6 6 9 8 9 12
2130.0 5 9 3 8 1 4 4 6 9 9
2170.0 11 4 9 3 5 3 8 10 13 18
2210.0 21 22 17 21 14 12 8 6 4 1
2250.0 2 0 3 0 9 6 12 15 24 29
2290.0 29 32 27 29 21 18 11 15 12 9
2330.0 13 8 14 2 12 13 6 15 17 28
2370.0 28 45 42 45 39 40 36 33 32 29
2410.0 27 25 27 19 26 25 28 29 40 52
2450.0 59 72 73 76 66 58 43 35 25 19
2490.0 16 12 16 13 15 17 22 21 22 19
2530.0 15 15 12 15 11 14 13 17 17 19
2570.0 22 23 32 33 39 38 45 43 44 42
2610.0 43 43 36 35 27 26 21 23 18 18
2650.0 19 14 17 14 21 21 25 31 35 39
2690.0 48 56 60 69 72 75 68 65 56 50
2730.0 45 43 50 53 60 58 56 46 43 38
2770.0 37 39 36 40 39 44 42 48 49 53
2810.0 55 58 66 66 76 85 102 113 134 151
2850.0 176 205 244 293 350 414 463 500 515 513
2890.0 483 446 417 393 385 381 395 423 484 583
2930.0 714 818 869 864 783 665 544 443 371 325
2970.0 294 271 264 266 277 291 313 329 349 363
3010.0 377 379 368 359 356 387 449 550 657 752
3050.0 812 793 717 676 606 502 454 443 429 378
3090.0 325 243 146 94 75 73 65 63 50 42
3130.0 37 33 29 26 24 23 26 19 21 15
3170.0 17 17 18 16 18 22 16 25 25 35
3210.0 32 35 36 30 30 25 26 14 18 14
3250.0 14 12 13 16 16 16 12 14 12 17
3290.0 13 14 18 16 19 12 18 13 19 14
3330.0 14 15 19 16 10 14 16 17 11 21
3370.0 15 12 16 15 13 15 18 14 16 16
3410.0 22 15 16 17 15 13 14 21 16 19
3450.0 14 16 11 15 15 11 15 14 19 9
3490.0 13 10 17 3 11 13 12 14 8 14
3530.0 18 21 14 14 17 15 19 6 17 11
3570.0 17 17 16 14 10 23 18 13 18 16
3610.0 22 13 24 22 9 29 18 23 23 18
3650.0 48 17 36 18 28 32 29 53 28 36
3690.0 16 33 23 28 26 23 42 28 21 35
3730.0 36 33 31 45 18 36 41 27 28 27
3770.0 27 25 25 27 25 25 25 13 33 10
3810.0 31 11 18 31 23 28 29 25 12 28
3850.0 13 43 31 24 36 37 43 30 46 30
3890.0 48 26 45 33 51 32 32 38 33 35
3930.0 19 40 30 30 29 42 30 30 32 29
##END=
