##TITLE=Ethanone, 1-(4-bromophenyl)-
##JCAMP-DX=4.24
##DATA TYPE=INFRARED SPECTRUM
##ORIGIN=Sadtler Research Labs Under US-EPA Contract
##OWNER=NIST Standard Reference Data Program
##CAS REGISTRY NO=99-90-1
##MOLFORM=C 8 H 7 Br O
##XUNITS=1/CM
##YUNITS=ABSORBANCE
##XFACTOR=1.0
##YFACTOR=0.000085449
##DELTAX=4.0
##FIRSTX=450.0
##LASTX=3966.0
##FIRSTY=0.023157
##MAXX=3966
##MINX=450
##MAXY=0.85449
##MINY=0
##NPOINTS=880
##XYDATA=(X++(Y..Y))
450.0 271 247 306 382 462 508 547 523 558 479
490.0 413 385 340 236 150 125 135 117 140 204
530.0 176 175 139 124 5 136 101 85 255 433
570.0 475 521 567 761 930 984 1114 1357 1627 1340
610.0 957 336 157 238 210 266 246 208 176 207
650.0 276 229 185 231 146 271 250 193 126 105
690.0 189 237 191 189 227 321 268 287 222 281
730.0 406 733 1451 2659 2198 1693 639 286 187 231
770.0 175 187 192 226 244 218 317 441 686 1121
810.0 1461 1902 2273 2094 2072 1825 1569 1131 837 583
850.0 402 284 241 161 191 190 145 142 129 130
890.0 159 172 132 175 204 189 176 188 202 200
930.0 234 370 590 986 1640 2302 2431 2072 1400 892
970.0 615 479 439 424 399 439 505 697 1229 2628
1010.0 3609 3408 2327 755 302 219 219 225 252 257
1050.0 294 363 478 804 1315 2156 3312 3844 3378 2150
1090.0 913 483 382 375 358 324 296 242 208 178
1130.0 167 152 143 160 157 174 198 241 314 431
1170.0 650 884 988 918 678 452 360 386 472 660
1210.0 880 1140 1355 1591 1881 2209 2514 2773 3154 3839
1250.0 4961 6347 7536 7839 6765 4952 3316 2182 1475 979
1290.0 710 666 759 755 749 574 447 372 334 325
1330.0 345 396 511 654 854 1156 1652 2393 2873 2854
1370.0 2248 1541 1154 1118 1356 1852 2352 2423 2132 1461
1410.0 1022 841 796 768 746 764 714 727 578 508
1450.0 482 443 553 438 526 586 851 1051 1285 1321
1490.0 1152 728 505 334 407 331 263 306 359 300
1530.0 289 357 403 612 622 748 906 1125 1188 1244
1570.0 1492 1760 2412 3432 5085 5886 5101 3200 1299 558
1610.0 379 324 377 311 340 332 353 402 328 402
1650.0 422 642 497 585 632 739 776 881 1112 1632
1690.0 2217 3348 5412 8237 10000 9989 8229 5180 2945 1740
1730.0 1042 776 519 468 458 505 489 469 413 326
1770.0 295 265 168 163 161 151 195 154 161 125
1810.0 119 116 116 99 117 127 98 98 98 134
1850.0 98 95 125 124 144 157 122 125 123 134
1890.0 151 141 146 145 144 154 132 149 117 112
1930.0 100 96 89 92 84 78 75 80 75 66
1970.0 60 60 59 59 54 48 63 55 69 63
2010.0 62 61 74 62 61 55 41 38 33 27
2050.0 34 24 16 26 21 21 16 15 21 27
2090.0 31 26 19 29 21 22 20 24 16 22
2130.0 16 9 28 28 18 20 9 21 16 16
2170.0 7 11 17 17 17 21 21 15 21 18
2210.0 24 22 15 15 17 19 18 18 17 17
2250.0 21 13 18 24 27 30 38 50 44 55
2290.0 74 85 86 116 116 138 142 149 157 171
2330.0 199 183 190 196 174 132 186 246 264 239
2370.0 193 133 95 71 39 24 13 25 18 18
2410.0 12 16 18 22 24 19 21 13 14 11
2450.0 15 10 16 22 16 16 11 17 17 18
2490.0 26 31 37 43 44 49 56 50 50 61
2530.0 72 70 79 76 78 79 78 72 73 72
2570.0 65 60 48 52 50 47 48 41 45 44
2610.0 29 30 22 30 29 29 28 29 36 39
2650.0 33 40 51 40 34 34 27 21 19 32
2690.0 21 29 26 22 12 29 25 14 9 20
2730.0 14 20 25 21 27 27 31 38 30 35
2770.0 29 31 25 43 31 25 20 24 31 29
2810.0 39 38 39 45 35 40 41 63 58 69
2850.0 77 76 74 51 61 50 51 51 49 46
2890.0 51 40 45 44 56 66 76 87 105 123
2930.0 148 162 161 168 144 149 143 147 167 170
2970.0 201 214 235 220 216 179 185 182 214 269
3010.0 352 456 474 437 340 266 222 216 214 189
3050.0 177 211 242 308 335 325 295 288 336 407
3090.0 429 442 406 316 230 168 132 100 109 91
3130.0 95 88 75 73 62 55 62 43 38 31
3170.0 38 51 52 41 47 29 29 25 32 20
3210.0 26 22 22 11 24 29 31 28 33 29
3250.0 24 28 25 36 16 15 39 24 9 30
3290.0 28 32 25 41 37 34 13 17 26 27
3330.0 27 51 46 29 38 35 35 46 52 60
3370.0 51 71 83 101 145 193 201 199 187 147
3410.0 120 76 55 47 45 31 35 47 39 42
3450.0 51 31 35 20 42 38 29 40 16 22
3490.0 33 27 38 47 27 29 28 24 27 34
3530.0 48 52 43 27 38 37 46 46 25 55
3570.0 78 42 45 32 60 85 65 48 43 53
3610.0 77 75 59 89 47 127 59 52 59 60
3650.0 146 81 100 53 69 124 106 118 59 71
3690.0 123 80 55 86 67 118 129 82 102 124
3730.0 114 135 148 116 165 147 126 79 84 85
3770.0 78 70 57 63 56 71 81 115 134 106
3810.0 108 106 124 153 107 102 128 144 142 116
3850.0 135 183 120 126 134 128 110 110 110 117
3890.0 110 108 101 111 87 62 51 62 56 62
3930.0 85 85 75 88 98 99 0 7 7 7
##END=
