##TITLE=Acetophenone, 4'-hydroxy-
##JCAMP-DX=4.24
##DATA TYPE=INFRARED SPECTRUM
##ORIGIN=Sadtler Research Labs Under US-EPA Contract
##OWNER=NIST Standard Reference Data Program
##CAS REGISTRY NO=99-93-4
##MOLFORM=C 8 H 8 O 2
##XUNITS=1/CM
##YUNITS=ABSORBANCE
##XFACTOR=1.0
##YFACTOR=0.000102762
##DELTAX=4.0
##FIRSTX=450.0
##LASTX=3966.0
##FIRSTY=0.000000
##MAXX=3966
##MINX=450
##MAXY=1.02762
##MINY=0
##NPOINTS=880
##XYDATA=(X++(Y..Y))
450.0 0 177 335 322 336 313 389 399 367 464
490.0 473 402 313 326 284 259 258 255 289 311
530.0 327 334 386 390 432 472 622 981 1465 1677
570.0 1818 1780 1443 1063 823 880 795 638 510 416
610.0 304 303 240 270 245 280 273 285 303 283
650.0 293 280 288 246 275 261 253 246 238 235
690.0 233 231 213 219 206 216 211 204 206 203
730.0 217 215 222 219 229 224 232 243 250 273
770.0 277 305 307 341 373 443 531 655 741 845
810.0 974 1127 1331 1571 1893 2240 2224 2103 1862 1432
850.0 1118 802 626 502 407 364 309 299 262 257
890.0 247 242 248 246 253 251 265 278 308 334
930.0 384 450 578 794 1034 1199 1244 1194 991 741
970.0 558 458 406 376 367 365 357 353 379 409
1010.0 427 436 437 415 385 372 357 350 343 353
1050.0 361 385 396 411 426 437 446 449 464 470
1090.0 512 599 749 869 880 901 878 780 730 758
1130.0 823 907 990 1149 1451 1986 2771 3997 5620 6385
1170.0 6379 6795 6829 6243 5704 5292 4067 2355 1381 1037
1210.0 907 884 941 1090 1341 1687 2142 2692 3348 4222
1250.0 5532 7419 9255 10000 9489 8022 4876 2254 1164 895
1290.0 803 799 809 827 820 847 901 971 1085 1150
1330.0 1179 1153 1112 1131 1342 1730 2169 2458 2503 2385
1370.0 1933 1363 951 708 574 517 496 513 583 667
1410.0 782 967 1153 1402 1488 1502 1346 1126 879 748
1450.0 633 571 491 442 413 371 342 338 370 373
1490.0 457 623 848 1276 1512 1614 1537 1342 947 699
1530.0 559 539 462 482 412 467 445 471 533 601
1570.0 798 1016 1472 2151 2853 3762 4321 5588 5517 5689
1610.0 4934 4289 2989 1945 1347 973 838 702 673 590
1650.0 628 576 606 574 637 656 833 1111 1621 2478
1690.0 3917 5187 6310 6060 6168 4793 3289 1961 1276 1000
1730.0 690 630 510 534 435 460 462 445 415 382
1770.0 365 290 308 253 268 226 253 243 227 246
1810.0 231 231 213 235 207 225 215 239 218 217
1850.0 238 233 235 227 238 217 247 247 258 259
1890.0 273 286 279 290 273 276 257 262 253 256
1930.0 274 274 287 272 286 268 258 238 233 214
1970.0 211 216 208 212 201 207 204 215 219 220
2010.0 218 212 218 218 227 218 219 206 207 204
2050.0 199 200 198 203 197 216 213 218 218 227
2090.0 225 224 228 219 213 197 198 188 189 188
2130.0 190 187 189 191 185 192 189 192 189 192
2170.0 194 195 201 203 207 202 204 200 201 196
2210.0 195 196 192 197 192 196 190 195 193 195
2250.0 196 196 198 199 205 203 211 216 222 224
2290.0 232 243 250 260 266 277 266 272 274 269
2330.0 266 261 252 260 256 261 254 244 263 238
2370.0 252 243 247 246 227 218 207 212 214 222
2410.0 226 235 247 255 271 278 286 285 292 280
2450.0 273 257 243 228 215 212 205 211 206 210
2490.0 210 210 218 218 222 226 237 241 248 247
2530.0 243 232 222 215 205 204 202 209 208 216
2570.0 214 214 214 214 217 217 224 221 226 222
2610.0 224 223 223 218 218 216 217 220 215 221
2650.0 223 222 221 218 220 210 209 205 208 202
2690.0 200 195 194 192 190 189 184 185 181 185
2730.0 184 185 179 182 187 189 192 198 207 213
2770.0 219 220 218 210 207 202 196 196 194 194
2810.0 192 194 194 195 198 204 209 210 215 223
2850.0 226 228 238 239 236 238 237 235 232 233
2890.0 229 235 234 242 247 249 263 278 300 316
2930.0 342 350 353 350 339 332 325 329 337 357
2970.0 366 376 380 374 370 367 383 410 459 531
3010.0 614 657 671 672 656 666 711 749 742 700
3050.0 630 549 504 513 548 597 621 613 585 529
3090.0 470 423 407 391 383 367 357 342 321 301
3130.0 276 268 254 242 236 231 222 220 227 222
3170.0 227 222 230 228 227 228 224 225 221 218
3210.0 211 221 212 212 209 213 219 222 225 225
3250.0 227 226 223 212 207 206 211 213 212 210
3290.0 208 216 221 221 223 232 232 230 229 230
3330.0 231 227 234 227 231 233 236 241 241 250
3370.0 271 278 292 311 303 306 286 259 239 210
3410.0 207 202 193 192 200 200 197 202 195 185
3450.0 180 190 194 184 185 190 192 189 192 194
3490.0 194 192 194 186 189 193 188 196 193 178
3530.0 191 200 198 204 193 201 205 200 201 197
3570.0 205 195 206 212 219 209 215 217 220 224
3610.0 232 246 265 329 433 644 1166 1877 2958 3518
3650.0 3425 3049 2344 1164 581 373 310 245 227 229
3690.0 222 214 215 225 210 236 213 220 220 216
3730.0 232 225 231 208 275 203 259 225 220 219
3770.0 219 215 196 226 204 226 218 241 211 253
3810.0 220 239 220 242 249 241 258 267 246 248
3850.0 260 247 239 240 229 253 237 264 234 257
3890.0 235 262 226 259 237 264 250 248 254 249
3930.0 254 242 264 254 251 244 250 245 251 262
##END=
