##TITLE=Ethanone, 1-(4-chlorophenyl)-
##JCAMP-DX=4.24
##DATA TYPE=INFRARED SPECTRUM
##ORIGIN=Sadtler Research Labs Under US-EPA Contract
##OWNER=NIST Standard Reference Data Program
##CAS REGISTRY NO=99-91-2
##MOLFORM=C 8 H 7 Cl O
##XUNITS=1/CM
##YUNITS=ABSORBANCE
##XFACTOR=1.0
##YFACTOR=0.000067383
##DELTAX=4.0
##FIRSTX=450.0
##LASTX=3966.0
##FIRSTY=0.023854
##MAXX=3966
##MINX=450
##MAXY=0.67383
##MINY=0
##NPOINTS=880
##XYDATA=(X++(Y..Y))
450.0 354 314 184 100 140 217 197 205 305 228
490.0 317 407 585 502 397 507 839 1198 1225 1137
530.0 826 259 193 76 59 49 116 183 83 315
570.0 356 504 672 772 922 808 646 585 406 570
610.0 644 641 823 660 520 271 122 123 121 70
650.0 117 18 0 35 67 170 9 80 82 100
690.0 91 130 87 126 183 183 240 189 133 159
730.0 180 146 151 324 509 1034 1819 2003 1753 1280
770.0 381 95 139 113 215 199 284 383 579 881
810.0 1167 1551 2168 2311 2359 2398 2429 1777 1375 994
850.0 604 372 276 189 129 130 133 102 65 73
890.0 101 101 51 103 96 125 135 125 161 147
930.0 217 341 570 969 1497 1955 2054 1833 1391 944
970.0 609 436 386 274 288 219 219 335 535 1207
1010.0 2324 2392 2283 1555 463 223 212 297 319 387
1050.0 351 446 414 450 518 599 655 760 1050 1921
1090.0 3880 5947 6232 5729 3007 1231 606 428 331 272
1130.0 201 145 104 114 86 84 85 130 193 327
1170.0 606 794 784 728 415 239 191 208 257 317
1210.0 430 615 843 1025 1258 1591 2020 2801 4105 6137
1250.0 8233 9602 9593 7906 5560 3702 2598 1903 1562 1361
1290.0 1178 1021 864 733 661 514 309 231 215 195
1330.0 222 281 360 528 800 1306 2131 2874 3015 2881
1370.0 2055 1344 1125 1179 1445 1801 2017 2011 1782 1411
1410.0 1122 936 848 832 863 848 800 702 626 510
1450.0 420 361 279 288 276 315 381 632 1073 1519
1490.0 1485 1333 783 327 193 196 216 204 174 183
1530.0 207 192 214 203 297 394 494 656 962 1358
1570.0 1681 1949 2145 2417 2958 3681 4153 4166 3563 2609
1610.0 1640 910 539 430 379 356 325 280 287 287
1650.0 306 320 449 525 568 584 644 745 986 1446
1690.0 2300 3617 5819 8551 10000 9982 8871 5897 3451 2005
1730.0 1157 667 446 386 382 368 390 375 341 281
1770.0 222 167 147 139 130 143 124 149 134 110
1810.0 102 65 59 71 68 69 78 85 81 64
1850.0 78 95 101 109 115 116 136 162 176 183
1890.0 179 172 165 156 156 146 138 115 115 101
1930.0 100 94 86 79 75 73 48 52 42 43
1970.0 51 50 58 52 43 39 44 48 50 56
2010.0 65 64 57 57 57 49 56 42 34 25
2050.0 31 30 27 27 25 27 26 27 20 19
2090.0 19 27 27 27 27 27 32 26 26 27
2130.0 20 19 20 21 19 18 26 26 23 23
2170.0 23 25 25 19 26 26 33 26 26 26
2210.0 26 26 26 26 23 25 25 25 26 26
2250.0 25 25 25 25 25 25 44 41 45 48
2290.0 48 54 69 70 62 72 86 87 88 99
2330.0 110 108 87 79 77 70 85 90 111 111
2370.0 81 54 38 28 30 24 24 25 25 24
2410.0 24 25 25 25 27 27 28 24 18 26
2450.0 22 9 17 17 16 16 17 19 20 25
2490.0 27 24 34 44 39 46 46 39 45 47
2530.0 48 58 65 58 70 84 74 84 75 76
2570.0 68 60 54 55 30 43 34 30 46 36
2610.0 30 31 31 23 23 23 23 23 23 23
2650.0 26 34 26 31 22 28 23 22 22 23
2690.0 23 17 22 22 18 15 23 23 14 1
2730.0 16 15 23 23 22 20 25 28 23 23
2770.0 23 23 18 18 25 24 23 25 23 26
2810.0 26 30 24 33 29 41 49 63 72 78
2850.0 77 77 87 63 60 62 45 36 52 52
2890.0 44 52 45 54 64 67 76 84 111 130
2930.0 156 169 166 171 170 134 150 144 164 194
2970.0 207 239 255 238 213 195 188 194 204 265
3010.0 376 467 487 461 368 261 235 232 225 228
3050.0 227 228 251 266 291 312 327 314 358 413
3090.0 450 444 451 404 306 222 163 114 95 80
3130.0 75 82 64 55 61 47 41 41 41 41
3170.0 31 32 34 42 42 34 23 23 25 30
3210.0 13 5 21 13 22 27 3 8 25 21
3250.0 36 22 22 25 36 36 23 23 29 38
3290.0 36 26 21 30 20 38 27 25 24 31
3330.0 17 32 35 34 32 36 43 26 33 39
3370.0 49 61 85 124 147 186 201 192 176 151
3410.0 114 90 48 60 43 37 37 29 46 30
3450.0 34 52 48 49 42 38 33 22 47 38
3490.0 46 9 12 39 15 36 32 22 33 28
3530.0 25 33 33 33 33 33 32 39 38 27
3570.0 35 34 22 36 21 27 36 43 35 45
3610.0 42 27 18 9 21 23 28 39 29 30
3650.0 15 15 24 39 32 27 21 17 25 42
3690.0 23 49 46 41 47 25 32 52 53 39
3730.0 46 38 25 35 13 13 18 19 34 34
3770.0 33 47 43 43 44 50 42 36 47 51
3810.0 50 53 30 44 47 51 35 28 39 35
3850.0 50 47 59 55 38 47 55 56 62 61
3890.0 50 56 47 51 57 43 41 42 49 63
3930.0 42 43 33 43 41 59 10 13 13 14
##END=
