##TITLE=Acetophenone, 4'-amino-
##JCAMP-DX=4.24
##DATA TYPE=INFRARED SPECTRUM
##ORIGIN=Sadtler Research Labs Under US-EPA Contract
##OWNER=NIST Standard Reference Data Program
##CAS REGISTRY NO=99-92-3
##MOLFORM=C 8 H 9 N O
##XUNITS=1/CM
##YUNITS=ABSORBANCE
##XFACTOR=1.0
##YFACTOR=0.000080984
##DELTAX=4.0
##FIRSTX=450.0
##LASTX=3966.0
##FIRSTY=0.000000
##MAXX=3966
##MINX=450
##MAXY=0.80984
##MINY=0
##NPOINTS=880
##XYDATA=(X++(Y..Y))
450.0 0 1184 523 1708 392 1310 662 1268 610 1127
490.0 996 672 933 692 966 530 1043 693 930 834
530.0 1086 1031 974 1253 1065 1313 1296 2102 2140 2471
570.0 2578 2686 1813 1920 2080 1547 1347 1216 1285 1061
610.0 1059 1025 950 978 973 1043 1002 1163 1132 1206
650.0 1226 1411 1512 1626 1804 1733 1753 1608 1773 1728
690.0 1823 1800 1761 1555 1402 1397 1316 1382 1325 1354
730.0 1221 1192 1104 1045 1012 955 975 891 953 893
770.0 911 875 920 950 913 891 1118 1183 1219 1444
810.0 1565 1767 1941 2151 2401 2472 2172 1817 1614 1286
850.0 1115 886 822 748 713 685 656 674 610 648
890.0 595 617 592 620 607 605 639 647 688 691
930.0 791 873 1081 1340 1580 1669 1654 1537 1240 1032
970.0 873 829 749 725 698 679 661 655 679 668
1010.0 697 675 687 647 642 618 603 592 583 594
1050.0 574 614 621 662 691 729 736 724 725 692
1090.0 691 678 711 701 747 790 840 895 959 1011
1130.0 987 999 966 932 873 856 843 883 1057 1657
1170.0 2973 4065 4066 3990 3328 1755 950 755 730 786
1210.0 794 839 854 935 1017 1219 1485 1882 2419 3198
1250.0 4348 5932 7960 9509 10000 9456 8099 5577 3897 3292
1290.0 2866 2294 1744 1446 1232 1118 1015 882 785 734
1330.0 768 805 884 1059 1414 1937 2532 2827 2905 2753
1370.0 2162 1516 1100 900 763 732 659 694 725 775
1410.0 796 913 931 1162 1298 1458 1376 1350 1151 965
1450.0 760 712 680 643 644 642 555 596 611 595
1490.0 623 741 811 983 1211 1407 1502 1484 1354 1172
1530.0 920 857 720 786 669 768 684 784 850 955
1570.0 1156 1412 1678 2019 2505 3318 4472 5967 6236 6535
1610.0 6254 6252 6443 6934 7416 6968 5805 4160 3194 2107
1650.0 1642 1435 1277 1211 1278 1366 1699 2224 3208 4894
1690.0 6451 6625 7256 6347 5125 3064 2219 1364 1120 931
1730.0 792 748 713 718 615 650 617 629 553 562
1770.0 506 488 476 443 451 418 444 415 404 414
1810.0 424 411 411 422 402 423 413 440 414 429
1850.0 445 448 446 446 458 431 467 452 465 447
1890.0 456 454 463 464 454 460 455 470 465 483
1930.0 496 500 499 479 498 493 491 473 475 437
1970.0 441 428 420 411 414 402 403 422 426 440
2010.0 436 452 444 457 452 446 439 433 432 424
2050.0 418 409 414 402 397 402 394 399 392 401
2090.0 396 408 405 415 415 415 414 412 417 410
2130.0 406 401 405 396 399 404 402 399 392 394
2170.0 387 395 395 401 402 405 402 396 393 389
2210.0 388 380 382 374 372 369 371 369 366 372
2250.0 371 372 371 376 380 387 390 394 398 398
2290.0 405 414 427 428 440 442 441 430 434 432
2330.0 436 452 417 470 482 428 456 425 508 496
2370.0 509 483 480 447 419 391 377 371 368 367
2410.0 364 371 372 380 381 392 395 394 395 388
2450.0 385 376 378 370 372 359 355 350 350 348
2490.0 346 347 345 345 343 354 349 355 355 348
2530.0 343 337 336 328 327 326 346 348 345 351
2570.0 361 370 369 383 394 402 410 419 422 429
2610.0 430 430 432 426 430 423 427 425 427 428
2650.0 424 411 402 399 385 384 380 382 377 372
2690.0 374 370 372 368 366 372 370 367 361 353
2730.0 362 359 351 356 361 365 367 367 373 375
2770.0 377 380 386 384 384 380 382 378 381 380
2810.0 379 376 379 384 386 387 391 399 398 405
2850.0 415 421 426 431 438 442 437 435 437 437
2890.0 441 452 452 453 453 462 474 487 501 525
2930.0 537 551 551 543 534 520 514 513 529 540
2970.0 557 571 583 578 585 605 638 696 773 888
3010.0 976 1018 1018 1017 1027 1091 1205 1280 1294 1229
3050.0 1112 970 888 881 881 878 840 797 738 708
3090.0 685 677 663 647 631 603 580 557 540 520
3130.0 502 483 469 451 450 451 450 451 441 439
3170.0 429 418 412 411 423 423 432 446 458 471
3210.0 486 489 487 469 456 449 442 423 421 409
3250.0 400 409 401 403 402 411 406 398 408 405
3290.0 405 412 407 412 414 409 417 415 414 421
3330.0 421 425 435 429 432 443 454 465 495 509
3370.0 545 544 555 557 537 552 578 628 693 789
3410.0 929 1070 1159 1218 1213 1148 1048 932 813 695
3450.0 589 521 478 462 469 462 473 502 529 539
3490.0 600 632 654 670 670 716 697 697 662 598
3530.0 593 564 551 510 434 425 427 399 416 320
3570.0 378 403 399 401 356 391 363 366 387 380
3610.0 357 366 364 373 402 373 400 407 388 412
3650.0 345 388 410 383 413 331 439 383 448 372
3690.0 420 410 402 394 399 397 400 384 389 369
3730.0 393 390 405 401 411 426 369 412 406 405
3770.0 402 401 407 406 425 405 397 394 405 408
3810.0 448 387 447 411 450 464 439 453 480 462
3850.0 505 475 452 433 442 440 427 437 372 453
3890.0 432 413 410 402 414 461 438 422 441 421
3930.0 434 417 430 447 448 417 466 439 459 433
##END=
