##TITLE=Benzoic acid, 4-hydroxy-
##JCAMP-DX=4.24
##DATA TYPE=INFRARED SPECTRUM
##ORIGIN=Sadtler Research Labs Under US-EPA Contract
##OWNER=NIST Standard Reference Data Program
##CAS REGISTRY NO=99-96-7
##MOLFORM=C 7 H 6 O 3
##XUNITS=1/CM
##YUNITS=ABSORBANCE
##XFACTOR=1.0
##YFACTOR=0.000062958
##DELTAX=4.0
##FIRSTX=450.0
##LASTX=3966.0
##FIRSTY=0.007870
##MAXX=3966
##MINX=450
##MAXY=0.62958
##MINY=0
##NPOINTS=880
##XYDATA=(X++(Y..Y))
450.0 125 115 12 136 237 240 363 476 630 852
490.0 1179 1450 1588 1266 1056 699 410 284 194 159
530.0 183 229 297 366 480 612 682 822 873 1045
570.0 1233 1034 945 1350 2027 2223 2251 2231 1531 724
610.0 268 114 56 54 80 119 130 205 217 239
650.0 204 198 215 181 237 339 327 444 576 684
690.0 933 988 820 732 675 522 425 459 474 425
730.0 441 391 278 286 404 546 694 910 1126 1367
770.0 1628 1399 1135 1025 790 619 456 396 374 399
810.0 431 449 438 452 542 705 930 1087 1149 1221
850.0 1097 765 589 458 315 244 164 128 93 78
890.0 79 74 66 79 89 86 105 108 131 136
930.0 152 158 133 126 108 119 94 97 90 99
970.0 104 102 87 64 70 59 65 85 138 217
1010.0 290 315 340 343 311 312 320 349 397 494
1050.0 633 875 1277 1899 2919 4244 5244 5482 5409 4848
1090.0 3364 2146 1567 1223 1019 853 730 655 610 607
1130.0 644 758 965 1396 2288 4050 6634 8849 9268 8976
1170.0 7552 5408 4617 4959 5279 5362 4876 3584 2397 1539
1210.0 1003 754 659 645 683 762 873 991 1181 1472
1250.0 1944 2680 3584 4347 4624 4225 3358 2126 1115 711
1290.0 627 621 659 738 887 1111 1473 2021 2584 2805
1330.0 2738 2426 1841 1239 1056 1240 1647 2145 2391 2306
1370.0 2089 1522 913 580 437 341 293 251 256 265
1410.0 317 367 480 645 795 893 870 802 635 428
1450.0 282 256 226 198 188 149 163 148 185 217
1490.0 309 401 583 945 1222 1709 1756 1595 1373 886
1530.0 523 321 237 220 185 193 200 228 267 316
1570.0 408 449 598 866 1194 1837 2388 3323 3652 4168
1610.0 3891 3462 2862 2045 1511 824 665 453 427 282
1650.0 331 241 290 263 264 267 232 262 268 304
1690.0 344 427 439 490 534 543 556 546 622 628
1730.0 896 1201 2025 3104 5384 7378 9703 10000 9851 8663
1770.0 5837 3207 2012 1370 919 639 447 380 266 290
1810.0 247 269 237 270 226 179 140 119 91 61
1850.0 67 46 51 39 42 33 30 48 46 60
1890.0 65 89 92 121 132 159 153 153 144 105
1930.0 90 62 62 48 67 57 56 61 52 44
1970.0 35 39 34 47 46 54 58 52 54 37
2010.0 36 19 33 24 28 23 23 19 18 19
2050.0 6 16 15 21 11 23 23 28 33 41
2090.0 50 53 67 61 62 48 44 30 24 25
2130.0 20 29 30 38 34 44 42 40 36 32
2170.0 30 15 20 16 17 9 18 12 12 13
2210.0 15 20 17 26 21 31 33 35 35 34
2250.0 31 26 26 27 34 34 41 49 57 66
2290.0 78 93 104 120 128 142 139 121 131 111
2330.0 103 87 86 121 131 166 125 109 96 94
2370.0 77 108 112 127 92 62 44 45 47 54
2410.0 62 68 80 82 94 97 104 99 105 102
2450.0 97 95 86 74 60 57 45 47 50 49
2490.0 47 44 47 45 44 39 51 56 59 61
2530.0 60 53 48 41 33 30 31 33 33 37
2570.0 32 31 37 35 44 40 48 49 51 42
2610.0 46 47 42 46 44 42 40 37 33 37
2650.0 37 38 39 40 46 40 44 37 41 39
2690.0 35 41 40 40 35 36 29 29 27 28
2730.0 25 22 26 26 33 33 39 40 49 47
2770.0 52 48 41 46 40 38 36 35 32 30
2810.0 28 34 38 36 41 41 47 47 52 49
2850.0 37 41 47 50 50 50 44 42 40 46
2890.0 46 40 44 40 44 40 55 56 58 64
2930.0 69 72 75 73 65 55 51 57 53 62
2970.0 64 65 60 51 49 48 58 68 89 106
3010.0 141 168 183 202 218 231 246 284 310 306
3050.0 301 266 220 191 185 195 220 241 255 236
3090.0 217 175 146 117 111 106 109 108 90 84
3130.0 75 62 57 57 42 45 48 33 36 40
3170.0 38 34 39 33 35 42 42 35 33 30
3210.0 31 34 33 32 29 39 42 29 35 34
3250.0 40 36 44 41 40 48 45 46 38 33
3290.0 41 46 47 52 67 67 63 58 57 58
3330.0 49 57 56 57 55 59 59 63 59 68
3370.0 58 55 57 61 49 54 53 50 50 37
3410.0 34 39 39 40 42 39 38 50 31 33
3450.0 28 27 36 27 50 31 31 40 61 59
3490.0 49 69 65 56 55 36 44 7 24 22
3530.0 16 26 34 40 63 40 64 66 111 236
3570.0 441 973 1924 3048 3334 3140 2705 1473 463 152
3610.0 88 94 115 146 221 442 832 1369 2246 2597
3650.0 2516 2181 1645 717 359 188 113 104 33 74
3690.0 32 64 27 66 24 53 38 35 33 48
3730.0 44 62 65 76 48 28 94 6 34 42
3770.0 21 16 4 38 2 29 29 29 41 23
3810.0 17 24 4 62 24 18 32 38 7 50
3850.0 0 75 35 39 51 57 31 10 56 31
3890.0 60 27 51 49 69 12 27 52 51 35
3930.0 28 36 23 31 6 46 21 46 23 42
##END=
