##TITLE=Benzoic acid, 4-methyl-
##JCAMP-DX=4.24
##DATA TYPE=INFRARED SPECTRUM
##ORIGIN=Sadtler Research Labs Under US-EPA Contract
##OWNER=NIST Standard Reference Data Program
##CAS REGISTRY NO=99-94-5
##MOLFORM=C 8 H 8 O 2
##XUNITS=1/CM
##YUNITS=ABSORBANCE
##XFACTOR=1.0
##YFACTOR=0.000135638
##DELTAX=4.0
##FIRSTX=450.0
##LASTX=3966.0
##FIRSTY=0.108918
##MAXX=3966
##MINX=450
##MAXY=1.35638
##MINY=0
##NPOINTS=880
##XYDATA=(X++(Y..Y))
450.0 803 405 171 692 774 583 842 555 548 540
490.0 288 327 149 194 126 126 176 167 253 323
530.0 237 515 451 641 569 903 918 827 900 1026
570.0 1401 1347 1335 1683 1658 1453 1397 837 397 212
610.0 82 96 73 117 132 93 128 138 153 141
650.0 123 143 54 100 60 80 184 249 383 438
690.0 623 711 657 700 1038 1179 1238 843 781 507
730.0 401 596 789 1142 1422 1617 2312 2078 1594 1312
770.0 958 612 402 270 244 235 214 188 190 198
810.0 189 245 247 255 282 325 301 382 384 308
850.0 167 197 74 63 58 0 54 33 56 62
890.0 40 66 55 50 53 5 31 34 17 48
930.0 53 86 97 110 89 76 112 100 95 104
970.0 91 100 91 87 100 97 98 89 96 117
1010.0 201 462 651 678 711 577 362 278 285 297
1050.0 357 473 686 1038 1632 2537 3893 5186 5364 5182
1090.0 4507 2805 1478 898 628 493 466 391 394 389
1130.0 350 325 325 375 489 717 1147 1736 2691 4179
1170.0 4992 4956 4746 3889 2922 2072 1804 1725 1053 566
1210.0 444 408 420 467 502 530 548 532 553 587
1250.0 691 851 954 960 899 777 598 524 531 571
1290.0 632 684 727 809 920 1171 1492 1600 1493 1303
1330.0 901 552 493 595 848 1348 2096 2516 2525 2364
1370.0 1647 852 513 419 379 373 379 407 466 526
1410.0 573 569 602 507 448 371 317 259 218 197
1450.0 191 186 179 190 183 205 213 220 205 219
1490.0 250 231 294 332 390 447 452 398 319 256
1530.0 242 171 168 153 177 170 160 196 169 212
1570.0 225 238 277 282 328 372 460 548 689 874
1610.0 1083 1261 1226 1157 946 614 413 263 207 175
1650.0 142 127 126 140 165 156 195 170 200 189
1690.0 227 260 321 371 435 483 547 542 525 600
1730.0 680 933 1394 2187 3753 6069 8476 9664 10000 9119
1770.0 6812 4109 2424 1549 1006 689 461 353 352 302
1810.0 298 295 274 264 211 176 124 100 76 58
1850.0 56 35 32 36 32 48 34 37 46 56
1890.0 70 72 72 80 82 112 105 119 126 124
1930.0 120 114 105 102 99 83 83 70 50 45
1970.0 47 38 35 42 39 43 32 27 23 17
2010.0 11 16 14 22 8 12 10 8 19 11
2050.0 9 10 6 13 8 4 11 4 14 15
2090.0 18 21 21 20 21 17 10 9 5 4
2130.0 2 6 12 10 12 29 40 35 36 33
2170.0 30 23 9 12 8 12 8 6 2 7
2210.0 11 10 9 7 9 14 16 16 14 14
2250.0 15 12 15 14 15 14 18 15 16 18
2290.0 24 21 22 22 21 20 17 19 12 23
2330.0 28 47 48 13 87 27 59 15 61 62
2370.0 64 67 57 46 38 34 32 28 32 36
2410.0 35 36 34 42 44 42 47 43 42 37
2450.0 33 37 32 29 28 30 31 35 30 34
2490.0 34 34 37 34 30 34 32 32 35 37
2530.0 36 35 35 40 40 45 44 39 41 41
2570.0 45 47 50 54 54 54 58 52 52 48
2610.0 49 42 42 42 42 40 41 43 42 42
2650.0 45 44 44 49 47 51 50 51 56 49
2690.0 47 45 43 41 47 48 47 40 51 54
2730.0 43 42 48 50 56 53 52 51 54 55
2770.0 53 60 62 62 64 65 64 65 62 62
2810.0 70 73 73 76 78 81 86 95 107 111
2850.0 118 132 146 172 205 250 280 307 318 307
2890.0 299 290 272 259 268 277 280 321 383 472
2930.0 563 632 643 602 515 410 333 274 253 240
2970.0 226 210 211 212 225 246 268 301 337 368
3010.0 391 400 398 401 415 450 524 614 664 664
3050.0 610 518 435 362 307 292 279 268 251 239
3090.0 224 212 214 204 195 182 162 141 126 114
3130.0 99 93 86 76 69 76 65 62 57 53
3170.0 52 52 55 50 46 45 53 54 54 57
3210.0 62 65 66 68 61 56 50 50 53 49
3250.0 50 47 49 41 51 40 45 44 51 41
3290.0 42 41 35 41 40 39 38 42 44 42
3330.0 49 50 51 46 41 51 58 55 61 55
3370.0 63 58 61 66 59 74 71 61 45 16
3410.0 13 2 11 23 31 38 41 39 54 46
3450.0 45 49 54 44 43 47 45 40 72 67
3490.0 85 96 109 115 104 101 96 75 76 61
3530.0 66 58 60 54 72 70 78 90 139 195
3570.0 433 895 1934 3178 3513 3312 2756 1319 384 143
3610.0 101 73 63 76 60 85 63 73 60 85
3650.0 60 61 61 58 78 39 84 54 97 79
3690.0 70 81 81 91 89 75 67 67 81 72
3730.0 80 73 73 100 36 102 74 157 155 149
3770.0 159 129 124 81 80 92 68 89 70 51
3810.0 71 70 61 53 82 75 67 58 50 93
3850.0 44 76 42 72 54 46 59 46 74 59
3890.0 67 54 81 62 91 88 57 92 91 94
3930.0 80 98 86 59 93 73 44 36 42 48
##END=
