##TITLE=Benzenamine, N,N,4-trimethyl-
##JCAMP-DX=4.24
##DATA TYPE=INFRARED SPECTRUM
##ORIGIN=Sadtler Research Labs Under US-EPA Contract
##OWNER=NIST Standard Reference Data Program
##CAS REGISTRY NO=99-97-8
##MOLFORM=C 9 H 13 N
##XUNITS=1/CM
##YUNITS=ABSORBANCE
##XFACTOR=1.0
##YFACTOR=0.000060254
##DELTAX=4.0
##FIRSTX=450.0
##LASTX=3966.0
##FIRSTY=0.006146
##MAXX=3966
##MINX=450
##MAXY=0.60254
##MINY=0
##NPOINTS=880
##XYDATA=(X++(Y..Y))
450.0 102 116 144 188 193 223 182 259 249 312
490.0 213 251 397 385 362 465 479 676 721 629
530.0 674 431 446 506 335 316 259 17 308 185
570.0 293 233 118 67 128 120 209 59 21 83
610.0 88 132 98 122 113 82 42 90 63 142
650.0 85 116 16 76 144 242 297 368 296 345
690.0 382 296 309 166 238 247 162 248 141 124
730.0 221 81 168 286 75 179 132 110 155 93
770.0 165 228 263 364 478 713 1187 1611 2000 2508
810.0 2353 2041 1705 1366 864 576 383 279 239 230
850.0 186 141 97 138 184 130 213 138 141 140
890.0 105 125 194 142 214 168 200 286 276 362
930.0 438 602 1002 1447 1692 1714 1413 971 560 403
970.0 385 386 321 319 271 232 224 209 206 197
1010.0 215 229 258 275 265 294 320 369 495 573
1050.0 699 788 787 832 797 756 743 580 545 508
1090.0 474 558 571 579 671 736 850 970 996 1093
1130.0 1137 1251 1398 1532 1751 2087 2440 2694 2639 2400
1170.0 1969 1481 1166 995 955 968 1028 1102 1161 1222
1210.0 1333 1402 1561 1553 1478 1382 1177 989 862 708
1250.0 663 573 520 554 503 505 510 477 505 541
1290.0 559 667 729 876 1034 1174 1389 1717 2101 2707
1330.0 3297 3823 4100 3973 3556 2851 2147 1618 1319 1152
1370.0 1049 947 818 678 625 569 562 549 523 540
1410.0 553 572 652 637 681 776 847 1067 1176 1258
1450.0 1372 1357 1365 1374 1375 1490 1564 1515 1488 1403
1490.0 1402 1488 1711 2209 3101 4532 6670 8831 10000 9338
1530.0 7388 4950 2950 1823 1293 1011 882 833 751 698
1570.0 712 711 716 674 667 650 755 930 1176 1545
1610.0 1888 2278 2549 2457 2204 1747 1241 895 618 515
1650.0 431 383 264 260 232 279 243 228 252 258
1690.0 279 361 553 884 1268 1522 1531 1260 688 372
1730.0 283 265 199 202 216 224 183 148 144 122
1770.0 132 151 103 99 90 84 116 102 90 98
1810.0 82 92 97 91 118 128 115 153 158 199
1850.0 218 218 243 218 210 217 180 167 147 110
1890.0 116 104 111 106 71 53 43 61 61 49
1930.0 50 38 42 51 36 57 36 41 50 41
1970.0 41 65 49 61 60 47 77 70 86 110
2010.0 89 110 122 103 136 92 70 59 44 57
2050.0 58 39 46 23 35 35 36 34 26 26
2090.0 26 32 34 39 38 38 21 30 26 39
2130.0 49 31 31 32 26 53 49 34 36 4
2170.0 27 39 29 38 30 21 52 44 66 57
2210.0 44 44 36 26 43 27 25 27 17 35
2250.0 25 44 43 33 30 31 30 53 52 53
2290.0 27 51 51 62 76 59 33 61 44 74
2330.0 100 26 65 39 20 86 93 99 177 81
2370.0 129 73 49 54 39 38 38 30 45 53
2410.0 38 44 29 40 54 60 55 49 46 62
2450.0 71 79 72 72 72 71 90 79 78 85
2490.0 74 85 92 80 96 81 81 88 72 85
2530.0 95 82 99 71 80 98 88 114 107 89
2570.0 107 106 117 137 102 112 106 110 132 125
2610.0 117 123 107 124 122 126 123 117 124 119
2650.0 124 132 138 147 135 123 149 132 160 155
2690.0 131 142 142 147 190 161 172 185 179 238
2730.0 265 300 357 387 441 499 500 582 628 732
2770.0 899 1073 1304 1608 1904 2253 2502 2651 2711 2617
2810.0 2444 2238 2062 1953 1930 1977 2045 2095 2155 2192
2850.0 2324 2397 2479 2597 2696 2865 3035 3047 3025 2875
2890.0 2631 2553 2401 2377 2348 2337 2430 2591 2809 3235
2930.0 3473 3680 3707 3463 3251 3106 2984 2964 2797 2607
2970.0 2477 2359 2373 2385 2396 2349 2293 2216 2123 2014
3010.0 1958 1927 2031 2149 2262 2279 2151 1929 1625 1284
3050.0 1065 846 737 727 678 729 742 751 807 777
3090.0 730 716 619 636 611 516 448 335 254 247
3130.0 196 186 176 124 148 125 125 127 94 77
3170.0 68 53 71 50 71 52 54 53 39 67
3210.0 69 62 62 28 40 69 58 87 32 30
3250.0 36 45 65 75 16 61 30 25 73 36
3290.0 43 49 25 62 57 40 73 34 39 40
3330.0 32 49 63 46 53 18 50 69 73 54
3370.0 32 33 40 58 66 55 42 44 40 94
3410.0 55 54 40 27 64 67 33 75 54 55
3450.0 79 32 82 66 57 72 44 35 68 43
3490.0 84 58 35 53 59 74 90 54 39 52
3530.0 57 78 69 69 61 61 77 67 80 79
3570.0 59 69 43 71 86 70 85 70 62 80
3610.0 92 102 105 58 88 91 71 102 76 67
3650.0 104 55 114 100 90 120 98 80 88 95
3690.0 106 81 78 96 71 106 101 99 102 94
3730.0 88 112 113 134 128 136 92 88 105 97
3770.0 90 79 55 71 92 71 112 76 94 108
3810.0 81 114 121 80 95 86 98 131 101 102
3850.0 121 118 113 116 115 140 98 91 81 87
3890.0 106 116 113 100 85 97 109 100 76 60
3930.0 76 70 104 98 84 92 0 7 7 7
##END=
