##TITLE=2-Heptanone, 3-butyl-,
##JCAMP-DX=4.24
##DATA TYPE=INFRARED SPECTRUM
##ORIGIN=Sadtler Research Labs Under US-EPA Contract
##OWNER=NIST Standard Reference Data Program
##CAS REGISTRY NO=997-69-3
##MOLFORM=C 11 H 22 O
##XUNITS=1/CM
##YUNITS=ABSORBANCE
##XFACTOR=1.0
##YFACTOR=0.000090314
##DELTAX=4.0
##FIRSTX=450.0
##LASTX=3966.0
##FIRSTY=0.000000
##MAXX=3966
##MINX=450
##MAXY=0.90314
##MINY=0
##NPOINTS=880
##XYDATA=(X++(Y..Y))
450.0 0 16 31 44 77 86 122 129 118 137
490.0 135 113 85 79 85 69 79 67 65 83
530.0 79 98 104 109 161 127 112 151 125 154
570.0 121 150 148 145 193 248 235 284 228 166
610.0 131 111 83 36 45 64 82 61 56 50
650.0 63 24 24 27 2 26 42 44 58 56
690.0 72 99 153 165 188 205 219 217 223 212
730.0 231 219 222 204 181 173 135 106 110 125
770.0 99 94 88 94 127 80 51 88 81 30
810.0 51 62 37 39 38 50 38 40 39 46
850.0 53 68 70 74 50 60 61 81 103 104
890.0 122 142 154 175 193 230 255 264 266 269
930.0 280 314 342 370 379 371 363 338 335 318
970.0 302 269 236 209 207 189 173 167 162 155
1010.0 155 136 138 129 132 125 130 123 130 134
1050.0 129 126 135 152 155 179 180 198 207 229
1090.0 247 268 290 330 368 408 447 472 511 592
1130.0 678 749 757 717 676 706 848 1085 1322 1496
1170.0 1472 1304 1027 790 640 563 512 505 508 535
1210.0 563 586 601 605 594 582 557 551 547 524
1250.0 503 447 403 357 330 309 314 320 336 357
1290.0 354 349 346 340 337 347 344 359 366 397
1330.0 444 542 705 943 1273 1670 2022 2170 2056 1737
1370.0 1421 1198 1061 993 911 772 589 481 407 392
1410.0 401 401 449 462 487 502 562 610 691 803
1450.0 936 1108 1276 1420 1449 1368 1181 868 588 412
1490.0 327 260 244 212 220 220 200 199 213 181
1530.0 180 155 170 167 153 129 125 136 106 98
1570.0 96 93 88 83 78 79 75 81 81 78
1610.0 81 79 93 80 96 74 96 103 101 110
1650.0 142 134 140 156 187 221 277 319 397 451
1690.0 488 534 670 873 1202 1775 2623 3713 4865 5570
1730.0 5191 3845 2293 1274 804 605 502 452 427 388
1770.0 363 319 261 212 167 149 129 119 114 84
1810.0 74 70 50 46 42 42 31 24 27 30
1850.0 20 24 28 27 27 28 18 20 20 20
1890.0 17 23 15 15 11 12 17 12 23 11
1930.0 14 13 13 14 19 14 14 16 13 17
1970.0 10 8 14 7 9 20 10 6 11 3
2010.0 8 9 11 9 18 14 13 15 23 20
2050.0 16 20 12 19 16 13 13 12 19 14
2090.0 18 17 18 13 20 19 18 19 19 12
2130.0 18 13 14 6 12 15 9 14 14 8
2170.0 9 12 7 7 12 8 12 12 8 6
2210.0 4 3 10 4 14 13 12 12 12 7
2250.0 17 13 14 12 9 11 16 13 15 13
2290.0 13 11 8 19 11 7 15 9 6 23
2330.0 13 3 6 7 13 5 19 20 29 19
2370.0 17 16 22 19 25 20 20 20 20 21
2410.0 25 25 22 16 22 23 21 21 25 27
2450.0 31 22 27 27 21 21 17 16 19 19
2490.0 26 17 19 26 22 22 22 28 23 34
2530.0 27 32 27 34 34 34 32 39 40 34
2570.0 40 33 50 46 48 51 48 54 52 46
2610.0 57 56 61 50 51 61 56 68 76 73
2650.0 80 75 73 79 88 106 112 106 114 99
2690.0 102 93 99 98 96 90 87 95 101 107
2730.0 113 125 142 157 166 163 155 144 139 139
2770.0 147 152 152 168 173 203 219 238 256 280
2810.0 284 324 338 367 404 460 503 588 674 828
2850.0 1066 1489 2102 2854 3569 4062 4143 4070 4059 3910
2890.0 3569 3013 2673 2575 2738 3016 3475 4105 4964 6098
2930.0 7522 8932 10000 9975 9045 7430 6079 5631 6334 7735
2970.0 8620 7733 5652 3450 2127 1512 1215 1047 966 874
3010.0 832 759 704 627 577 514 475 412 383 332
3050.0 312 282 276 249 242 231 211 204 197 196
3090.0 197 175 160 148 137 131 115 114 113 107
3130.0 88 91 82 85 75 86 80 79 82 73
3170.0 67 71 62 72 61 67 68 56 56 44
3210.0 45 46 34 40 25 29 20 32 26 24
3250.0 25 18 19 9 10 11 26 10 15 10
3290.0 19 11 8 11 18 15 10 11 12 11
3330.0 15 7 12 18 15 15 5 17 24 23
3370.0 22 21 17 13 27 27 28 26 22 19
3410.0 34 39 44 57 65 65 82 71 49 20
3450.0 24 12 28 23 20 24 14 14 19 14
3490.0 14 14 30 20 19 14 15 16 26 23
3530.0 15 21 26 19 11 21 32 21 19 18
3570.0 18 27 31 33 20 22 26 18 37 31
3610.0 29 23 22 28 29 27 28 17 35 27
3650.0 31 30 29 18 22 21 23 25 23 28
3690.0 29 20 19 25 23 19 15 20 21 23
3730.0 25 27 18 31 20 87 11 21 31 37
3770.0 25 32 28 33 21 28 20 21 35 25
3810.0 33 21 22 12 23 24 24 28 20 25
3850.0 25 29 26 27 34 35 28 28 34 23
3890.0 24 24 25 15 21 22 24 20 25 25
3930.0 25 20 19 25 26 38 49 51 51 52
##END=
