##TITLE=2-Propenoic acid, 2-propenyl ester
##JCAMP-DX=4.24
##DATA TYPE=INFRARED SPECTRUM
##ORIGIN=Sadtler Research Labs Under US-EPA Contract
##OWNER=NIST Standard Reference Data Program
##CAS REGISTRY NO=999-55-3
##MOLFORM=C 6 H 8 O 2
##XUNITS=1/CM
##YUNITS=ABSORBANCE
##XFACTOR=1.0
##YFACTOR=0.000107541
##DELTAX=4.0
##FIRSTX=450.0
##LASTX=3966.0
##FIRSTY=0.011292
##MAXX=3966
##MINX=450
##MAXY=1.07541
##MINY=0
##NPOINTS=880
##XYDATA=(X++(Y..Y))
450.0 105 97 116 183 130 90 79 151 155 159
490.0 144 84 97 126 105 112 128 144 131 117
530.0 125 118 100 121 137 118 126 102 95 97
570.0 89 88 111 92 84 119 86 89 71 86
610.0 75 66 69 73 63 68 74 84 102 102
650.0 128 136 139 149 138 138 171 95 80 76
690.0 59 57 45 37 24 24 18 18 13 23
730.0 13 0 23 21 22 10 24 20 27 36
770.0 57 92 50 90 119 192 282 354 435 569
810.0 655 647 563 507 429 357 303 255 232 217
850.0 205 187 185 183 188 187 195 195 207 207
890.0 213 231 253 294 348 436 562 728 959 1152
930.0 1210 1217 1162 1032 906 868 917 1021 1245 1374
970.0 1487 1652 1874 2169 2454 2540 2385 2157 1744 1307
1010.0 961 714 560 490 480 523 634 845 1180 1618
1050.0 2044 2295 2302 2145 1755 1244 829 612 510 454
1090.0 422 410 406 403 394 374 353 325 300 290
1130.0 301 333 389 476 605 792 1046 1380 1833 2574
1170.0 3768 5514 7568 9073 10000 9668 8425 5937 3907 2522
1210.0 1709 1270 1027 876 778 747 780 930 1246 1803
1250.0 2559 3291 3827 4047 4049 3600 2983 2389 2033 1887
1290.0 1906 1926 1858 1726 1422 1009 655 443 314 252
1330.0 211 193 196 193 189 201 216 231 246 242
1370.0 241 237 232 244 280 390 635 1342 2152 2578
1410.0 2615 2645 2149 1160 749 514 472 447 449 476
1450.0 501 526 512 455 374 327 281 222 188 170
1490.0 166 134 142 119 140 140 116 116 113 98
1530.0 79 79 71 85 65 58 59 68 64 51
1570.0 64 54 71 61 66 73 93 106 128 173
1610.0 205 260 311 378 444 520 637 644 662 597
1650.0 539 386 283 241 184 168 128 152 132 178
1690.0 153 202 205 282 319 360 476 654 973 1283
1730.0 2068 2750 4011 4727 5585 5371 5696 5080 4012 2866
1770.0 2048 1305 844 580 381 297 218 204 146 147
1810.0 122 119 95 102 97 92 94 87 105 100
1850.0 112 102 120 116 125 123 106 97 75 77
1890.0 67 71 60 66 67 74 86 94 122 124
1930.0 142 134 130 117 98 76 66 63 54 56
1970.0 47 50 45 44 42 46 43 38 40 39
2010.0 44 51 63 58 64 58 51 48 41 38
2050.0 30 34 29 32 31 35 34 33 35 33
2090.0 34 29 33 29 28 28 30 28 26 25
2130.0 22 24 21 25 22 24 21 18 18 14
2170.0 14 10 12 8 10 8 11 9 9 8
2210.0 8 8 5 7 5 5 6 7 4 6
2250.0 8 4 7 4 9 6 5 6 6 6
2290.0 4 11 11 10 10 11 7 6 5 2
2330.0 7 4 8 5 15 12 10 9 17 10
2370.0 10 16 13 17 11 9 7 7 5 2
2410.0 5 3 4 3 2 0 4 1 5 7
2450.0 4 8 7 10 9 13 11 12 9 7
2490.0 6 4 7 4 2 4 5 2 3 6
2530.0 5 4 4 6 2 6 6 6 5 6
2570.0 5 6 9 7 8 6 8 9 4 7
2610.0 6 7 7 10 8 9 8 10 6 10
2650.0 6 7 5 5 7 5 7 4 7 7
2690.0 10 11 13 15 16 18 12 15 11 12
2730.0 13 11 15 13 13 10 10 7 11 5
2770.0 5 9 6 7 6 10 11 11 13 15
2810.0 19 21 22 24 22 24 22 24 26 28
2850.0 31 37 43 52 60 73 89 103 122 143
2890.0 162 172 172 171 162 152 145 144 160 185
2930.0 216 263 326 393 453 516 558 558 531 486
2970.0 420 359 327 316 326 355 382 395 391 362
3010.0 329 291 276 282 289 298 305 318 305 279
3050.0 251 236 199 158 154 162 186 219 255 304
3090.0 367 408 425 453 463 408 329 282 212 127
3130.0 74 58 45 35 30 29 26 26 23 20
3170.0 19 16 15 12 14 15 15 12 10 12
3210.0 12 14 11 15 10 10 14 10 14 11
3250.0 12 11 11 10 8 8 11 8 9 12
3290.0 10 12 12 13 11 7 9 10 11 12
3330.0 13 11 17 15 15 17 10 18 10 14
3370.0 16 16 20 17 16 18 14 18 17 9
3410.0 17 15 13 10 11 12 11 15 6 11
3450.0 13 18 26 29 47 52 58 62 60 59
3490.0 57 45 34 22 16 6 2 5 0 2
3530.0 1 10 4 7 7 12 13 10 14 7
3570.0 14 6 10 11 13 13 12 13 8 10
3610.0 14 6 11 13 15 13 8 14 13 7
3650.0 12 18 17 12 13 16 12 14 13 19
3690.0 8 18 18 6 13 8 13 14 12 13
3730.0 17 18 12 13 17 6 8 16 19 14
3770.0 18 22 16 16 13 21 8 4 11 8
3810.0 12 5 17 9 27 15 23 21 14 5
3850.0 13 3 2 18 17 30 17 12 23 20
3890.0 14 16 15 14 20 9 11 28 25 27
3930.0 19 30 19 25 20 21 15 13 21 10
##END=
