##TITLE=Diallyl maleate
##JCAMP-DX=4.24
##DATA TYPE=INFRARED SPECTRUM
##ORIGIN=Sadtler Research Labs Under US-EPA Contract
##OWNER=NIST Standard Reference Data Program
##CAS REGISTRY NO=999-21-3
##MOLFORM=C 10 H 12 O 4
##XUNITS=1/CM
##YUNITS=ABSORBANCE
##XFACTOR=1.0
##YFACTOR=0.000162531
##DELTAX=4.0
##FIRSTX=450.0
##LASTX=3966.0
##FIRSTY=0.007639
##MAXX=3966
##MINX=450
##MAXY=1.62531
##MINY=0
##NPOINTS=880
##XYDATA=(X++(Y..Y))
450.0 47 46 80 166 130 27 60 13 52 118
490.0 115 103 79 97 66 87 88 61 52 105
530.0 113 172 135 136 193 143 175 177 161 155
570.0 117 129 180 191 194 197 166 154 155 175
610.0 119 122 104 88 120 98 92 96 87 121
650.0 83 89 100 91 113 109 87 103 127 112
690.0 17 8 73 43 83 91 86 90 65 59
730.0 67 88 70 111 158 139 78 116 94 104
770.0 98 126 164 169 198 227 268 335 427 496
810.0 542 587 619 658 714 716 703 638 553 489
850.0 435 423 406 387 385 360 354 356 354 367
890.0 370 380 419 471 540 665 845 1111 1422 1776
930.0 2007 1994 1746 1417 1141 969 886 867 942 1069
970.0 1236 1523 1941 2475 3081 3484 3539 3319 2994 2685
1010.0 2441 2167 1821 1484 1164 938 763 628 539 501
1050.0 440 374 354 370 360 358 374 362 368 389
1090.0 402 427 451 473 517 565 655 778 900 1095
1130.0 1357 1706 2258 3071 4181 5762 7158 8297 8343 7801
1170.0 6867 5830 5249 4778 4575 4579 4882 5556 5614 5815
1210.0 5560 5086 4604 4119 3774 3418 3202 3076 2986 2906
1250.0 2857 2776 2727 2724 2832 3016 3244 3417 3441 3299
1290.0 3003 2588 2175 1763 1347 988 743 587 491 426
1330.0 376 356 351 377 426 489 555 612 642 650
1370.0 668 670 719 831 1082 1542 2086 2455 2279 1818
1410.0 1247 909 717 653 602 568 529 540 552 601
1450.0 652 684 646 588 483 370 273 229 194 150
1490.0 122 132 113 99 84 79 70 75 55 69
1530.0 63 59 60 25 42 55 46 38 44 55
1570.0 54 60 82 76 104 102 111 134 146 167
1610.0 190 220 273 344 422 571 689 857 982 1030
1650.0 984 857 672 519 394 320 303 282 273 296
1690.0 321 367 408 491 577 677 789 939 1168 1547
1730.0 2070 2907 4469 6165 7933 10000 8865 8476 6695 4766
1770.0 3358 2260 1609 1189 920 754 615 531 455 400
1810.0 359 312 270 240 206 191 180 177 170 168
1850.0 180 187 191 200 191 178 165 142 127 108
1890.0 96 93 86 89 80 76 73 71 70 71
1930.0 70 67 64 62 60 61 62 58 63 60
1970.0 61 64 62 63 59 57 58 58 58 57
2010.0 57 56 48 49 46 46 46 39 39 39
2050.0 38 35 37 34 32 32 35 34 34 31
2090.0 33 32 33 35 33 33 32 30 30 29
2130.0 27 28 27 23 24 24 22 20 22 23
2170.0 20 21 18 18 16 14 15 11 13 10
2210.0 9 7 7 6 5 5 4 1 3 3
2250.0 2 3 2 5 5 3 6 6 4 6
2290.0 6 9 10 12 10 13 17 18 21 23
2330.0 22 22 24 24 27 27 30 23 30 29
2370.0 23 22 18 25 23 22 22 21 23 21
2410.0 20 20 18 20 17 16 17 16 16 14
2450.0 15 13 15 13 10 10 10 10 9 13
2490.0 7 5 6 8 8 5 7 4 5 5
2530.0 4 8 9 9 8 7 7 10 10 13
2570.0 11 15 15 14 15 10 11 7 10 14
2610.0 11 10 15 11 9 9 11 10 10 10
2650.0 10 7 10 11 10 6 6 8 5 6
2690.0 6 9 10 11 13 15 14 14 17 17
2730.0 18 19 20 18 20 20 19 22 19 20
2770.0 22 17 17 20 20 21 24 26 27 32
2810.0 32 36 39 37 36 36 36 37 41 43
2850.0 51 51 62 70 81 98 114 136 167 203
2890.0 230 245 245 227 209 190 185 187 202 229
2930.0 268 331 404 499 611 713 800 833 775 670
2970.0 549 466 420 400 411 436 455 459 438 398
3010.0 359 331 320 328 359 357 324 266 207 173
3050.0 158 157 180 196 214 235 256 290 334 388
3090.0 466 529 549 517 432 323 233 164 117 93
3130.0 73 59 53 49 42 39 38 35 34 31
3170.0 23 27 26 21 24 22 22 23 22 20
3210.0 13 11 11 14 15 13 9 8 7 12
3250.0 8 6 8 7 4 8 10 4 7 10
3290.0 6 10 12 7 7 2 1 3 6 8
3330.0 5 9 8 4 7 1 4 5 15 16
3370.0 13 11 10 5 11 18 14 12 16 14
3410.0 14 11 11 10 16 12 14 14 18 27
3450.0 18 28 33 31 49 58 72 81 87 91
3490.0 82 75 72 63 51 38 31 31 29 19
3530.0 15 18 9 12 11 6 16 10 6 5
3570.0 17 17 13 18 7 9 6 19 14 12
3610.0 1 7 15 5 11 15 6 12 11 8
3650.0 11 8 14 16 8 16 10 8 15 12
3690.0 11 13 6 15 0 11 11 9 9 15
3730.0 12 13 11 10 18 6 24 9 8 12
3770.0 16 0 1 18 13 15 20 16 11 14
3810.0 11 14 18 23 7 20 16 9 19 11
3850.0 17 10 23 15 12 9 22 23 17 6
3890.0 28 30 23 16 14 46 9 17 34 15
3930.0 15 36 36 18 25 36 34 35 35 17
##END=
